_DATE	cpuusage_middle	memusage_middle	network_middle	cpuusage_server	memusage_server	network_server	cpuusage_cassandra1	memusage_cassandra2	network_cassandra1	cpuusage_edge2	cpuusage_edge3	memusage_edge2	memusage_edge3	network_edge1	network_edge4	nodecpu61	nodecpu62	nodecpu63	nodecpu64	nodemem64	locustusers	status_200_count	status_500_count	status_0_count	status_other_count	percentile_viewfeedresponsetime_edge1	percentile_viewfeedresponsetime_edge2	percentile_viewfeedresponsetime_edge3	percentile_viewfeedresponsetime_edge4	percentile_addfeedresponsetime_edge1	percentile_addfeedresponsetime_edge2	percentile_addfeedresponsetime_edge3	percentile_addfeedresponsetime_edge4	percentile_deletefeedresponsetime_edge1	percentile_deletefeedresponsetime_edge2	percentile_deletefeedresponsetime_edge3	percentile_deletefeedresponsetime_edge4	percentile_fetch_middle1	percentile_fetch_middle2	percentile_fetchfeeds_middle	percentile_fetchfeeds_middle	percentile_sub_middle1	percentile_sub_middle2	percentile_unsub_middle1	percentile_unsub_middle2	cpuusage_stress1	cpuusage_stress10	cpuusage_stress11	cpuusage_stress2	cpuusage_stress3	cpuusage_stress4	cpuusage_stress5	cpuusage_stress6	cpuusage_stress7	cpuusage_stress8	cpuusage_stress9	
Thu Jul 27 08:52:00 UTC 2017	403.0	1.08531712E9	8167109.5	31.0	3.151872E7	169051.296875	2.0	5.20695808E8	0.0	5.0	4.0	1.12852992E9	1.1021312E9	1597619.375	1566569.875	0.12349999696016312	0.14624999463558197	0.22200000286102295	0.9482499957084656	0.797248125076294	600.0	null	null	null	null	9.47663606E8	null	null	9.20553357E8	3.71216537E8	null	null	2.80836E8	3.09703479E8	null	null	3.15359995E8	null	2.5212151E8	7.3079588E7	7.3079588E7	null	3.6569457E7	null	3.7784469E7	273.0	277.0	275.0	275.0	275.0	267.0	278.0	273.0	276.0	274.0	275.0	
Thu Jul 27 08:51:00 UTC 2017	409.0	1.084698624E9	8522984.0	30.0	2.9999104E7	169051.296875	2.0	5.18557696E8	0.0	5.0	4.0	1.12852992E9	1.1021312E9	1597619.375	1566569.875	0.13650000095367432	0.14524999260902405	0.21799999475479126	0.9502500295639038	0.7994454503059387	600.0	null	null	null	null	1.022280705E9	null	null	1.001376849E9	3.38240754E8	null	null	2.8769817E8	3.64280674E8	null	null	3.14664326E8	null	2.75817549E8	7.6080051E7	7.6080051E7	null	3.622339E7	null	3.0660785E7	276.0	271.0	275.0	275.0	272.0	270.0	275.0	272.0	272.0	276.0	275.0	
Thu Jul 27 08:50:00 UTC 2017	394.0	1.085730816E9	8522984.0	30.0	3.1592448E7	169051.296875	2.0	5.1525632E8	0.0	5.0	4.0	1.12852992E9	1.1021312E9	1654589.25	1635437.0	0.12049999833106995	0.14775000512599945	0.2224999964237213	0.9472500085830688	0.7970020174980164	600.0	null	null	null	null	8.8625075E8	null	null	1.084829168E9	3.82933936E8	null	null	3.0355858E8	3.04333841E8	null	null	2.95702693E8	null	2.97369762E8	7.8094826E7	7.8094826E7	null	4.3292657E7	null	4.1596259E7	271.0	274.0	276.0	271.0	273.0	274.0	272.0	273.0	273.0	272.0	273.0	
Thu Jul 27 08:49:00 UTC 2017	406.0	1.084469248E9	8522984.0	30.0	2.9806592E7	169051.296875	2.0	5.12753664E8	0.0	5.0	4.0	1.12852992E9	1.1021312E9	1654589.25	1635437.0	0.13899999856948853	0.13199999928474426	0.21899999678134918	0.9472500085830688	0.7979952692985535	500.0	null	null	null	null	8.66661084E8	null	null	1.07509935E9	3.00014925E8	null	null	2.37160066E8	3.10077831E8	null	null	3.2396203E8	null	2.39534384E8	6.8990904E7	6.8990904E7	null	3.3277372E7	null	2.8372804E7	273.0	272.0	275.0	271.0	276.0	274.0	276.0	271.0	273.0	271.0	273.0	
Thu Jul 27 08:48:00 UTC 2017	402.0	1.08644352E9	8522984.0	31.0	2.9802496E7	158964.359375	2.0	5.10971904E8	0.0	5.0	4.0	1.12852992E9	1.1021312E9	1778465.25	1754903.875	0.13474999368190765	0.1287499964237213	0.19750000536441803	0.9492499828338623	0.7964574694633484	500.0	null	null	null	null	9.43783105E8	null	null	9.33450845E8	3.64891459E8	null	null	3.02346347E8	3.48373074E8	null	null	3.43864956E8	null	2.72399403E8	7.467165E7	7.467165E7	null	3.4261576E7	null	3.9070251E7	275.0	271.0	275.0	276.0	273.0	271.0	278.0	275.0	273.0	275.0	275.0	
Thu Jul 27 08:47:00 UTC 2017	409.0	1.084964864E9	8228415.0	30.0	3.0961664E7	158964.359375	2.0	5.09284352E8	0.0	5.0	4.0	1.12852992E9	1.1021312E9	1748383.25	1553519.125	0.12675000727176666	0.13300000131130219	0.21074999868869781	0.9487500190734863	0.7983387112617493	500.0	null	null	null	null	9.91638244E8	null	null	1.10088409E9	3.18006067E8	null	null	3.5967039E8	2.77786219E8	null	null	3.82017969E8	null	2.81819838E8	7.4469859E7	7.4469859E7	null	3.4460845E7	null	3.8296059E7	272.0	275.0	273.0	273.0	272.0	271.0	276.0	274.0	273.0	272.0	275.0	
Thu Jul 27 08:46:00 UTC 2017	403.0	1.08496896E9	8343616.0	31.0	3.096576E7	144789.8125	2.0	5.07138048E8	0.0	5.0	4.0	1.12852992E9	1.1021312E9	1748383.25	1553519.125	0.13625000417232513	0.1277499943971634	0.2004999965429306	0.952750027179718	0.7959975600242615	400.0	null	null	null	null	1.066437745E9	null	null	9.32467086E8	3.84139023E8	null	null	3.1552874E8	2.92055923E8	null	null	3.25121857E8	null	2.88062544E8	7.2013116E7	7.2013116E7	null	3.3842499E7	null	3.6539073E7	280.0	278.0	276.0	275.0	279.0	277.0	280.0	278.0	274.0	277.0	279.0	
Thu Jul 27 08:45:00 UTC 2017	369.0	1.082376192E9	8343616.0	34.0	3.0056448E7	144789.8125	2.0	5.03840768E8	0.0	5.0	4.0	1.12852992E9	1.1021312E9	1748383.25	1553519.125	0.1080000028014183	0.1352500021457672	0.2094999998807907	0.9490000009536743	0.7976997494697571	400.0	null	null	null	null	1.223064946E9	null	null	1.034162484E9	3.88483545E8	null	null	3.28378812E8	3.73689654E8	null	null	3.88419404E8	null	3.08408729E8	8.3418671E7	8.3418671E7	null	4.302693E7	null	4.8556311E7	273.0	271.0	273.0	274.0	273.0	285.0	273.0	272.0	275.0	276.0	270.0	
Thu Jul 27 08:44:00 UTC 2017	413.0	1.082433536E9	8071586.0	32.0	3.0531584E7	167602.9375	2.0	5.04946688E8	0.0	5.0	4.0	1.12852992E9	1.1021312E9	1757507.0	1673978.5	0.11874999850988388	0.12224999815225601	0.19900000095367432	0.9490000009536743	0.795232355594635	400.0	null	null	null	null	1.171636279E9	null	null	1.053153709E9	4.06789056E8	null	null	3.63085872E8	3.93968349E8	null	null	3.93419637E8	null	2.88331049E8	7.9489298E7	7.9489298E7	null	3.9178043E7	null	4.3995179E7	271.0	273.0	274.0	271.0	274.0	275.0	273.0	273.0	271.0	271.0	275.0	
Thu Jul 27 08:43:00 UTC 2017	399.0	1.082753024E9	8647590.0	32.0	3.0543872E7	177319.25	2.0	5.01211136E8	0.0	5.0	4.0	1.12852992E9	1.1021312E9	1757507.0	1673978.5	0.11900000274181366	0.12974999845027924	0.20475000143051147	0.9487500190734863	0.7973543405532837	350.0	null	null	null	null	9.75705967E8	null	null	1.08243283E9	2.786104E8	null	null	3.91881804E8	3.32675218E8	null	null	3.38359606E8	null	2.78933797E8	7.0719837E7	7.0719837E7	null	3.650091E7	null	3.7725554E7	275.0	274.0	275.0	273.0	276.0	284.0	275.0	272.0	275.0	275.0	271.0	
Thu Jul 27 08:42:00 UTC 2017	409.0	1.081696256E9	8383397.0	31.0	3.0818304E7	177319.25	2.0	4.98745344E8	0.0	5.0	4.0	1.12852992E9	1.1021312E9	1569964.375	null	0.12075000256299973	0.11599999666213989	0.18299999833106995	0.9472500085830688	0.796262264251709	350.0	null	null	null	null	9.95391818E8	null	null	1.104631193E9	3.13087532E8	null	null	2.9910549E8	3.27548388E8	null	null	4.24871057E8	null	2.92418561E8	7.5291088E7	7.5291088E7	null	4.5297918E7	null	4.1495874E7	272.0	272.0	273.0	275.0	271.0	277.0	272.0	274.0	273.0	275.0	275.0	
Thu Jul 27 08:41:00 UTC 2017	404.0	1.082028032E9	8246742.5	31.0	3.0838784E7	156627.640625	2.0	4.95702016E8	0.0	5.0	4.0	1.12852992E9	1.1021312E9	1569964.375	null	0.11375000327825546	0.11800000071525574	0.1887499988079071	0.9484999775886536	0.7946882843971252	350.0	null	null	null	null	1.151082768E9	null	null	1.08068636E9	3.20931999E8	null	null	3.49434753E8	3.65956893E8	null	null	3.76374012E8	null	2.97169259E8	7.7861332E7	7.7861332E7	null	3.8126203E7	null	4.9839621E7	275.0	274.0	275.0	272.0	274.0	274.0	271.0	271.0	274.0	273.0	273.0	
Thu Jul 27 08:40:00 UTC 2017	393.0	1.082318848E9	8246742.5	32.0	3.0199808E7	163705.046875	2.0	4.92470272E8	0.0	5.0	4.0	1.12852992E9	1.1021312E9	1469951.0	1668120.0	0.12549999356269836	0.11524999886751175	0.1860000044107437	0.9487500190734863	0.7944485545158386	300.0	null	null	null	null	1.163218565E9	null	null	1.121449197E9	3.90957838E8	null	null	3.67953141E8	3.62883375E8	null	null	3.24907855E8	null	3.00589475E8	8.0762518E7	8.0762518E7	null	4.5668302E7	null	3.6016677E7	273.0	277.0	276.0	276.0	272.0	270.0	274.0	273.0	275.0	275.0	276.0	
Thu Jul 27 08:39:00 UTC 2017	405.0	1.082425344E9	8049012.5	31.0	3.0957568E7	162759.09375	2.0	4.90196992E8	0.0	5.0	4.0	1.12852992E9	1.1021312E9	1469951.0	1668120.0	0.13774999976158142	0.10599999874830246	0.18025000393390656	0.9482499957084656	0.7950087785720825	300.0	null	null	null	null	9.84980171E8	null	null	9.03960016E8	3.41725107E8	null	null	3.56504595E8	2.90727305E8	null	null	2.75360478E8	null	2.828972E8	7.3565348E7	7.3565348E7	null	4.4224637E7	null	3.8379437E7	277.0	276.0	274.0	276.0	275.0	275.0	275.0	276.0	277.0	276.0	273.0	
Thu Jul 27 08:38:00 UTC 2017	402.0	1.08064768E9	8049012.5	29.0	2.9945856E7	162759.09375	2.0	4.87247872E8	0.0	5.0	4.0	1.12852992E9	1.1021312E9	1469951.0	1668120.0	0.10249999910593033	0.10999999940395355	0.1784999966621399	0.9487500190734863	0.7939230799674988	300.0	null	null	null	null	1.075651469E9	null	null	1.043275915E9	3.18589245E8	null	null	4.01346853E8	3.3546534E8	null	null	2.9874556E8	null	2.90545315E8	7.2264812E7	7.2264812E7	null	3.794705E7	null	3.8073812E7	273.0	271.0	271.0	275.0	272.0	272.0	270.0	273.0	272.0	273.0	274.0	
Thu Jul 27 08:37:00 UTC 2017	398.0	1.080147968E9	7938853.5	29.0	3.0916608E7	162759.09375	2.0	4.83708928E8	0.0	5.0	4.0	1.12852992E9	1.1021312E9	1469951.0	1668120.0	0.1197500005364418	0.10899999737739563	0.17499999701976776	0.949999988079071	0.7935174703598022	250.0	null	null	null	null	9.5459233E8	null	null	9.62900926E8	2.87019763E8	null	null	2.53645527E8	3.76390265E8	null	null	3.44527985E8	null	2.78094128E8	7.2817963E7	7.2817963E7	null	3.0625677E7	null	3.5469117E7	273.0	276.0	275.0	273.0	277.0	290.0	275.0	274.0	276.0	276.0	273.0	
Thu Jul 27 08:36:00 UTC 2017	390.0	1.079697408E9	7573906.5	27.0	3.1010816E7	149708.140625	2.0	4.83401728E8	0.0	5.0	4.0	1.12852992E9	1.1021312E9	1490434.5	1534981.5	0.11574999988079071	0.10700000077486038	0.16224999725818634	0.9509999752044678	0.7938971519470215	250.0	null	null	null	null	8.50412524E8	null	null	7.32968227E8	2.41025633E8	null	null	2.28299681E8	2.08964848E8	null	null	1.91760388E8	null	2.51582017E8	6.5747542E7	6.5747542E7	null	2.4275933E7	null	3.3088182E7	275.0	277.0	276.0	275.0	277.0	279.0	279.0	275.0	276.0	273.0	275.0	
Thu Jul 27 08:35:00 UTC 2017	381.0	1.080979456E9	7573906.5	28.0	2.9097984E7	149708.140625	2.0	4.8205824E8	0.0	5.0	4.0	1.12852992E9	1.1021312E9	1458216.875	1534981.5	0.12725000083446503	0.0949999988079071	0.16300000250339508	0.9514999985694885	0.7953311800956726	250.0	null	null	null	null	7.98065361E8	null	null	7.70725437E8	1.86369771E8	null	null	1.97013651E8	2.30959262E8	null	null	2.13361188E8	null	2.80323755E8	6.8693931E7	6.8693931E7	null	3.3272822E7	null	3.307868E7	280.0	275.0	276.0	279.0	277.0	275.0	277.0	276.0	275.0	276.0	280.0	
Thu Jul 27 08:34:00 UTC 2017	370.0	1.080307712E9	6920923.5	26.0	2.842624E7	130016.8125	2.0	4.79453184E8	0.0	5.0	4.0	1.12852992E9	1.1021312E9	1243168.125	1327025.125	0.10525000095367432	0.10324999690055847	0.16175000369548798	0.9539999961853027	0.7927008867263794	200.0	null	null	null	null	6.50460582E8	null	null	6.75509336E8	1.76955687E8	null	null	1.49214287E8	1.73838377E8	null	null	1.77031799E8	null	2.53842988E8	6.5608677E7	6.5608677E7	null	3.4162062E7	null	2.9630633E7	282.0	281.0	283.0	279.0	280.0	281.0	287.0	278.0	284.0	284.0	281.0	
Thu Jul 27 08:33:00 UTC 2017	341.0	1.079332864E9	5151360.5	23.0	2.9384704E7	130016.8125	2.0	4.7607808E8	0.0	5.0	4.0	1.12852992E9	1.1021312E9	1243168.125	1327025.125	0.10999999940395355	0.08649999648332596	0.14650000631809235	0.9552500247955322	0.7941569089889526	200.0	null	null	null	null	3.92804001E8	null	null	3.28040518E8	5.9557648E7	null	null	8.4074265E7	6.4234059E7	null	null	6.7244032E7	null	1.79886665E8	4.2670943E7	4.2670943E7	null	2.0046487E7	null	1.766044E7	283.0	283.0	280.0	280.0	284.0	282.0	284.0	283.0	282.0	283.0	285.0	
Thu Jul 27 08:32:00 UTC 2017	323.0	1.077133312E9	5151360.5	23.0	2.8643328E7	87041.7890625	2.0	4.6690304E8	0.0	5.0	4.0	1.12852992E9	1.1021312E9	1243168.125	1327025.125	0.10575000196695328	0.09549999982118607	0.14524999260902405	0.9570000171661377	0.7809745073318481	200.0	null	null	null	null	6.09727557E8	null	null	4.68243023E8	1.38400802E8	null	null	1.01801631E8	1.0899833E8	null	null	1.14209896E8	null	2.50205794E8	5.6768651E7	5.6768651E7	null	2.8494924E7	null	2.4772214E7	286.0	285.0	286.0	292.0	281.0	277.0	284.0	280.0	289.0	284.0	282.0	
Thu Jul 27 08:31:00 UTC 2017	315.0	1.032572928E9	5151360.5	18.0	2.838528E7	87041.7890625	2.0	4.62811136E8	0.0	5.0	4.0	1.12852992E9	1.1021312E9	1079772.5	null	0.12224999815225601	0.07925000041723251	0.13449999690055847	0.9622499942779541	0.7761703729629517	150.0	null	null	null	null	3.00372422E8	null	null	2.95763982E8	4.4134413E7	null	null	6.4749476E7	6.6339147E7	null	null	4.4102528E7	null	1.7984283E8	4.1070835E7	4.1070835E7	null	1.2849803E7	null	1.3690515E7	289.0	292.0	290.0	290.0	291.0	289.0	294.0	291.0	289.0	292.0	293.0	
Thu Jul 27 08:30:00 UTC 2017	252.0	9.92768E8	4462873.0	16.0	2.9315072E7	87041.7890625	2.0	4.63773696E8	0.0	5.0	4.0	1.12852992E9	1.1021312E9	944211.125	null	0.10499999672174454	0.07874999940395355	0.11249999701976776	0.9670000076293945	0.7729347944259644	150.0	null	null	null	null	2.25631114E8	null	null	2.37947888E8	4.1141928E7	null	null	6.9434459E7	6.0515166E7	null	null	4.6944931E7	null	1.48098138E8	3.5204838E7	3.5204838E7	null	1.4850245E7	null	1.2604315E7	304.0	298.0	301.0	298.0	298.0	298.0	300.0	295.0	300.0	303.0	302.0	
Thu Jul 27 08:29:00 UTC 2017	215.0	1.005064192E9	2573924.5	14.0	2.7783168E7	76693.046875	2.0	4.59825152E8	0.0	5.0	4.0	1.12852992E9	1.1021312E9	777981.25	null	0.12300000339746475	0.07975000143051147	0.11900000274181366	0.968500018119812	0.7715976238250732	150.0	null	null	null	null	2.2196411E8	null	null	1.96312924E8	4.5843522E7	null	null	6.7832599E7	8.7704202E7	null	null	5.8641265E7	null	1.3897716E8	3.1162548E7	3.1162548E7	null	1.9188145E7	null	1.640824E7	300.0	303.0	300.0	302.0	305.0	308.0	308.0	302.0	303.0	303.0	299.0	
Thu Jul 27 08:28:00 UTC 2017	198.0	1.012846592E9	2573924.5	10.0	2.772992E7	38095.6796875	2.0	4.58604544E8	0.0	5.0	4.0	1.12852992E9	1.1021312E9	422251.375	321249.3125	0.10324999690055847	0.0677499994635582	0.10175000131130219	0.9760000109672546	0.7728090882301331	100.0	null	null	null	null	1.46826942E8	null	null	1.4990316E8	3.9058172E7	null	null	5.4352779E7	5.0745165E7	null	null	4.5099682E7	null	9.2420512E7	2.1761012E7	2.1761012E7	null	4982226.0	null	9604050.0	309.0	312.0	312.0	312.0	309.0	305.0	310.0	307.0	310.0	311.0	312.0	
Thu Jul 27 08:27:00 UTC 2017	141.0	1.02232064E9	1150100.375	8.0	2.656256E7	38095.6796875	2.0	4.56544256E8	0.0	5.0	4.0	1.12852992E9	1.1021312E9	422251.375	321249.3125	0.0925000011920929	0.0677499994635582	0.08574999868869781	0.9794999957084656	0.7764962315559387	100.0	null	null	null	null	1.36632864E8	null	null	1.46464515E8	1.21442791E8	null	null	8.0907953E7	1.38991541E8	null	null	7.9466156E7	null	9.7935188E7	2.2241361E7	2.2241361E7	null	2.3557866E7	null	1.5998704E7	316.0	315.0	312.0	313.0	317.0	316.0	323.0	312.0	315.0	312.0	314.0	
Thu Jul 27 08:26:00 UTC 2017	108.0	1.035505664E9	1150100.375	6.0	2.5288704E7	20792.77734375	2.0	4.5647872E8	0.0	5.0	4.0	1.12852992E9	1.1021312E9	147716.984375	157103.640625	0.0885000005364418	0.06274999678134918	0.08275000005960464	0.9804999828338623	0.7750915288925171	100.0	null	null	null	null	1.27511358E8	null	null	1.60120708E8	5.5376919E7	null	null	7.142939E7	1.41146781E8	null	null	2.4504967E7	null	1.04862409E8	1.6966487E7	1.6966487E7	null	4.1030603E7	null	1.1794283E7	318.0	317.0	318.0	318.0	317.0	308.0	324.0	312.0	320.0	315.0	318.0	
Thu Jul 27 08:25:00 UTC 2017	90.0	1.048608768E9	1150100.375	4.0	2.6324992E7	20792.77734375	2.0	4.56433664E8	0.0	5.0	4.0	1.12852992E9	1.1021312E9	147716.984375	157103.640625	0.09875000268220901	0.05974999815225601	0.07100000232458115	0.9827499985694885	0.7758219838142395	50.0	null	null	null	null	1.06482722E8	null	null	9.6331727E7	6.2276578E7	null	null	1.3426432E7	6.21269E7	null	null	3.3606188E7	null	8.9644925E7	1.5579038E7	1.5579038E7	null	2681258.0	null	1.5393086E7	322.0	323.0	325.0	324.0	318.0	314.0	329.0	319.0	322.0	321.0	325.0	
Thu Jul 27 08:24:00 UTC 2017	62.0	1.052545024E9	447156.875	3.0	2.6324992E7	15122.51953125	2.0	4.55401472E8	0.0	5.0	4.0	1.12852992E9	1.1021312E9	147716.984375	157103.640625	0.09875000268220901	0.06024999916553497	0.06274999678134918	0.9857500195503235	0.7768543362617493	50.0	null	null	null	null	1.12745722E8	null	null	1.15411068E8	4.860747E7	null	null	6.8253007E7	5.7459581E7	null	null	4.4249983E7	null	9.2313913E7	1.6579726E7	1.6579726E7	null	4.4348943E7	null	1.1318241E7	330.0	325.0	322.0	327.0	323.0	319.0	321.0	326.0	327.0	324.0	328.0	
Thu Jul 27 08:23:00 UTC 2017	49.0	1.06104832E9	447156.875	2.0	2.6324992E7	12300.8486328125	2.0	4.54029312E8	0.0	5.0	4.0	1.12852992E9	1.1021312E9	147716.984375	157103.640625	0.08900000154972076	0.05274999886751175	0.06499999761581421	0.9865000247955322	0.7774199843406677	50.0	null	null	null	null	1.41162434E8	null	null	1.61335607E8	3.4941696E7	null	null	6.6049208E7	2.8520914E7	null	null	1.0343894E7	null	1.25541226E8	1.4106052E7	1.4106052E7	null	2.0902721E7	null	1.3132626E7	327.0	326.0	326.0	325.0	322.0	325.0	329.0	319.0	323.0	323.0	326.0	
Thu Jul 27 08:22:00 UTC 2017	39.0	1.063653376E9	447156.875	2.0	2.6324992E7	9278.3251953125	2.0	4.52878336E8	0.0	5.0	4.0	1.12852992E9	1.1021312E9	131632.8125	null	0.08874999731779099	0.05700000002980232	0.05974999815225601	0.987500011920929	0.7777751684188843	20.0	null	null	null	null	1.1807398E8	null	null	1.5473672E8	1.27520808E8	null	null	2.7177024E7	4.1635384E7	null	null	1.2026387E7	null	1.24241265E8	2.393034E7	2.393034E7	null	4.1553615E7	null	1879513.0	325.0	325.0	325.0	326.0	324.0	321.0	330.0	325.0	329.0	326.0	326.0	
Thu Jul 27 08:21:00 UTC 2017	32.0	1.0682368E9	447156.875	1.0	2.6324992E7	6819.173828125	2.0	4.53599232E8	0.0	5.0	4.0	1.12852992E9	1.1021312E9	131632.8125	null	0.0872500017285347	0.057500001043081284	0.05375000089406967	0.9884999990463257	0.7780951261520386	20.0	null	null	null	null	1.43165611E8	null	null	1.46678738E8	6.569153E7	null	null	4.5874117E7	5.5607388E7	null	null	5.5269699E7	null	1.07394617E8	1.4180324E7	1.4180324E7	null	2491681.0	null	4029261.0	326.0	325.0	325.0	328.0	330.0	331.0	324.0	325.0	325.0	328.0	327.0	
Thu Jul 27 08:20:00 UTC 2017	24.0	1.070927872E9	447156.875	1.0	2.5288704E7	6819.173828125	2.0	4.5252608E8	0.0	5.0	4.0	1.12852992E9	1.1021312E9	24.079439163208008	22.63605308532715	0.0860000029206276	0.05400000140070915	0.05350000038743019	0.9882500171661377	0.7784234285354614	20.0	null	null	null	null	1.42180119E8	null	null	1.7253698E8	1.4772027E7	null	null	3937041.0	7.0684282E7	null	null	3994490.0	null	1.23191514E8	2.7580049E7	2.7580049E7	null	1655789.0	null	1756618.0	329.0	327.0	324.0	326.0	327.0	343.0	330.0	325.0	326.0	324.0	326.0	
Thu Jul 27 08:19:00 UTC 2017	22.0	1.07255808E9	100486.421875	1.0	2.5288704E7	4494.54833984375	2.0	4.53517312E8	0.0	5.0	4.0	1.12852992E9	1.1021312E9	24.079439163208008	22.63605308532715	0.12224999815225601	0.057750001549720764	0.048250000923871994	0.9897500276565552	0.7785438299179077	10.0	null	null	null	null	1.75664477E8	null	null	1.74793678E8	5.2011959E7	null	null	2.0679755E7	4010096.0	null	null	4.3473588E7	null	1.55677473E8	3.4408436E7	3.4408436E7	null	8690902.0	null	1790822.0	328.0	328.0	325.0	325.0	333.0	357.0	331.0	323.0	326.0	332.0	327.0	
Thu Jul 27 08:18:00 UTC 2017	14.0	1.073516544E9	100486.421875	0.0	2.5288704E7	3038.990966796875	2.0	4.52435968E8	0.0	5.0	4.0	1.12852992E9	1.1021312E9	24.079439163208008	22.63605308532715	0.07699999958276749	0.05400000140070915	0.05375000089406967	0.9904999732971191	0.7784562110900879	10.0	null	null	null	null	1.33572102E8	null	null	9.8711267E7	1.6008191E7	null	null	4085214.0	4.3927194E7	null	null	8797532.0	null	1.09087469E8	5.6554496E7	5.6554496E7	null	1715730.0	null	9477178.0	334.0	332.0	331.0	337.0	330.0	334.0	325.0	329.0	335.0	332.0	333.0	
Thu Jul 27 08:17:00 UTC 2017	11.0	1.072390144E9	100486.421875	0.0	2.6324992E7	3038.990966796875	2.0	4.53296128E8	0.0	5.0	4.0	1.12852992E9	1.1021312E9	24.079439163208008	22.63605308532715	0.08799999952316284	0.0560000017285347	0.05375000089406967	0.9897500276565552	0.77838134765625	10.0	null	null	null	null	1.46534812E8	null	null	1.35505808E8	3146621.0	null	null	4641672.0	3672764.0	null	null	9.4167767E7	null	1.29555359E8	3.5799298E7	3.5799298E7	null	1309634.0	null	9328920.0	325.0	332.0	324.0	332.0	331.0	338.0	331.0	328.0	329.0	329.0	331.0	
Thu Jul 27 08:16:00 UTC 2017	11.0	1.073573888E9	100486.421875	0.0	2.6324992E7	2314.462158203125	2.0	4.5326336E8	0.0	5.0	4.0	1.12852992E9	1.1021312E9	24.079439163208008	22.63605308532715	0.0925000011920929	0.05274999886751175	0.05025000125169754	0.9902499914169312	0.7783011198043823	5.0	null	null	null	null	2.64221475E8	null	null	1.30190582E8	3828558.0	null	null	7.3541037E7	3162459.0	null	null	4124116.0	null	2.57581114E8	1.8420946E7	1.8420946E7	null	1455111.0	null	1383829.0	331.0	332.0	328.0	331.0	323.0	325.0	323.0	327.0	334.0	321.0	335.0	
Thu Jul 27 08:15:00 UTC 2017	9.0	1.072586752E9	100486.421875	0.0	2.6324992E7	1575.019287109375	2.0	4.51784704E8	0.0	5.0	4.0	1.12852992E9	1.1021312E9	24.079439163208008	22.63605308532715	0.08649999648332596	0.05375000089406967	0.04600000008940697	0.9907500147819519	0.7782605290412903	5.0	null	null	null	null	1.8357454E8	null	null	2.62790783E8	3812525.0	null	null	3189989.0	5436533.0	null	null	3810067.0	null	1.19346923E8	7.1446112E7	7.1446112E7	null	1200713.0	null	3633679.0	336.0	331.0	331.0	335.0	331.0	330.0	334.0	328.0	333.0	330.0	328.0	
Thu Jul 27 08:14:00 UTC 2017	7.0	1.07370496E9	100486.421875	0.0	2.5288704E7	1575.019287109375	2.0	4.52841472E8	0.0	5.0	4.0	1.12852992E9	1.1021312E9	24.079439163208008	22.63605308532715	0.08550000190734863	0.048250000923871994	0.05299999937415123	0.9915000200271606	0.7805781960487366	5.0	null	null	null	null	1.15520802E8	null	null	1.01363552E8	4535235.0	null	null	3530692.0	4526823.0	null	null	4058534.0	null	1.07955049E8	5.3885205E7	5.3885205E7	null	1305928.0	null	2650950.0	333.0	329.0	338.0	329.0	326.0	321.0	346.0	332.0	330.0	329.0	332.0	
Thu Jul 27 08:13:00 UTC 2017	6.0	1.073696768E9	9436.3876953125	0.0	2.5288704E7	462.2621765136719	2.0	4.51780608E8	0.0	5.0	4.0	1.12852992E9	1.1021312E9	24.079439163208008	22.63605308532715	0.08749999850988388	0.05700000002980232	0.04975000023841858	0.9909999966621399	0.7781171798706055	3.0	null	null	null	null	8.474976E7	null	null	1.08195265E8	3348550.0	null	null	7079447.0	8.0344983E7	null	null	6070148.0	null	1.01624811E8	6227953.0	6227953.0	null	1648956.0	null	1358806.0	333.0	335.0	335.0	335.0	333.0	321.0	340.0	331.0	337.0	330.0	334.0	
Thu Jul 27 08:12:00 UTC 2017	2.0	1.072644096E9	9436.3876953125	0.0	2.5288704E7	18.639110565185547	2.0	4.53177344E8	0.0	5.0	4.0	1.12852992E9	1.1021312E9	24.079439163208008	22.63605308532715	0.07975000143051147	0.04749999940395355	0.07349999994039536	0.9915000200271606	0.7779732942581177	3.0	null	null	null	null	9.300169E7	null	null	3.54176138E8	4899469.0	null	null	4385277.0	3.9780432E7	null	null	3942415.0	null	1.00981324E8	6.1363512E7	6.1363512E7	null	1257828.0	null	3.7275845E7	333.0	331.0	336.0	333.0	327.0	323.0	343.0	333.0	334.0	333.0	337.0	
Thu Jul 27 08:11:00 UTC 2017	1.0	1.072644096E9	8751.0419921875	0.0	2.5288704E7	3.716935396194458	2.0	4.51538944E8	0.0	5.0	4.0	1.12852992E9	1.1021312E9	24.079439163208008	22.63605308532715	0.09025000035762787	0.05400000140070915	0.05000000074505806	0.9912499785423279	0.7779317498207092	3.0	null	null	null	null	null	null	null	null	null	null	null	null	null	null	null	null	null	null	null	null	null	null	null	null	330.0	332.0	329.0	328.0	328.0	322.0	341.0	330.0	331.0	331.0	331.0	
Thu Jul 27 08:10:00 UTC 2017	1.0	1.073692672E9	8751.0419921875	0.0	2.5288704E7	0.0	2.0	4.52595712E8	0.0	5.0	4.0	1.12852992E9	1.1021312E9	24.079439163208008	22.63605308532715	0.09475000202655792	0.0494999997317791	0.04699999839067459	0.9907500147819519	0.7778906226158142	0.0	null	null	null	null	null	null	null	null	null	null	null	null	null	null	null	null	null	null	null	null	null	null	null	null	332.0	326.0	328.0	332.0	334.0	343.0	338.0	326.0	330.0	331.0	327.0	
Thu Jul 27 08:09:00 UTC 2017	1.0	1.073692672E9	10668.6875	0.0	2.5288704E7	0.0	2.0	4.51534848E8	0.0	5.0	4.0	1.12852992E9	1.1021312E9	24.079439163208008	22.63605308532715	0.10849999636411667	0.05525000020861626	0.048250000923871994	0.9912499785423279	0.7778881788253784	0.0	null	null	null	null	null	null	null	null	null	null	null	null	null	null	null	null	null	null	null	null	null	null	null	null	331.0	334.0	324.0	325.0	334.0	362.0	336.0	326.0	325.0	335.0	328.0	
Thu Jul 27 08:08:00 UTC 2017	1.0	1.072635904E9	10668.6875	0.0	2.5288704E7	60404.75	2.0	4.49441792E8	0.0	5.0	4.0	1.12852992E9	1.1021312E9	24.079439163208008	22.63605308532715	0.08675000071525574	0.04975000023841858	0.04975000023841858	0.9912499785423279	0.780194103717804	0.0	null	null	null	null	null	null	null	null	null	null	null	null	null	null	null	null	null	null	null	null	null	null	null	null	330.0	329.0	326.0	334.0	332.0	345.0	329.0	332.0	332.0	328.0	335.0	
Thu Jul 27 08:07:00 UTC 2017	1.0	1.072615424E9	10180.1650390625	0.0	2.6324992E7	60404.75	2.0	4.49265664E8	0.0	5.0	4.0	1.12852992E9	1.1021312E9	24.079439163208008	22.63605308532715	0.08250000327825546	0.05550000071525574	0.060750000178813934	0.9915000200271606	0.7790086269378662	0.0	null	null	null	null	null	null	null	null	null	null	null	null	null	null	null	null	null	null	null	null	null	null	null	null	336.0	337.0	327.0	343.0	326.0	331.0	328.0	330.0	339.0	332.0	335.0	
Thu Jul 27 08:06:00 UTC 2017	1.0	1.072607232E9	8155438.0	0.0	2.5288704E7	60404.75	2.0	4.50400256E8	0.0	5.0	4.0	1.12852992E9	1.1021312E9	24.079439163208008	22.63605308532715	0.09200000017881393	0.05025000125169754	0.04699999839067459	0.9917500019073486	0.7797018885612488	0.0	null	null	null	null	null	null	null	null	null	null	null	null	null	null	null	null	null	null	null	null	null	null	null	null	341.0	334.0	330.0	335.0	327.0	325.0	324.0	327.0	335.0	325.0	337.0	
Thu Jul 27 08:05:00 UTC 2017	1.0	1.073655808E9	8155438.0	0.0	2.6324992E7	60404.75	2.0	4.50220032E8	0.0	5.0	4.0	1.12852992E9	1.1021312E9	1515216.5	1635908.0	0.08275000005960464	0.05350000038743019	0.05274999886751175	0.9912499785423279	0.7777062058448792	0.0	null	null	null	null	null	null	null	null	null	null	null	null	null	null	null	null	null	null	null	null	null	null	null	null	332.0	328.0	331.0	330.0	333.0	340.0	340.0	331.0	327.0	332.0	330.0	
Thu Jul 27 08:04:00 UTC 2017	1.0	1.072594944E9	8155438.0	17.0	2.5288704E7	60404.75	2.0	4.50220032E8	0.0	5.0	4.0	1.12852992E9	1.1021312E9	1515216.5	1635908.0	0.1002499982714653	0.10324999690055847	0.12125000357627869	0.9745000004768372	0.7776709794998169	0.0	null	null	null	null	null	null	null	null	null	null	null	null	null	null	null	null	null	null	null	null	null	null	null	null	300.0	304.0	301.0	304.0	307.0	307.0	307.0	299.0	315.0	309.0	298.0	
Thu Jul 27 08:03:00 UTC 2017	199.0	1.074438144E9	8155438.0	34.0	3.1420416E7	170033.5625	2.0	4.47352832E8	0.0	5.0	4.0	1.12852992E9	1.1021312E9	1515216.5	1635908.0	0.1287499964237213	0.15025000274181366	0.24375000596046448	0.9457499980926514	0.779952883720398	0.0	null	null	null	null	8.92377523E8	null	null	8.21493043E8	2.70339354E8	null	null	2.81229607E8	3.24773587E8	null	null	2.98952892E8	null	2.44880821E8	6.9866951E7	6.9866951E7	null	2.7453949E7	null	2.9095733E7	276.0	273.0	276.0	275.0	270.0	268.0	274.0	271.0	275.0	269.0	274.0	
Thu Jul 27 08:02:00 UTC 2017	409.0	1.074061312E9	7997535.0	31.0	3.086336E7	170033.5625	2.0	4.43797504E8	0.0	5.0	4.0	1.12852992E9	1.1021312E9	1515216.5	1635908.0	0.12200000137090683	0.15649999678134918	0.23549999296665192	0.9457499980926514	0.7797973155975342	0.0	null	null	null	null	8.81100513E8	null	null	9.22982703E8	3.78027619E8	null	null	3.24850839E8	3.53544642E8	null	null	3.27370459E8	null	2.51482241E8	7.4539892E7	7.4539892E7	null	3.2727563E7	null	3.522416E7	274.0	272.0	271.0	273.0	274.0	272.0	275.0	270.0	270.0	273.0	271.0	
Thu Jul 27 08:01:00 UTC 2017	408.0	1.07370496E9	7570445.0	31.0	2.9827072E7	170033.5625	2.0	4.42466304E8	0.0	5.0	4.0	1.12852992E9	1.1021312E9	1618469.875	1623844.125	0.13124999403953552	0.15399999916553497	0.21875	0.9480000138282776	0.7795135378837585	600.0	null	null	null	null	9.948164E8	null	null	9.77960401E8	3.12738446E8	null	null	3.74185416E8	3.52247817E8	null	null	3.79286298E8	null	2.66969E8	7.5841889E7	7.5841889E7	null	3.476334E7	null	3.7284275E7	270.0	267.0	269.0	268.0	267.0	270.0	270.0	270.0	270.0	266.0	268.0	
Thu Jul 27 08:00:00 UTC 2017	411.0	1.072799744E9	7816607.0	33.0	3.1543296E7	170033.5625	2.0	4.40287232E8	0.0	5.0	4.0	1.12852992E9	1.1021312E9	1618469.875	1623844.125	0.12174999713897705	0.15950000286102295	0.2252500057220459	0.9480000138282776	0.7789283990859985	600.0	null	null	null	null	1.051841219E9	null	null	1.160638607E9	4.99938747E8	null	null	3.32875997E8	3.47150351E8	null	null	3.78916081E8	null	2.8600211E8	7.821521E7	7.821521E7	null	2.6621424E7	null	3.6900295E7	270.0	269.0	270.0	268.0	275.0	285.0	277.0	270.0	269.0	272.0	270.0	
Thu Jul 27 07:59:00 UTC 2017	420.0	1.072201728E9	7816607.0	31.0	3.149824E7	161201.5	2.0	4.37633024E8	0.0	5.0	4.0	1.12852992E9	1.1021312E9	1618469.875	1623844.125	0.13975000381469727	0.15199999511241913	0.2150000035762787	0.9502500295639038	0.7766322493553162	600.0	null	null	null	null	1.26670155E9	null	null	1.224099747E9	3.78237738E8	null	null	3.77053357E8	4.47466183E8	null	null	3.731844E8	null	3.41301591E8	8.1288659E7	8.1288659E7	null	3.2897845E7	null	3.7042681E7	272.0	272.0	275.0	272.0	276.0	287.0	278.0	274.0	269.0	273.0	269.0	
Thu Jul 27 07:58:00 UTC 2017	402.0	1.071341568E9	5821269.5	31.0	3.1432704E7	165237.78125	2.0	4.37379072E8	0.0	5.0	4.0	1.12852992E9	1.1021312E9	1618469.875	1623844.125	0.12800000607967377	0.15700000524520874	0.22675000131130219	0.9477499723434448	0.7764942646026611	600.0	null	null	null	null	1.284512162E9	null	null	1.214137438E9	3.63383944E8	null	null	3.83150242E8	3.85736602E8	null	null	3.57444416E8	null	3.340136E8	7.8660276E7	7.8660276E7	null	3.3491977E7	null	3.7039653E7	270.0	269.0	272.0	269.0	272.0	281.0	272.0	272.0	267.0	271.0	270.0	
Thu Jul 27 07:57:00 UTC 2017	405.0	1.072488448E9	5821269.5	30.0	2.973696E7	165237.78125	2.0	4.31833088E8	0.0	5.0	4.0	1.12852992E9	1.1021312E9	1717259.0	null	0.1185000017285347	0.1509999930858612	0.2292499989271164	0.949999988079071	0.7763660550117493	600.0	null	null	null	null	1.278598172E9	null	null	9.07089864E8	3.82495425E8	null	null	3.92064873E8	4.24971693E8	null	null	2.94410473E8	null	2.81385098E8	7.3877218E7	7.3877218E7	null	4.0330685E7	null	3.5901845E7	272.0	270.0	276.0	272.0	275.0	277.0	278.0	275.0	273.0	271.0	270.0	
Thu Jul 27 07:56:00 UTC 2017	418.0	1.070706688E9	5821269.5	31.0	3.1444992E7	165237.78125	2.0	4.32611328E8	0.0	5.0	4.0	1.12852992E9	1.1021312E9	1372055.0	1340070.125	0.13075000047683716	0.164000004529953	0.23874999582767487	0.9477499723434448	0.7761033177375793	600.0	null	null	null	null	1.018796603E9	null	null	7.89298937E8	3.33974531E8	null	null	3.75193776E8	2.69529699E8	null	null	3.31922894E8	null	2.63756611E8	7.2635407E7	7.2635407E7	null	3.1277624E7	null	3.3711537E7	275.0	274.0	277.0	273.0	277.0	283.0	275.0	274.0	272.0	274.0	272.0	
Thu Jul 27 07:55:00 UTC 2017	392.0	1.071812608E9	5821269.5	29.0	3.14368E7	142797.828125	2.0	4.26893312E8	0.0	5.0	4.0	1.12852992E9	1.1021312E9	1372055.0	1340070.125	0.11949999630451202	0.1655000001192093	0.22675000131130219	0.9537500143051147	0.7781533598899841	600.0	null	null	null	null	8.95486013E8	null	null	9.36177344E8	3.31795639E8	null	null	3.715358E8	4.03367831E8	null	null	4.03132099E8	null	2.67013352E8	7.7457327E7	7.7457327E7	null	4.8639027E7	null	3.781732E7	273.0	277.0	276.0	274.0	275.0	273.0	277.0	274.0	273.0	272.0	274.0	
Thu Jul 27 07:54:00 UTC 2017	401.0	1.067646976E9	5821269.5	27.0	3.135488E7	47400.82421875	2.0	4.25242624E8	0.0	5.0	4.0	1.12852992E9	1.1021312E9	1372055.0	1340070.125	0.11924999952316284	0.164000004529953	0.23250000178813934	0.9537500143051147	0.7752339243888855	600.0	null	null	null	null	8.70952208E8	null	null	1.057309625E9	3.81768086E8	null	null	3.79595526E8	3.40148252E8	null	null	3.94888268E8	null	2.78881357E8	8.0197455E7	8.0197455E7	null	4.4622029E7	null	4.091972E7	276.0	273.0	277.0	272.0	278.0	281.0	277.0	274.0	275.0	277.0	274.0	
Thu Jul 27 07:53:00 UTC 2017	410.0	9.77399808E8	5821269.5	23.0	3.0191616E7	47400.82421875	2.0	4.225024E8	0.0	5.0	4.0	1.12852992E9	1.1021312E9	274404.65625	69785.921875	0.12075000256299973	0.17000000178813934	0.21449999511241913	0.9570000171661377	0.75934237241745	600.0	null	null	null	null	8.06152355E8	null	null	1.270811189E9	3.46527685E8	null	null	3.77238884E8	3.89271418E8	null	null	4.32870401E8	null	2.77724586E8	7.8966501E7	7.8966501E7	null	4.7198701E7	null	3.8154615E7	279.0	278.0	278.0	280.0	282.0	280.0	280.0	281.0	277.0	277.0	278.0	
Thu Jul 27 07:52:00 UTC 2017	399.0	8.64780288E8	2052439.375	9.0	3.035136E7	47400.82421875	2.0	4.21842944E8	0.0	5.0	4.0	1.12852992E9	1.1021312E9	274404.65625	69785.921875	0.10999999940395355	0.12549999356269836	0.1889999955892563	0.9727500081062317	0.7505261898040771	600.0	null	null	null	null	1.205695531E9	null	null	1.071173556E9	4.26595151E8	null	null	5.20469974E8	3.89127825E8	null	null	4.69147051E8	null	3.23140618E8	9.7095535E7	9.7095535E7	null	5.3668903E7	null	4.3202865E7	307.0	304.0	308.0	299.0	299.0	296.0	311.0	305.0	299.0	303.0	303.0	
Thu Jul 27 07:51:00 UTC 2017	224.0	8.91592704E8	902248.9375	3.0	2.5255936E7	14104.7294921875	2.0	4.17480704E8	0.0	5.0	4.0	1.12852992E9	1.1021312E9	274404.65625	69785.921875	0.08824999630451202	0.0625	0.06624999642372131	0.9850000143051147	0.7528815865516663	600.0	null	null	null	null	7.24777696E8	null	null	6.66343606E8	4.07977904E8	null	null	4.42066379E8	4.78150943E8	null	null	3.43704717E8	null	2.31168625E8	9.175104E7	9.175104E7	null	5.5655648E7	null	5.3292954E7	318.0	313.0	324.0	319.0	315.0	325.0	321.0	317.0	320.0	317.0	319.0	
Thu Jul 27 07:50:00 UTC 2017	81.0	8.871936E8	885273.125	3.0	2.4211456E7	14104.7294921875	2.0	4.17296384E8	0.0	5.0	4.0	1.12852992E9	1.1021312E9	274404.65625	69785.921875	0.08349999785423279	0.05974999815225601	0.06700000166893005	0.9854999780654907	0.752463698387146	600.0	null	null	null	null	1.8644231E8	null	null	2.12426942E8	7.9303831E7	null	null	1.6844541E7	5.2989487E7	null	null	7.6260727E7	null	1.57637406E8	2.6889871E7	2.6889871E7	null	1.8723042E7	null	5503004.0	323.0	325.0	321.0	323.0	312.0	318.0	327.0	318.0	326.0	315.0	323.0	
Thu Jul 27 07:49:00 UTC 2017	70.0	8.87123968E8	860336.0625	3.0	2.4465408E7	14104.7294921875	2.0	4.14957568E8	0.0	5.0	4.0	1.12852992E9	1.1021312E9	248505.40625	97424.28125	0.12125000357627869	0.06674999743700027	0.060750000178813934	0.984000027179718	0.7510805726051331	20.0	null	null	null	null	2.23172533E8	null	null	1.33853966E8	4.2763049E7	null	null	4.7842252E7	7.5986961E7	null	null	5.6121895E7	null	1.23201057E8	2.6967326E7	2.6967326E7	null	3.9403917E7	null	1.1377722E7	585.0	545.0	null	546.0	null	null	null	null	618.0	null	534.0	
Thu Jul 27 07:48:00 UTC 2017	75.0	8.83187712E8	757934.6875	3.0	2.4465408E7	10433.6962890625	2.0	4.14908416E8	0.0	5.0	4.0	1.12852992E9	1.1021312E9	240674.859375	93358.3671875	0.08749999850988388	0.06324999779462814	0.07349999994039536	0.9862499833106995	0.7357873916625977	20.0	null	null	null	null	1.33629959E8	null	null	1.0598647E8	1.7221264E7	null	null	7.3331504E7	5.6463815E7	null	null	9444979.0	null	1.10424392E8	1.8397191E7	1.8397191E7	null	1.3070261E7	null	3.6107805E7	718.0	702.0	null	707.0	null	null	null	null	703.0	null	707.0	
Thu Jul 27 07:47:00 UTC 2017	91.0	8.30480384E8	757934.6875	3.0	2.3425024E7	10433.6962890625	2.0	4.15596544E8	0.0	5.0	4.0	1.12852992E9	1.1021312E9	212346.546875	93358.3671875	0.09700000286102295	0.06549999862909317	0.0677499994635582	0.9865000247955322	0.728184163570404	20.0	null	null	null	null	1.47262906E8	null	null	1.26964135E8	7.2999998E7	null	null	3.7847741E7	4.9162047E7	null	null	4.584637E7	null	1.11723601E8	1.2996591E7	1.2996591E7	null	2.0374974E7	null	2895025.0	711.0	705.0	null	713.0	null	null	null	null	710.0	null	706.0	
Thu Jul 27 07:46:00 UTC 2017	87.0	7.90290432E8	616107.625	2.0	2.4367104E7	10433.6962890625	2.0	4.1517056E8	0.0	5.0	4.0	1.12852992E9	1.1021312E9	1961.949951171875	null	0.08399999886751175	0.06599999964237213	0.07249999791383743	0.9865000247955322	0.722100555896759	20.0	null	null	null	null	1.54572922E8	null	null	1.33557198E8	5.0171288E7	null	null	7.4371252E7	1.8598428E7	null	null	7.1444211E7	null	1.2564047E8	2.5188988E7	2.5188988E7	null	7159610.0	null	1.6003109E7	709.0	709.0	null	689.0	null	null	null	null	713.0	null	702.0	
Thu Jul 27 07:45:00 UTC 2017	89.0	7.00301312E8	3527.631591796875	1.0	2.361344E7	8.984909057617188	2.0	4.15105024E8	0.0	5.0	4.0	1.12852992E9	1.1021312E9	1961.949951171875	null	0.09274999797344208	0.06199999898672104	0.0702499970793724	0.9892500042915344	0.7136655449867249	20.0	null	null	null	null	1.1108213E8	null	null	1.11765853E8	2.903784E7	null	null	9474606.0	5.2568598E7	null	null	1.31496399E8	null	9.891026E7	1.7372816E7	1.7372816E7	null	2.2327288E7	null	3.2369406E7	727.0	697.0	null	710.0	null	null	null	null	707.0	null	711.0	
Thu Jul 27 07:44:00 UTC 2017	102.0	5.98048768E8	3527.631591796875	0.0	1.9472384E7	8.984909057617188	2.0	3.65682688E8	0.0	5.0	4.0	1.12852992E9	1.1021312E9	1961.949951171875	null	0.08950000256299973	0.1692499965429306	0.061500001698732376	0.9894999861717224	0.6983875632286072	20.0	null	null	null	null	1.93870097E8	null	null	1.23045653E8	5.2651208E7	null	null	6.6540243E7	3.0095974E7	null	null	6.4895165E7	null	1.51698186E8	7.4189504E7	7.4189504E7	null	4.5204205E7	null	3.4686017E7	685.0	689.0	null	683.0	null	null	null	null	692.0	null	678.0	
Thu Jul 27 07:43:00 UTC 2017	207.0	2.28352E7	7129.3994140625	0.0	1.288192E7	16.446727752685547	2.0	3.25132288E8	0.0	5.0	4.0	1.12852992E9	1.1021312E9	null	null	0.09449999779462814	0.07975000143051147	0.14124999940395355	0.9890000224113464	0.6834281086921692	20.0	null	null	null	null	9.328494E7	null	null	8.736045E7	2.754049985E9	null	null	8.7219135E7	2.737109001E9	null	null	1.535408444E9	null	5.0266174E7	null	null	null	6.41878531E8	null	6.2284844E7	722.0	725.0	null	695.0	null	null	null	null	714.0	null	711.0	
Thu Jul 27 07:41:00 UTC 2017	10.0	1.242312704E9	7129.3994140625	0.0	1.9513344E7	39.71821975708008	2.0	966656.0	0.0	5.0	4.0	1.128615936E9	1.10221312E9	null	null	0.09125000238418579	0.06800000369548798	0.051249999552965164	0.11225000023841858	0.9113260507583618	20.0	null	null	null	null	null	7.4525666E7	2185514.0	null	null	6320681.0	2791133.0	null	null	3236144.0	3715019.0	null	562673.0	null	null	null	4592302.0	null	699064.0	null	null	null	null	null	null	null	null	null	null	null	null	
Thu Jul 27 07:40:00 UTC 2017	9.0	1.242312704E9	7200.8271484375	0.0	1.9513344E7	39.71821975708008	2.0	null	0.0	6.0	5.0	1.128697856E9	1.102299136E9	null	null	0.09650000184774399	0.06575000286102295	0.04625000059604645	0.09799999743700027	0.9161561131477356	20.0	null	null	null	null	null	4.4892504E7	1.8976898E7	null	null	2814199.0	3647847.0	null	null	1.1756145E7	3835105.0	null	605369.0	null	null	null	695312.0	null	913589.0	null	null	null	null	null	null	null	null	null	null	null	null	
Thu Jul 27 07:39:00 UTC 2017	9.0	1.243889664E9	7200.8271484375	0.0	1.9513344E7	39.71821975708008	3.0	null	0.0	5.0	4.0	1.127768064E9	1.102385152E9	null	null	0.11025000363588333	0.05950000137090683	0.0560000017285347	0.08500000089406967	0.9162945747375488	20.0	null	null	null	null	null	6.530702E7	3.4912675E7	null	null	8028803.0	3.5380688E7	null	null	3240567.0	3.0813562E7	null	575879.0	null	null	null	773349.0	null	735678.0	null	null	null	null	null	null	null	null	null	null	null	null	
Thu Jul 27 07:38:00 UTC 2017	9.0	1.243889664E9	1481.77783203125	0.0	1.9513344E7	39.71821975708008	4.0	null	0.0	6.0	4.0	1.128853504E9	1.103454208E9	null	null	0.08749999850988388	0.07050000131130219	0.04450000077486038	0.09449999779462814	0.916047990322113	20.0	null	null	null	null	null	5.3056397E7	4.2887609E7	null	null	3543422.0	4418050.0	null	null	1.9630059E7	2797199.0	null	731620.0	null	null	null	772880.0	null	894526.0	null	null	null	null	null	null	null	null	null	null	null	null	
Thu Jul 27 07:37:00 UTC 2017	11.0	1.245712384E9	1481.77783203125	0.0	1.9513344E7	39.87993621826172	4.0	null	0.0	15.0	14.0	1.127923712E9	1.103532032E9	null	null	0.09375	0.08550000190734863	0.05674999952316284	0.1107499971985817	0.9193466305732727	20.0	null	null	null	null	null	5.6948047E7	5.0714806E7	null	null	1.8588706E7	7273724.0	null	null	4092851.0	4130194.0	null	661337.0	null	null	null	1387471.0	null	902968.0	null	null	null	null	null	null	null	null	null	null	null	null	
Thu Jul 27 07:36:00 UTC 2017	28.0	1.247563776E9	1481.77783203125	0.0	1.9513344E7	39.87993621826172	2.0	null	0.0	1.0	1.0	1.116516352E9	1.092788224E9	null	null	0.08624999970197678	0.04874999821186066	0.048500001430511475	0.09224999696016312	0.9184933304786682	20.0	null	null	null	null	null	6320882.0	5155280.0	null	null	7513026.0	6313939.0	null	null	4746501.0	5197597.0	null	846464.0	null	null	null	1014341.0	null	849865.0	null	null	null	null	null	null	null	null	null	null	null	null	
Thu Jul 27 07:35:00 UTC 2017	3.0	1.247563776E9	1332.670654296875	0.0	1.9513344E7	50.42209243774414	2.0	null	0.0	1.0	1.0	1.117437952E9	1.092702208E9	null	null	0.09375	0.05700000002980232	0.039250001311302185	0.07275000214576721	0.9183925986289978	5.0	null	null	null	null	null	6.8646217E7	2.3935199E7	null	null	3097826.0	3918948.0	null	null	2426459.0	4018766.0	null	564250.0	null	null	null	679805.0	null	668614.0	null	null	null	null	null	null	null	null	null	null	null	null	
Thu Jul 27 07:34:00 UTC 2017	3.0	1.24809216E9	1332.670654296875	0.0	1.9513344E7	50.42209243774414	3.0	null	0.0	1.0	2.0	1.116430336E9	1.09369344E9	null	null	0.09324999898672104	0.061000000685453415	0.04500000178813934	0.08550000190734863	0.918361246585846	3.0	null	null	null	null	null	2.0218529E7	7.9175885E7	null	null	3192481.0	3883936.0	null	null	2574029.0	2823001.0	null	1008954.0	null	null	null	651026.0	null	1007015.0	null	null	null	null	null	null	null	null	null	null	null	null	
Thu Jul 27 07:33:00 UTC 2017	3.0	1.24809216E9	null	0.0	1.9513344E7	50.42209243774414	2.0	null	0.0	0.0	0.0	1.116430336E9	1.092476928E9	null	null	0.07199999690055847	0.05050000175833702	0.04800000041723251	0.08299999684095383	0.9183011054992676	3.0	null	null	null	null	null	1.7933804E7	7.3355773E7	null	null	2956488.0	3756716.0	null	null	3927225.0	3036656.0	null	670401.0	null	null	null	769852.0	null	1001923.0	null	null	null	null	null	null	null	null	null	null	null	null	
Thu Jul 27 07:32:00 UTC 2017	2.0	1.248083968E9	null	0.0	1.9513344E7	50.42209243774414	3.0	null	0.0	0.0	0.0	1.116340224E9	1.09346816E9	null	null	0.08900000154972076	0.05375000089406967	0.06650000065565109	0.07824999839067459	0.9182007908821106	3.0	null	null	null	null	null	2740484.0	2414339.0	null	null	5553345.0	6216680.0	null	null	2139435.0	4081863.0	null	564588.0	null	null	null	968645.0	null	765706.0	null	null	null	null	null	null	null	null	null	null	null	null	
Thu Jul 27 07:31:00 UTC 2017	2.0	null	null	null	null	null	null	null	null	null	null	null	null	null	null	null	null	null	null	null	null	null	null	null	null	null	null	null	null	null	null	null	null	null	null	null	null	null	null	null	null	null	null	null	null	null	null	null	null	null	null	null	null	null	null	null	
