_DATE	cpuusage_middle	memusage_middle	network_middle	cpuusage_server	memusage_server	network_server	cpuusage_cassandra	memusage_cassandra	network_cassandra	cpuusage_edge1	cpuusage_edge2	memusage_edge1	memusage_edge2	network_edge1	network_edge2	nodecpu61	nodecpu62	nodecpu63	nodecpu64	nodemem64	locustusers	status_200_count25	status_200_count4	status_500_count25	status_500_count4	status_0_count25	status_0_count4	status_other_count25	status_other_count4	percentile_viewfeedresponsetime_edge	percentile_addfeedresponsetime_edge	percentile_deletefeedresponsetime_edge	percentile_fetch_middle	percentile_fetchfeeds_middle	percentile_fetchfeeds_middle	percentile_sub_middle	percentile_unsub_middle	cpuusage_stress1	cpuusage_stress10	cpuusage_stress11	cpuusage_stress2	cpuusage_stress3	cpuusage_stress4	cpuusage_stress5	cpuusage_stress6	cpuusage_stress7	cpuusage_stress8	cpuusage_stress9	
Tue Jun 06 15:16:00 UTC 2017	89.0	1.049489408E9	2215843.75	9.0	2.7049984E7	34160.7734375	28.0	1.055707136E9	5884.8017578125	12.0	24.0	8.2434048E8	6.4878592E8	333523.46875	636334.75	0.08224999904632568	0.05674999952316284	0.07874999940395355	0.9827499985694885	0.7985187768936157	50.0	244.0	371.0	0.0	0.0	0.0	0.0	0.0	0.0	null	null	null	null	null	null	null	null	320.0	320.0	320.0	321.0	319.0	324.0	318.0	319.0	320.0	320.0	322.0	
Tue Jun 06 15:15:00 UTC 2017	95.0	1.049489408E9	2215843.75	9.0	2.7045888E7	34160.7734375	26.0	1.055752192E9	5943.46728515625	14.0	25.0	8.31700992E8	6.56654336E8	333523.46875	636334.75	0.06449999660253525	0.06499999761581421	0.07500000298023224	0.981249988079071	0.7983714938163757	50.0	244.0	371.0	0.0	0.0	0.0	0.0	0.0	0.0	null	null	null	null	null	null	null	null	321.0	316.0	318.0	314.0	319.0	319.0	319.0	320.0	317.0	317.0	320.0	
Tue Jun 06 15:14:00 UTC 2017	105.0	1.050533888E9	2215843.75	8.0	2.7127808E7	31849.212890625	26.0	1.05562112E9	5917.27880859375	13.0	28.0	8.40118272E8	6.65575424E8	287305.25	null	0.08749999850988388	0.061000000685453415	0.07275000214576721	0.9825000166893005	0.7983275055885315	50.0	244.0	371.0	0.0	0.0	0.0	0.0	0.0	0.0	null	null	null	null	null	null	null	null	319.0	319.0	318.0	319.0	321.0	316.0	320.0	316.0	319.0	323.0	319.0	
Tue Jun 06 15:13:00 UTC 2017	101.0	1.050599424E9	2215843.75	8.0	2.791424E7	29401.541015625	25.0	1.05551872E9	5415.63134765625	14.0	27.0	8.46434304E8	6.7344384E8	287305.25	null	0.07249999791383743	0.06800000369548798	0.07450000196695328	0.9825000166893005	0.7981616258621216	50.0	244.0	371.0	0.0	0.0	0.0	0.0	0.0	0.0	null	null	null	null	null	null	null	null	321.0	320.0	321.0	319.0	320.0	324.0	320.0	323.0	321.0	317.0	321.0	
Tue Jun 06 15:12:00 UTC 2017	101.0	1.050468352E9	2215843.75	8.0	2.6968064E7	30290.923828125	29.0	1.055326208E9	5415.63134765625	13.0	26.0	8.55908352E8	6.81852928E8	298832.125	512632.21875	0.07450000196695328	0.05849999934434891	0.07150000333786011	0.9827499985694885	0.7993475794792175	50.0	244.0	371.0	0.0	0.0	0.0	0.0	0.0	0.0	null	null	null	null	null	null	null	null	321.0	319.0	319.0	317.0	322.0	316.0	320.0	321.0	322.0	323.0	319.0	
Tue Jun 06 15:11:00 UTC 2017	100.0	1.050468352E9	2042881.375	7.0	2.6980352E7	28603.37109375	24.0	1.055297536E9	5415.63134765625	12.0	24.0	8.65902592E8	6.92322304E8	298832.125	512632.21875	0.10400000214576721	0.06800000369548798	0.06825000047683716	0.9835000038146973	0.7978445887565613	50.0	244.0	371.0	0.0	0.0	0.0	0.0	0.0	0.0	null	null	null	null	null	null	null	null	321.0	320.0	321.0	321.0	323.0	325.0	325.0	319.0	324.0	319.0	323.0	
Tue Jun 06 15:10:00 UTC 2017	86.0	1.04978432E9	2042881.375	7.0	2.6976256E7	28603.37109375	25.0	1.055612928E9	5686.60400390625	13.0	24.0	8.68528128E8	6.9824512E8	298832.125	512632.21875	0.07225000113248825	0.057500001043081284	0.07100000232458115	0.9832500219345093	0.7976018786430359	50.0	244.0	371.0	0.0	0.0	0.0	0.0	0.0	0.0	null	null	null	null	null	null	null	null	321.0	322.0	323.0	320.0	319.0	321.0	318.0	322.0	319.0	322.0	321.0	
Tue Jun 06 15:09:00 UTC 2017	91.0	1.04978432E9	2231180.75	7.0	2.7004928E7	29408.857421875	20.0	1.055055872E9	4947.4599609375	13.0	24.0	8.76945408E8	7.06510848E8	269610.40625	539468.3125	0.07874999940395355	0.06199999898672104	0.0689999982714653	0.9837499856948853	0.797511875629425	50.0	244.0	371.0	0.0	0.0	0.0	0.0	0.0	0.0	null	null	null	null	null	null	null	null	322.0	324.0	320.0	325.0	321.0	321.0	320.0	323.0	319.0	321.0	324.0	
Tue Jun 06 15:08:00 UTC 2017	92.0	1.049718784E9	2231180.75	8.0	2.7820032E7	29408.857421875	26.0	1.055031296E9	5824.7529296875	13.0	28.0	8.88516608E8	7.11630848E8	252414.1875	553515.5	0.07275000214576721	0.06599999964237213	0.06750000268220901	0.9827499985694885	0.7973993420600891	50.0	244.0	371.0	0.0	0.0	0.0	0.0	0.0	0.0	null	null	null	null	null	null	null	null	319.0	320.0	319.0	322.0	324.0	319.0	322.0	315.0	320.0	321.0	320.0	
Tue Jun 06 15:07:00 UTC 2017	99.0	1.04976384E9	2276531.25	8.0	2.707456E7	28055.107421875	24.0	1.054715904E9	5519.234375	12.0	27.0	8.91674624E8	7.20523264E8	252414.1875	553515.5	0.07400000095367432	0.06475000083446503	0.07275000214576721	0.9825000166893005	0.7973284125328064	50.0	244.0	371.0	0.0	0.0	0.0	0.0	0.0	0.0	null	null	null	null	null	null	null	null	321.0	318.0	321.0	321.0	319.0	320.0	318.0	321.0	321.0	318.0	321.0	
Tue Jun 06 15:06:00 UTC 2017	104.0	1.049829376E9	2124423.25	7.0	2.7062272E7	28055.107421875	26.0	1.05476096E9	5519.234375	12.0	25.0	9.03397376E8	7.27871488E8	252414.1875	553515.5	0.08500000089406967	0.061500001698732376	0.07450000196695328	0.9832500219345093	0.7972325086593628	50.0	244.0	371.0	0.0	0.0	0.0	0.0	0.0	0.0	null	null	null	null	null	null	null	null	322.0	319.0	322.0	320.0	321.0	320.0	321.0	319.0	320.0	322.0	321.0	
Tue Jun 06 15:05:00 UTC 2017	97.0	1.049735168E9	2124423.25	7.0	2.705408E7	32496.107421875	25.0	1.054785536E9	5519.234375	12.0	26.0	9.06027008E8	7.34695424E8	252414.1875	553515.5	0.0742499977350235	0.060499999672174454	0.07175000011920929	0.9825000166893005	0.7971537113189697	50.0	244.0	371.0	0.0	0.0	0.0	0.0	0.0	0.0	null	null	null	null	null	null	null	null	318.0	322.0	321.0	320.0	322.0	320.0	320.0	319.0	319.0	322.0	318.0	
Tue Jun 06 15:04:00 UTC 2017	94.0	1.049481216E9	2252712.25	8.0	2.705408E7	32496.107421875	26.0	1.054654464E9	5519.234375	13.0	27.0	9.16680704E8	7.39938304E8	252414.1875	553515.5	0.07874999940395355	0.06350000202655792	0.0689999982714653	0.9822499752044678	0.7993989586830139	50.0	244.0	371.0	0.0	0.0	0.0	0.0	0.0	0.0	null	null	null	null	null	null	null	null	322.0	317.0	318.0	317.0	321.0	323.0	319.0	322.0	321.0	318.0	321.0	
Tue Jun 06 15:03:00 UTC 2017	103.0	1.049260032E9	2220315.25	8.0	2.7045888E7	31639.4375	30.0	1.054621696E9	5519.234375	13.0	27.0	9.20236032E8	7.4835968E8	252414.1875	553515.5	0.0702499970793724	0.06324999779462814	0.07774999737739563	0.9825000166893005	0.7968714237213135	50.0	244.0	371.0	0.0	0.0	0.0	0.0	0.0	0.0	null	null	null	null	null	null	null	null	319.0	319.0	321.0	324.0	318.0	319.0	321.0	320.0	318.0	322.0	320.0	
Tue Jun 06 15:02:00 UTC 2017	99.0	1.049284608E9	2083110.5	8.0	2.7045888E7	30757.044921875	25.0	1.054306304E9	5519.234375	12.0	25.0	9.30234368E8	7.57805056E8	252414.1875	553515.5	0.07400000095367432	0.05925000086426735	0.07275000214576721	0.9827499985694885	0.797771692276001	50.0	244.0	371.0	0.0	0.0	0.0	0.0	0.0	0.0	null	null	null	null	null	null	null	null	321.0	325.0	321.0	320.0	322.0	323.0	326.0	320.0	321.0	319.0	323.0	
Tue Jun 06 15:01:00 UTC 2017	100.0	1.050177536E9	2083110.5	8.0	2.7021312E7	32399.638671875	24.0	1.054326784E9	5519.234375	13.0	25.0	9.33388288E8	7.68282624E8	304689.15625	630904.6875	0.10949999839067459	0.0689999982714653	0.07175000011920929	0.9827499985694885	0.7967725992202759	50.0	244.0	371.0	0.0	0.0	0.0	0.0	0.0	0.0	null	null	null	null	null	null	null	null	323.0	323.0	321.0	319.0	320.0	320.0	318.0	319.0	323.0	319.0	321.0	
Tue Jun 06 15:00:00 UTC 2017	92.0	1.050243072E9	2083110.5	8.0	2.6226688E7	32399.638671875	26.0	1.054314496E9	5833.42236328125	14.0	25.0	9.44443392E8	7.76855552E8	304689.15625	630904.6875	0.07400000095367432	0.05874999985098839	0.0754999965429306	0.9825000166893005	0.7966747283935547	50.0	244.0	371.0	0.0	0.0	0.0	0.0	0.0	0.0	null	null	null	null	null	null	null	null	321.0	320.0	316.0	319.0	321.0	319.0	322.0	322.0	319.0	323.0	319.0	
Tue Jun 06 14:59:00 UTC 2017	102.0	1.050177536E9	2083110.5	8.0	2.70336E7	29600.791015625	25.0	1.054191616E9	5583.22705078125	14.0	24.0	9.44443392E8	7.87480576E8	304689.15625	630904.6875	0.0729999989271164	0.07000000029802322	0.0702499970793724	0.9832500219345093	0.7988362908363342	50.0	244.0	371.0	0.0	0.0	0.0	0.0	0.0	0.0	null	null	null	null	null	null	null	null	318.0	319.0	321.0	326.0	324.0	325.0	324.0	321.0	316.0	318.0	320.0	
Tue Jun 06 14:58:00 UTC 2017	96.0	1.049440256E9	2083110.5	8.0	2.7025408E7	33529.1171875	24.0	1.05414656E9	5583.22705078125	13.0	22.0	9.49170176E8	7.99440896E8	304689.15625	630904.6875	0.08150000125169754	0.05624999850988388	0.0702499970793724	0.9822499752044678	0.7963953614234924	50.0	244.0	371.0	0.0	0.0	0.0	0.0	0.0	0.0	null	null	null	null	null	null	null	null	323.0	319.0	321.0	320.0	322.0	321.0	321.0	322.0	319.0	317.0	322.0	
Tue Jun 06 14:57:00 UTC 2017	93.0	1.049194496E9	2083110.5	9.0	2.7136E7	33529.1171875	24.0	1.053904896E9	5582.08349609375	14.0	26.0	9.59168512E8	8.1047552E8	304689.15625	630904.6875	0.07175000011920929	0.06599999964237213	0.07100000232458115	0.9817500114440918	0.7984615564346313	50.0	244.0	371.0	0.0	0.0	0.0	0.0	0.0	0.0	null	null	null	null	null	null	null	null	316.0	320.0	321.0	319.0	319.0	315.0	320.0	317.0	321.0	320.0	317.0	
Tue Jun 06 14:56:00 UTC 2017	110.0	1.048952832E9	2083110.5	8.0	2.7201536E7	34433.07421875	25.0	1.053868032E9	5965.55810546875	13.0	25.0	9.6442368E8	8.25708544E8	296141.03125	615263.25	0.08224999904632568	0.0637499988079071	0.07450000196695328	0.9819999933242798	0.7959246635437012	50.0	244.0	371.0	0.0	0.0	0.0	0.0	0.0	0.0	null	null	null	null	null	null	null	null	321.0	318.0	320.0	315.0	318.0	324.0	320.0	322.0	319.0	318.0	319.0	
Tue Jun 06 14:55:00 UTC 2017	102.0	1.049079808E9	2083110.5	9.0	2.717696E7	34433.07421875	26.0	1.05392128E9	5890.05859375	14.0	26.0	9.7441792E8	8.39385088E8	335674.0	676353.0625	0.08150000125169754	0.061000000685453415	0.07325000315904617	0.9810000061988831	0.7980265617370605	50.0	244.0	371.0	0.0	0.0	0.0	0.0	0.0	0.0	null	null	null	null	null	null	null	null	317.0	320.0	320.0	318.0	319.0	317.0	316.0	313.0	321.0	318.0	319.0	
Tue Jun 06 14:54:00 UTC 2017	110.0	1.048817664E9	2083110.5	8.0	2.7025408E7	29571.482421875	26.0	1.053790208E9	5890.05859375	12.0	24.0	9.79677184E8	8.57788416E8	335674.0	676353.0625	0.07150000333786011	0.06424999982118607	0.07074999809265137	0.9822499752044678	0.7974609732627869	50.0	244.0	371.0	0.0	0.0	0.0	0.0	0.0	0.0	null	null	null	null	null	null	null	null	321.0	323.0	322.0	320.0	318.0	322.0	320.0	324.0	316.0	322.0	320.0	
Tue Jun 06 14:53:00 UTC 2017	93.0	1.048313856E9	2390371.5	9.0	2.699264E7	35132.46875	26.0	1.053810688E9	5890.05859375	13.0	26.0	9.79677184E8	8.69388288E8	335674.0	676353.0625	0.07150000333786011	0.06700000166893005	0.07225000113248825	0.9815000295639038	0.7963738441467285	50.0	244.0	371.0	0.0	0.0	0.0	0.0	0.0	0.0	null	null	null	null	null	null	null	null	321.0	315.0	318.0	322.0	321.0	315.0	322.0	317.0	320.0	317.0	316.0	
Tue Jun 06 14:52:00 UTC 2017	106.0	1.048879104E9	2459302.75	8.0	2.6918912E7	35132.46875	25.0	1.053556736E9	5840.91796875	13.0	27.0	9.90195712E8	8.90925056E8	335674.0	676353.0625	0.08150000125169754	0.06199999898672104	0.07199999690055847	0.981249988079071	0.7960034608840942	50.0	244.0	371.0	0.0	0.0	0.0	0.0	0.0	0.0	null	null	null	null	null	null	null	null	318.0	322.0	324.0	319.0	319.0	322.0	315.0	316.0	319.0	314.0	313.0	
Tue Jun 06 14:51:00 UTC 2017	107.0	1.0488832E9	2459302.75	9.0	2.6906624E7	35132.46875	25.0	1.053515776E9	5292.8349609375	13.0	25.0	9.95581952E8	9.05146368E8	335674.0	676353.0625	0.09925000369548798	0.0637499988079071	0.0702499970793724	0.981249988079071	0.7950170636177063	50.0	244.0	371.0	0.0	0.0	0.0	0.0	0.0	0.0	null	null	null	null	null	null	null	null	322.0	317.0	316.0	315.0	316.0	318.0	319.0	315.0	316.0	321.0	320.0	
Tue Jun 06 14:50:00 UTC 2017	118.0	1.048948736E9	2459302.75	7.0	2.6906624E7	30360.380859375	23.0	1.053507584E9	5292.8349609375	11.0	22.0	1.006104576E9	9.19453696E8	335674.0	676353.0625	0.08874999731779099	0.0560000017285347	0.07199999690055847	0.9825000166893005	0.7947381734848022	50.0	244.0	371.0	0.0	0.0	0.0	0.0	0.0	0.0	null	null	null	null	null	null	null	null	319.0	319.0	320.0	324.0	324.0	318.0	318.0	323.0	319.0	319.0	318.0	
Tue Jun 06 14:49:00 UTC 2017	95.0	1.04900608E9	2459302.75	9.0	2.6882048E7	32691.533203125	26.0	1.053376512E9	5894.52490234375	14.0	25.0	1.006104576E9	9.42993408E8	335674.0	676353.0625	0.07774999737739563	0.06350000202655792	0.0729999989271164	0.9817500114440918	0.7945992350578308	50.0	244.0	371.0	0.0	0.0	0.0	0.0	0.0	0.0	null	null	null	null	null	null	null	null	319.0	319.0	320.0	318.0	319.0	319.0	319.0	318.0	319.0	318.0	320.0	
Tue Jun 06 14:48:00 UTC 2017	110.0	1.048813568E9	2107866.25	8.0	2.6861568E7	32988.01171875	25.0	1.053343744E9	5987.1005859375	13.0	25.0	1.011765248E9	9.47712E8	287005.03125	null	0.06599999964237213	0.06575000286102295	0.06975000351667404	0.9819999933242798	0.7943164110183716	50.0	244.0	371.0	0.0	0.0	0.0	0.0	0.0	0.0	null	null	null	null	null	null	null	null	321.0	319.0	317.0	322.0	320.0	320.0	321.0	320.0	320.0	318.0	321.0	
Tue Jun 06 14:47:00 UTC 2017	104.0	1.04894464E9	2107866.25	8.0	2.7025408E7	32988.01171875	27.0	1.053085696E9	5843.35107421875	13.0	26.0	1.022287872E9	9.6088064E8	301584.34375	611769.375	0.08349999785423279	0.06424999982118607	0.07474999874830246	0.9819999933242798	0.7941745519638062	50.0	244.0	371.0	0.0	0.0	0.0	0.0	0.0	0.0	null	null	null	null	null	null	null	null	316.0	321.0	319.0	317.0	321.0	319.0	319.0	317.0	322.0	316.0	319.0	
Tue Jun 06 14:46:00 UTC 2017	104.0	1.048940544E9	2107866.25	8.0	2.7009024E7	32988.01171875	25.0	1.053200384E9	5843.35107421875	13.0	24.0	1.022287872E9	9.76633856E8	278279.1875	611769.375	0.07625000178813934	0.057500001043081284	0.07225000113248825	0.9819999933242798	0.7938677668571472	50.0	244.0	371.0	0.0	0.0	0.0	0.0	0.0	0.0	null	null	null	null	null	null	null	null	320.0	320.0	323.0	320.0	321.0	320.0	321.0	322.0	320.0	322.0	319.0	
Tue Jun 06 14:45:00 UTC 2017	99.0	1.049034752E9	2107866.25	8.0	2.7066368E7	34757.56640625	29.0	1.05316352E9	5843.35107421875	13.0	25.0	1.028595712E9	9.85571328E8	267436.9375	null	0.08150000125169754	0.0637499988079071	0.07249999791383743	0.9815000295639038	0.7936074733734131	50.0	244.0	371.0	0.0	0.0	0.0	0.0	0.0	0.0	null	null	null	null	null	null	null	null	322.0	317.0	319.0	322.0	319.0	319.0	318.0	317.0	317.0	318.0	320.0	
Tue Jun 06 14:44:00 UTC 2017	105.0	1.048870912E9	2107866.25	8.0	2.70336E7	30538.64453125	23.0	1.053032448E9	5638.9892578125	13.0	24.0	1.028591616E9	1.000292352E9	267436.9375	null	0.07175000011920929	0.06549999862909317	0.07000000029802322	0.9822499752044678	0.7934137582778931	50.0	244.0	371.0	0.0	0.0	0.0	0.0	0.0	0.0	null	null	null	null	null	null	null	null	321.0	321.0	321.0	318.0	318.0	322.0	319.0	320.0	322.0	317.0	319.0	
Tue Jun 06 14:43:00 UTC 2017	97.0	1.048653824E9	2691.89990234375	8.0	2.7029504E7	29112.46484375	25.0	1.05299968E9	5605.357421875	13.0	25.0	1.03804928E9	1.006600192E9	267436.9375	null	0.07699999958276749	0.0637499988079071	0.07349999994039536	0.9829999804496765	0.7950552105903625	50.0	244.0	371.0	0.0	0.0	0.0	0.0	0.0	0.0	null	null	null	null	null	null	null	null	318.0	321.0	325.0	317.0	316.0	323.0	322.0	321.0	321.0	322.0	321.0	
Tue Jun 06 14:42:00 UTC 2017	100.0	1.048584192E9	2691.89990234375	8.0	2.6927104E7	29112.46484375	24.0	1.052737536E9	5573.07373046875	13.0	24.0	1.04593408E9	1.020289024E9	226912.359375	472383.25	0.07625000178813934	0.06424999982118607	0.06724999845027924	0.9827499985694885	0.7930086255073547	50.0	244.0	371.0	0.0	0.0	0.0	0.0	0.0	0.0	null	null	null	null	null	null	null	null	318.0	320.0	316.0	321.0	321.0	321.0	318.0	323.0	318.0	319.0	321.0	
Tue Jun 06 14:41:00 UTC 2017	101.0	1.04747008E9	2691.89990234375	7.0	2.6902528E7	29117.162109375	24.0	1.052708864E9	5541.83056640625	13.0	24.0	1.045925888E9	1.026572288E9	226912.359375	472383.25	0.09974999725818634	0.05849999934434891	0.0754999965429306	0.9825000166893005	0.7926034927368164	50.0	244.0	371.0	0.0	0.0	0.0	0.0	0.0	0.0	null	null	null	null	null	null	null	null	321.0	318.0	318.0	317.0	320.0	320.0	321.0	320.0	321.0	321.0	320.0	
Tue Jun 06 14:40:00 UTC 2017	96.0	1.047240704E9	2691.89990234375	6.0	2.6947584E7	26822.607421875	26.0	1.052762112E9	6101.666015625	12.0	22.0	1.048543232E9	1.034477568E9	226912.359375	472383.25	0.07400000095367432	0.06449999660253525	0.07150000333786011	0.9832500219345093	0.7923837900161743	50.0	244.0	371.0	0.0	0.0	0.0	0.0	0.0	0.0	null	null	null	null	null	null	null	null	321.0	322.0	321.0	318.0	322.0	320.0	320.0	319.0	323.0	323.0	320.0	
Tue Jun 06 14:39:00 UTC 2017	84.0	1.047207936E9	2691.89990234375	3.0	2.691072E7	13695.31640625	24.0	1.05263104E9	54.164615631103516	9.0	15.0	1.04853504E9	1.03446528E9	124953.8828125	192040.3125	0.07774999737739563	0.060750000178813934	0.08299999684095383	0.987500011920929	0.7924699187278748	50.0	244.0	371.0	0.0	0.0	0.0	0.0	0.0	0.0	null	null	null	null	null	null	null	null	326.0	330.0	330.0	330.0	328.0	327.0	326.0	326.0	330.0	330.0	330.0	
Tue Jun 06 14:38:00 UTC 2017	43.0	1.047281664E9	2691.89990234375	0.0	2.551808E7	0.0	3.0	1.0569728E9	54.164615631103516	0.0	0.0	1.047150592E9	1.031368704E9	0.0	0.0	0.07625000178813934	0.048250000923871994	0.060750000178813934	0.9922500252723694	0.7941285371780396	50.0	244.0	371.0	0.0	0.0	0.0	0.0	0.0	0.0	null	null	null	null	null	null	null	null	336.0	339.0	334.0	333.0	334.0	339.0	337.0	338.0	341.0	340.0	335.0	
Tue Jun 06 14:37:00 UTC 2017	0.0	1.047281664E9	2691.89990234375	0.0	2.5616384E7	0.0	2.0	1.058275328E9	54.164615631103516	0.0	0.0	1.047150592E9	1.031368704E9	0.0	0.0	0.07800000160932541	0.05649999901652336	0.04475000128149986	0.9922500252723694	0.7929303050041199	0.0	244.0	371.0	0.0	0.0	0.0	0.0	0.0	0.0	null	null	null	null	null	null	null	null	331.0	334.0	337.0	333.0	337.0	334.0	333.0	333.0	334.0	335.0	340.0	
Tue Jun 06 14:36:00 UTC 2017	0.0	1.047281664E9	2691.89990234375	0.0	2.5616384E7	0.0	2.0	1.058275328E9	54.164615631103516	0.0	0.0	1.047150592E9	1.031368704E9	0.0	0.0	0.08150000125169754	0.0494999997317791	0.05000000074505806	0.9922500252723694	0.7917839884757996	0.0	244.0	371.0	0.0	0.0	0.0	0.0	0.0	0.0	null	null	null	null	null	null	null	null	337.0	336.0	334.0	333.0	334.0	339.0	339.0	336.0	338.0	337.0	335.0	
Tue Jun 06 14:35:00 UTC 2017	0.0	1.047281664E9	2691.89990234375	0.0	2.5616384E7	1.2385231256484985	4.0	1.05836544E9	40.5611457824707	0.0	0.0	1.047150592E9	1.031368704E9	0.0	0.0	0.07349999994039536	0.05900000035762787	0.042750000953674316	0.9922500252723694	0.7917629480361938	0.0	244.0	371.0	0.0	0.0	0.0	0.0	0.0	0.0	null	null	null	null	null	null	null	null	333.0	336.0	331.0	335.0	335.0	334.0	333.0	338.0	338.0	331.0	339.0	
Tue Jun 06 14:34:00 UTC 2017	0.0	1.047281664E9	2927.91357421875	0.0	2.5616384E7	1.2385231256484985	4.0	1.058275328E9	43.731651306152344	0.0	0.0	1.047150592E9	1.0323968E9	0.0	0.0	0.07800000160932541	0.051500000059604645	0.04724999889731407	0.9922500252723694	0.7940629720687866	0.0	244.0	371.0	0.0	0.0	0.0	0.0	0.0	0.0	null	null	null	null	null	null	null	null	336.0	339.0	334.0	335.0	337.0	334.0	339.0	334.0	333.0	336.0	335.0	
Tue Jun 06 14:33:00 UTC 2017	0.0	1.047281664E9	2927.91357421875	0.0	2.5616384E7	1.2385231256484985	2.0	1.058275328E9	43.018184661865234	0.0	0.0	1.047150592E9	1.031368704E9	0.0	0.0	0.0767500028014183	0.05324999988079071	0.04975000023841858	0.9922500252723694	0.791728675365448	0.0	244.0	371.0	0.0	0.0	0.0	0.0	0.0	0.0	null	null	null	null	null	null	null	null	335.0	333.0	337.0	337.0	334.0	335.0	338.0	338.0	337.0	335.0	335.0	
Tue Jun 06 14:32:00 UTC 2017	0.0	1.047281664E9	2267.84765625	0.0	2.5616384E7	1.2385231256484985	2.0	1.058062336E9	52.46725082397461	0.0	0.0	1.047150592E9	1.031368704E9	0.0	0.0	0.14650000631809235	0.045249998569488525	0.057999998331069946	0.9922500252723694	0.7939984202384949	0.0	244.0	371.0	0.0	0.0	0.0	0.0	0.0	0.0	null	null	null	null	null	null	null	null	337.0	335.0	337.0	334.0	338.0	336.0	334.0	333.0	338.0	335.0	333.0	
Tue Jun 06 14:31:00 UTC 2017	0.0	1.047281664E9	2729.783447265625	0.0	2.5616384E7	0.0	2.0	1.058062336E9	40.36167526245117	0.0	0.0	1.047150592E9	1.0323968E9	0.0	0.0	0.09175000339746475	0.05624999850988388	0.04349999874830246	0.9922500252723694	0.7916969060897827	0.0	244.0	371.0	0.0	0.0	0.0	0.0	0.0	0.0	null	null	null	null	null	null	null	null	334.0	336.0	335.0	337.0	335.0	337.0	335.0	336.0	333.0	337.0	337.0	
Tue Jun 06 14:30:00 UTC 2017	0.0	1.047281664E9	2729.783447265625	0.0	2.5616384E7	0.0	2.0	1.058152448E9	43.57864761352539	0.0	0.0	1.047150592E9	1.0323968E9	0.0	0.0	0.0767500028014183	0.04749999940395355	0.051249999552965164	0.9919999837875366	0.7930340766906738	0.0	244.0	371.0	0.0	0.0	0.0	0.0	0.0	0.0	null	null	null	null	null	null	null	null	335.0	337.0	333.0	332.0	337.0	334.0	335.0	334.0	338.0	335.0	336.0	
Tue Jun 06 14:29:00 UTC 2017	0.0	1.047281664E9	2729.783447265625	0.0	2.5616384E7	0.0	2.0	1.058062336E9	43.57864761352539	0.0	0.0	1.047150592E9	1.031368704E9	0.0	0.0	0.0742499977350235	0.05050000175833702	0.0442500002682209	0.9922500252723694	0.791678786277771	0.0	244.0	371.0	0.0	0.0	0.0	0.0	0.0	0.0	null	null	null	null	null	null	null	null	334.0	337.0	332.0	335.0	333.0	335.0	335.0	337.0	336.0	334.0	336.0	
Tue Jun 06 14:28:00 UTC 2017	0.0	1.047281664E9	2542.07421875	0.0	2.5616384E7	0.0	4.0	1.058062336E9	43.57864761352539	0.0	0.0	1.047150592E9	1.031368704E9	0.0	null	0.07900000363588333	0.05225000157952309	0.04600000008940697	0.9922500252723694	0.7916582226753235	0.0	244.0	371.0	0.0	0.0	0.0	0.0	0.0	0.0	null	null	null	null	null	null	null	null	337.0	335.0	335.0	336.0	336.0	335.0	338.0	333.0	335.0	338.0	333.0	
Tue Jun 06 14:27:00 UTC 2017	0.0	1.047281664E9	2542.07421875	0.0	2.5616384E7	0.0	2.0	1.05785344E9	80.87874603271484	0.0	0.0	1.047150592E9	1.0323968E9	0.0	0.0	0.07874999940395355	0.054999999701976776	0.04600000008940697	0.9922500252723694	0.7916562557220459	0.0	244.0	371.0	0.0	0.0	0.0	0.0	0.0	0.0	null	null	null	null	null	null	null	null	336.0	335.0	337.0	335.0	338.0	335.0	336.0	338.0	335.0	334.0	335.0	
Tue Jun 06 14:26:00 UTC 2017	0.0	1.047281664E9	2542.07421875	0.0	2.5616384E7	0.0	2.0	1.057943552E9	55.692745208740234	0.0	0.0	1.047150592E9	1.031368704E9	0.0	0.0	0.07349999994039536	0.05249999836087227	0.048500001430511475	0.9922500252723694	0.7916391491889954	0.0	244.0	371.0	0.0	0.0	0.0	0.0	0.0	0.0	null	null	null	null	null	null	null	null	336.0	335.0	331.0	334.0	332.0	334.0	337.0	336.0	337.0	337.0	336.0	
Tue Jun 06 14:25:00 UTC 2017	0.0	1.047281664E9	2800.763671875	0.0	2.5616384E7	0.0	2.0	1.057943552E9	55.692745208740234	0.0	0.0	1.047150592E9	1.031368704E9	0.0	0.0	0.08474999666213989	0.05025000125169754	0.04500000178813934	0.9919999837875366	0.791638195514679	0.0	244.0	371.0	0.0	0.0	0.0	0.0	0.0	0.0	null	null	null	null	null	null	null	null	336.0	336.0	337.0	335.0	335.0	334.0	334.0	336.0	335.0	335.0	337.0	
Tue Jun 06 14:24:00 UTC 2017	0.0	1.047281664E9	2783.810302734375	0.0	2.5616384E7	0.0	2.0	1.05785344E9	55.692745208740234	0.0	0.0	1.047150592E9	1.031368704E9	0.0	0.0	0.07774999737739563	0.05324999988079071	0.05050000175833702	0.9919999837875366	0.7915525436401367	0.0	244.0	371.0	0.0	0.0	0.0	0.0	0.0	0.0	null	null	null	null	null	null	null	null	338.0	334.0	336.0	331.0	337.0	337.0	334.0	337.0	335.0	337.0	332.0	
Tue Jun 06 14:23:00 UTC 2017	0.0	1.047281664E9	2412.005859375	0.0	2.5616384E7	0.0	3.0	1.05785344E9	55.692745208740234	0.0	0.0	1.047150592E9	1.0323968E9	0.0	0.0	0.06400000303983688	0.05324999988079071	0.04600000008940697	0.9919999837875366	0.7915534973144531	0.0	244.0	371.0	0.0	0.0	0.0	0.0	0.0	0.0	null	null	null	null	null	null	null	null	333.0	333.0	336.0	335.0	335.0	334.0	334.0	332.0	333.0	339.0	336.0	
Tue Jun 06 14:22:00 UTC 2017	0.0	1.047281664E9	3178.94970703125	0.0	2.5616384E7	0.0	4.0	1.057640448E9	33.30033874511719	0.0	0.0	1.047150592E9	1.0323968E9	0.0	0.0	0.0820000022649765	0.05350000038743019	0.048500001430511475	0.9919999837875366	0.7915177941322327	0.0	244.0	371.0	0.0	0.0	0.0	0.0	0.0	0.0	null	null	null	null	null	null	null	null	337.0	336.0	334.0	334.0	337.0	336.0	335.0	337.0	338.0	334.0	337.0	
Tue Jun 06 14:21:00 UTC 2017	0.0	1.047281664E9	2958.5537109375	0.0	2.5616384E7	0.0	3.0	1.057640448E9	53.62140655517578	0.0	0.0	1.047150592E9	1.0323968E9	0.0	null	0.10050000250339508	0.04675000160932541	0.04600000008940697	0.9922500252723694	0.7915099859237671	0.0	244.0	371.0	0.0	0.0	0.0	0.0	0.0	0.0	null	null	null	null	null	null	null	null	336.0	339.0	334.0	336.0	336.0	339.0	335.0	333.0	335.0	337.0	333.0	
Tue Jun 06 14:20:00 UTC 2017	0.0	1.047281664E9	2410.91015625	0.0	2.5616384E7	0.0	2.0	1.05773056E9	53.62140655517578	0.0	0.0	1.047150592E9	1.0323968E9	0.0	null	0.07275000214576721	0.0572500005364418	0.04475000128149986	0.9922500252723694	0.7938022017478943	0.0	244.0	371.0	0.0	0.0	0.0	0.0	0.0	0.0	null	null	null	null	null	null	null	null	334.0	330.0	335.0	337.0	335.0	335.0	336.0	338.0	335.0	335.0	335.0	
Tue Jun 06 14:19:00 UTC 2017	0.0	1.047281664E9	2410.91015625	0.0	2.5616384E7	0.0	2.0	1.057640448E9	37.337154388427734	0.0	0.0	1.047150592E9	1.031368704E9	0.0	0.0	0.07750000059604645	0.05225000157952309	0.04699999839067459	0.9922500252723694	0.7915177941322327	0.0	244.0	371.0	0.0	0.0	0.0	0.0	0.0	0.0	null	null	null	null	null	null	null	null	335.0	337.0	336.0	334.0	337.0	333.0	335.0	336.0	336.0	336.0	334.0	
Tue Jun 06 14:18:00 UTC 2017	0.0	1.047281664E9	2841.09130859375	0.0	2.5616384E7	0.0	2.0	1.057640448E9	45.799903869628906	0.0	0.0	1.047150592E9	1.0323968E9	0.0	0.0	0.08275000005960464	0.048500001430511475	0.04349999874830246	0.9922500252723694	0.7915095090866089	0.0	244.0	371.0	0.0	0.0	0.0	0.0	0.0	0.0	null	null	null	null	null	null	null	null	334.0	334.0	336.0	333.0	334.0	338.0	336.0	337.0	335.0	332.0	334.0	
Tue Jun 06 14:17:00 UTC 2017	0.0	1.047281664E9	2634.329345703125	0.0	2.5616384E7	0.0	4.0	1.05742336E9	45.799903869628906	0.0	0.0	1.047150592E9	1.031368704E9	0.0	0.0	0.07349999994039536	0.05249999836087227	0.05025000125169754	0.9922500252723694	0.7914913892745972	0.0	244.0	371.0	0.0	0.0	0.0	0.0	0.0	0.0	null	null	null	null	null	null	null	null	335.0	341.0	336.0	336.0	336.0	336.0	333.0	333.0	336.0	338.0	339.0	
Tue Jun 06 14:16:00 UTC 2017	0.0	1.047281664E9	2831.300537109375	0.0	2.5616384E7	0.0	3.0	1.05742336E9	63.50311279296875	0.0	0.0	1.047150592E9	1.031368704E9	0.0	0.0	0.07524999976158142	0.05700000002980232	0.04475000128149986	0.9919999837875366	0.7914928793907166	0.0	244.0	371.0	0.0	0.0	0.0	0.0	0.0	0.0	null	null	null	null	null	null	null	null	338.0	335.0	334.0	338.0	335.0	334.0	335.0	337.0	336.0	335.0	335.0	
Tue Jun 06 14:15:00 UTC 2017	0.0	1.047281664E9	2831.300537109375	0.0	2.5616384E7	0.0	2.0	1.057513472E9	63.50311279296875	0.0	0.0	1.047150592E9	1.031368704E9	0.0	0.0	0.07199999690055847	0.05299999937415123	0.045249998569488525	0.9919999837875366	0.7914772033691406	0.0	244.0	371.0	0.0	0.0	0.0	0.0	0.0	0.0	null	null	null	null	null	null	null	null	334.0	334.0	335.0	332.0	333.0	335.0	335.0	336.0	333.0	334.0	336.0	
Tue Jun 06 14:14:00 UTC 2017	0.0	1.047281664E9	2667.04248046875	0.0	2.5616384E7	0.0	2.0	1.05742336E9	54.86410903930664	0.0	0.0	1.047150592E9	1.0323968E9	0.0	0.0	0.07850000262260437	0.05225000157952309	0.04899999871850014	0.9922500252723694	0.7926132678985596	0.0	244.0	371.0	0.0	0.0	0.0	0.0	0.0	0.0	null	null	null	null	null	null	null	null	334.0	335.0	334.0	339.0	337.0	335.0	336.0	334.0	336.0	335.0	334.0	
Tue Jun 06 14:13:00 UTC 2017	0.0	1.047281664E9	2667.04248046875	0.0	2.5616384E7	0.0	3.0	1.05742336E9	45.794578552246094	0.0	0.0	1.047150592E9	1.0323968E9	0.0	0.0	0.07850000262260437	0.04924999922513962	0.05000000074505806	0.9922500252723694	0.7917252779006958	0.0	244.0	371.0	0.0	0.0	0.0	0.0	0.0	0.0	null	null	null	null	null	null	null	null	338.0	335.0	335.0	336.0	332.0	336.0	334.0	336.0	339.0	335.0	337.0	
Tue Jun 06 14:12:00 UTC 2017	0.0	1.047281664E9	2675.8359375	0.0	2.5628672E7	0.0	2.0	1.057677312E9	55.73336410522461	0.0	0.0	1.047150592E9	1.031368704E9	0.0	0.0	0.07800000160932541	0.05400000140070915	0.045249998569488525	0.9919999837875366	0.791440486907959	0.0	244.0	371.0	0.0	0.0	0.0	0.0	0.0	0.0	null	null	null	null	null	null	null	null	334.0	339.0	335.0	336.0	338.0	333.0	337.0	337.0	336.0	335.0	333.0	
Tue Jun 06 14:11:00 UTC 2017	0.0	1.047281664E9	2477.051513671875	0.0	2.5628672E7	0.0	4.0	1.058029568E9	82.26387786865234	0.0	0.0	1.047150592E9	1.031368704E9	0.0	0.0	0.09799999743700027	0.04699999839067459	0.04975000023841858	0.9922500252723694	0.7914248704910278	0.0	244.0	371.0	0.0	0.0	0.0	0.0	0.0	0.0	null	null	null	null	null	null	null	null	338.0	334.0	337.0	333.0	333.0	338.0	335.0	336.0	337.0	337.0	341.0	
Tue Jun 06 14:10:00 UTC 2017	0.0	1.047281664E9	2477.051513671875	0.0	2.5628672E7	0.0	2.0	1.058025472E9	82.26387786865234	0.0	0.0	1.047150592E9	1.031368704E9	0.0	0.0	0.07850000262260437	0.057750001549720764	0.04675000160932541	0.9917500019073486	0.791443943977356	0.0	244.0	371.0	0.0	0.0	0.0	0.0	0.0	0.0	null	null	null	null	null	null	null	null	336.0	335.0	334.0	338.0	332.0	334.0	337.0	336.0	332.0	336.0	331.0	
Tue Jun 06 14:09:00 UTC 2017	0.0	1.047281664E9	2477.051513671875	0.0	2.5628672E7	0.0	2.0	1.057722368E9	41.10437774658203	0.0	0.0	1.047150592E9	1.0323968E9	0.0	0.0	0.07874999940395355	0.04749999940395355	0.04699999839067459	0.9922500252723694	0.7914238572120667	0.0	244.0	371.0	0.0	0.0	0.0	0.0	0.0	0.0	null	null	null	null	null	null	null	null	332.0	339.0	336.0	332.0	339.0	340.0	332.0	333.0	339.0	335.0	335.0	
Tue Jun 06 14:08:00 UTC 2017	0.0	1.047281664E9	2978.18017578125	0.0	2.5628672E7	0.0	4.0	1.057722368E9	37.031272888183594	0.0	0.0	1.047150592E9	1.0323968E9	0.0	0.0	0.07349999994039536	0.05375000089406967	0.04600000008940697	0.9925000071525574	0.7936740517616272	0.0	244.0	371.0	0.0	0.0	0.0	0.0	0.0	0.0	null	null	null	null	null	null	null	null	336.0	337.0	332.0	336.0	337.0	333.0	335.0	336.0	335.0	331.0	339.0	
Tue Jun 06 14:07:00 UTC 2017	0.0	1.047281664E9	2570.80078125	0.0	2.5628672E7	0.0	2.0	1.057972224E9	42.944034576416016	0.0	0.0	1.047150592E9	1.031368704E9	0.0	0.0	0.08250000327825546	0.05674999952316284	0.04675000160932541	0.9922500252723694	0.7913098931312561	0.0	244.0	371.0	0.0	0.0	0.0	0.0	0.0	0.0	null	null	null	null	null	null	null	null	337.0	334.0	337.0	333.0	333.0	338.0	339.0	337.0	335.0	333.0	334.0	
Tue Jun 06 14:06:00 UTC 2017	0.0	1.047281664E9	2420.68212890625	0.0	2.5628672E7	0.0	2.0	1.057513472E9	42.944034576416016	0.0	0.0	1.047150592E9	1.031368704E9	0.0	0.0	0.0702499970793724	0.04675000160932541	0.04450000077486038	0.9922500252723694	0.7931666374206543	0.0	244.0	371.0	0.0	0.0	0.0	0.0	0.0	0.0	null	null	null	null	null	null	null	null	338.0	341.0	335.0	335.0	336.0	333.0	336.0	336.0	336.0	334.0	339.0	
Tue Jun 06 14:05:00 UTC 2017	0.0	1.047281664E9	2648.95361328125	0.0	2.5628672E7	0.0	3.0	1.057603584E9	42.685489654541016	0.0	0.0	1.047150592E9	1.031368704E9	0.0	0.0	0.07225000113248825	0.05649999901652336	0.04749999940395355	0.9922500252723694	0.7912115454673767	0.0	244.0	371.0	0.0	0.0	0.0	0.0	0.0	0.0	null	null	null	null	null	null	null	null	337.0	333.0	333.0	336.0	334.0	336.0	334.0	339.0	334.0	337.0	335.0	
Tue Jun 06 14:04:00 UTC 2017	0.0	1.047281664E9	2648.95361328125	0.0	2.5628672E7	0.0	2.0	1.057513472E9	49.800601959228516	0.0	0.0	1.047150592E9	1.0323968E9	0.0	0.0	0.08924999833106995	0.05400000140070915	0.04500000178813934	0.9919999837875366	0.7911894917488098	0.0	244.0	371.0	0.0	0.0	0.0	0.0	0.0	0.0	null	null	null	null	null	null	null	null	334.0	332.0	334.0	337.0	339.0	339.0	331.0	334.0	336.0	335.0	333.0	
Tue Jun 06 14:03:00 UTC 2017	0.0	1.047281664E9	3205.4970703125	0.0	2.5628672E7	0.0	3.0	1.057513472E9	43.83436965942383	0.0	0.0	1.047150592E9	1.0323968E9	0.0	0.0	0.06825000047683716	0.04924999922513962	0.04774999991059303	0.9919999837875366	0.7918363213539124	0.0	244.0	371.0	0.0	0.0	0.0	0.0	0.0	0.0	null	null	null	null	null	null	null	null	336.0	336.0	335.0	333.0	332.0	341.0	336.0	337.0	333.0	333.0	337.0	
Tue Jun 06 14:02:00 UTC 2017	0.0	1.047281664E9	3205.4970703125	0.0	2.5628672E7	0.0	2.0	1.05730048E9	64.9233169555664	0.0	0.0	1.047150592E9	1.031368704E9	0.0	0.0	0.07900000363588333	0.052000001072883606	0.04574999958276749	0.9922500252723694	0.7934249639511108	0.0	244.0	371.0	0.0	0.0	0.0	0.0	0.0	0.0	null	null	null	null	null	null	null	null	332.0	339.0	334.0	334.0	338.0	335.0	333.0	336.0	335.0	337.0	332.0	
Tue Jun 06 14:01:00 UTC 2017	0.0	1.047281664E9	2601.91357421875	0.0	2.5628672E7	0.0	2.0	1.05730048E9	64.9233169555664	0.0	0.0	1.047150592E9	1.031368704E9	0.0	0.0	0.09974999725818634	0.050999999046325684	0.04800000041723251	0.9922500252723694	0.7910735607147217	0.0	244.0	371.0	0.0	0.0	0.0	0.0	0.0	0.0	null	null	null	null	null	null	null	null	334.0	331.0	337.0	337.0	336.0	336.0	335.0	334.0	337.0	333.0	335.0	
Tue Jun 06 14:00:00 UTC 2017	0.0	1.047281664E9	2601.91357421875	0.0	2.5628672E7	0.0	2.0	1.057390592E9	64.9233169555664	0.0	0.0	1.047150592E9	1.0323968E9	0.0	0.0	0.07724999636411667	0.05400000140070915	0.04924999922513962	0.9922500252723694	0.7910711169242859	0.0	244.0	371.0	0.0	0.0	0.0	0.0	0.0	0.0	null	null	null	null	null	null	null	null	339.0	335.0	336.0	336.0	334.0	335.0	337.0	331.0	338.0	334.0	335.0	
Tue Jun 06 13:59:00 UTC 2017	0.0	1.047281664E9	2601.91357421875	0.0	2.5628672E7	0.0	2.0	1.05730048E9	62.44508743286133	0.0	0.0	1.047150592E9	1.0323968E9	0.0	null	0.08049999922513962	0.05575000122189522	0.04450000077486038	0.9919999837875366	0.7910578846931458	0.0	244.0	371.0	0.0	0.0	0.0	0.0	0.0	0.0	null	null	null	null	null	null	null	null	335.0	336.0	336.0	334.0	337.0	337.0	336.0	336.0	333.0	336.0	335.0	
Tue Jun 06 13:58:00 UTC 2017	0.0	1.047281664E9	2601.91357421875	0.0	2.5628672E7	0.0	2.0	1.05730048E9	34.674869537353516	0.0	0.0	1.047150592E9	1.031368704E9	0.0	0.0	0.07724999636411667	0.04625000059604645	0.042249999940395355	0.9919999837875366	0.791039764881134	0.0	244.0	371.0	0.0	0.0	0.0	0.0	0.0	0.0	null	null	null	null	null	null	null	null	336.0	336.0	335.0	336.0	336.0	336.0	336.0	334.0	335.0	338.0	335.0	
Tue Jun 06 13:57:00 UTC 2017	0.0	1.047281664E9	2601.91357421875	0.0	2.5628672E7	0.0	3.0	1.057087488E9	34.674869537353516	0.0	0.0	1.047150592E9	1.0323968E9	0.0	0.0	0.07800000160932541	0.05849999934434891	0.04774999991059303	0.9919999837875366	0.7910192608833313	0.0	244.0	371.0	0.0	0.0	0.0	0.0	0.0	0.0	null	null	null	null	null	null	null	null	332.0	337.0	333.0	337.0	336.0	337.0	332.0	336.0	336.0	336.0	337.0	
Tue Jun 06 13:56:00 UTC 2017	0.0	1.047281664E9	3123.553955078125	0.0	2.5628672E7	0.0	2.0	1.057087488E9	34.674869537353516	0.0	0.0	1.047150592E9	1.031368704E9	0.0	0.0	0.07800000160932541	0.0507499985396862	0.05050000175833702	0.9922500252723694	0.7910182476043701	0.0	244.0	371.0	0.0	0.0	0.0	0.0	0.0	0.0	null	null	null	null	null	null	null	null	337.0	333.0	336.0	338.0	334.0	334.0	335.0	333.0	336.0	335.0	332.0	
Tue Jun 06 13:55:00 UTC 2017	0.0	1.047281664E9	3123.553955078125	0.0	2.5628672E7	0.0	2.0	1.0571776E9	43.40481948852539	0.0	0.0	1.047150592E9	1.0323968E9	0.0	0.0	0.08150000125169754	0.054249998182058334	0.04450000077486038	0.9919999837875366	0.7910749912261963	0.0	244.0	371.0	0.0	0.0	0.0	0.0	0.0	0.0	null	null	null	null	null	null	null	null	329.0	336.0	331.0	332.0	337.0	337.0	338.0	337.0	335.0	332.0	334.0	
Tue Jun 06 13:54:00 UTC 2017	0.0	1.047281664E9	2453.399169921875	0.0	2.5628672E7	0.0	2.0	1.057087488E9	43.40481948852539	0.0	0.0	1.047150592E9	1.0323968E9	0.0	0.0	0.07800000160932541	0.05000000074505806	0.045499999076128006	0.9922500252723694	0.790992796421051	0.0	244.0	371.0	0.0	0.0	0.0	0.0	0.0	0.0	null	null	null	null	null	null	null	null	336.0	336.0	334.0	336.0	335.0	336.0	338.0	335.0	339.0	336.0	337.0	
Tue Jun 06 13:53:00 UTC 2017	0.0	1.047281664E9	2453.399169921875	0.0	2.5628672E7	0.0	3.0	1.057087488E9	43.40481948852539	0.0	0.0	1.047150592E9	1.0323968E9	0.0	0.0	0.07750000059604645	0.05375000089406967	0.0442500002682209	0.9922500252723694	0.7909967303276062	0.0	244.0	371.0	0.0	0.0	0.0	0.0	0.0	0.0	null	null	null	null	null	null	null	null	335.0	334.0	335.0	335.0	336.0	333.0	337.0	335.0	333.0	332.0	336.0	
Tue Jun 06 13:52:00 UTC 2017	0.0	1.047281664E9	2453.399169921875	0.0	2.5628672E7	0.0	3.0	1.056878592E9	43.40481948852539	0.0	0.0	1.047150592E9	1.031368704E9	0.0	0.0	0.08799999952316284	0.05050000175833702	0.04699999839067459	0.9919999837875366	0.7910392880439758	0.0	244.0	371.0	0.0	0.0	0.0	0.0	0.0	0.0	null	null	null	null	null	null	null	null	337.0	335.0	334.0	338.0	335.0	334.0	332.0	336.0	339.0	333.0	333.0	
Tue Jun 06 13:51:00 UTC 2017	0.0	1.047281664E9	2748.928955078125	0.0	2.5628672E7	0.0	3.0	1.056878592E9	43.40481948852539	0.0	0.0	1.047150592E9	1.0323968E9	0.0	0.0	0.10649999976158142	0.0572500005364418	0.05225000157952309	0.9922500252723694	0.7910177707672119	0.0	244.0	371.0	0.0	0.0	0.0	0.0	0.0	0.0	null	null	null	null	null	null	null	null	335.0	336.0	332.0	337.0	335.0	336.0	338.0	335.0	334.0	336.0	336.0	
Tue Jun 06 13:50:00 UTC 2017	0.0	1.047281664E9	2748.928955078125	0.0	2.5628672E7	0.0	2.0	1.0569728E9	53.77472686767578	0.0	0.0	1.047150592E9	1.031368704E9	0.0	0.0	0.07100000232458115	0.051249999552965164	0.04399999976158142	0.9922500252723694	0.7910153269767761	0.0	244.0	371.0	0.0	0.0	0.0	0.0	0.0	0.0	null	null	null	null	null	null	null	null	335.0	336.0	336.0	336.0	337.0	334.0	335.0	331.0	334.0	333.0	335.0	
Tue Jun 06 13:49:00 UTC 2017	0.0	1.047281664E9	2920.02783203125	0.0	2.5628672E7	0.0	2.0	1.056882688E9	43.50775909423828	0.0	0.0	1.047150592E9	1.0323968E9	0.0	0.0	0.08150000125169754	0.054999999701976776	0.04399999976158142	0.9922500252723694	0.7910613417625427	0.0	244.0	371.0	0.0	0.0	0.0	0.0	0.0	0.0	null	null	null	null	null	null	null	null	333.0	336.0	335.0	332.0	335.0	336.0	336.0	335.0	336.0	337.0	336.0	
Tue Jun 06 13:48:00 UTC 2017	0.0	1.047281664E9	2920.02783203125	0.0	2.5628672E7	0.0	3.0	1.056882688E9	43.50775909423828	0.0	0.0	1.047150592E9	1.0323968E9	0.0	0.0	0.08275000005960464	0.04749999940395355	0.04625000059604645	0.9922500252723694	0.7933266162872314	0.0	244.0	371.0	0.0	0.0	0.0	0.0	0.0	0.0	null	null	null	null	null	null	null	null	337.0	335.0	335.0	338.0	337.0	337.0	334.0	334.0	335.0	336.0	333.0	
Tue Jun 06 13:47:00 UTC 2017	0.0	1.047281664E9	2479.8740234375	0.0	2.5628672E7	0.0	3.0	1.056669696E9	43.50775909423828	0.0	0.0	1.047150592E9	1.031368704E9	0.0	0.0	0.07774999737739563	0.04924999922513962	0.04975000023841858	0.9922500252723694	0.7910466194152832	0.0	244.0	371.0	0.0	0.0	0.0	0.0	0.0	0.0	null	null	null	null	null	null	null	null	338.0	336.0	337.0	335.0	337.0	338.0	333.0	339.0	335.0	334.0	336.0	
Tue Jun 06 13:46:00 UTC 2017	0.0	1.047281664E9	2556.37646484375	0.0	2.5628672E7	0.0	2.0	1.056669696E9	41.18416213989258	0.0	0.0	1.047150592E9	1.031368704E9	0.0	0.0	0.0860000029206276	0.05674999952316284	0.045249998569488525	0.9919999837875366	0.7910304665565491	0.0	244.0	371.0	0.0	0.0	0.0	0.0	0.0	0.0	null	null	null	null	null	null	null	null	335.0	332.0	336.0	336.0	336.0	332.0	338.0	335.0	335.0	337.0	337.0	
Tue Jun 06 13:45:00 UTC 2017	0.0	1.047281664E9	2891.24560546875	0.0	2.5628672E7	0.0	2.0	1.056759808E9	41.18416213989258	0.0	0.0	1.047150592E9	1.0323968E9	0.0	0.0	0.0832500010728836	0.05025000125169754	0.04924999922513962	0.9922500252723694	0.7922634482383728	0.0	244.0	371.0	0.0	0.0	0.0	0.0	0.0	0.0	null	null	null	null	null	null	null	null	334.0	336.0	332.0	334.0	336.0	340.0	332.0	333.0	332.0	333.0	333.0	
Tue Jun 06 13:44:00 UTC 2017	0.0	1.047281664E9	3015.397216796875	0.0	2.5628672E7	0.0	2.0	1.056669696E9	53.810768127441406	0.0	0.0	1.047150592E9	1.0323968E9	0.0	0.0	0.07575000077486038	0.05274999886751175	0.04349999874830246	0.9922500252723694	0.7910168170928955	0.0	244.0	371.0	0.0	0.0	0.0	0.0	0.0	0.0	null	null	null	null	null	null	null	null	335.0	336.0	337.0	335.0	334.0	334.0	333.0	334.0	339.0	339.0	335.0	
Tue Jun 06 13:43:00 UTC 2017	0.0	1.047281664E9	3015.397216796875	0.0	2.5628672E7	0.0	2.0	1.056669696E9	50.50069808959961	0.0	0.0	1.047150592E9	1.031368704E9	0.0	0.0	0.07774999737739563	0.04349999874830246	0.04874999821186066	0.9922500252723694	0.7932826280593872	0.0	244.0	371.0	0.0	0.0	0.0	0.0	0.0	0.0	null	null	null	null	null	null	null	null	336.0	334.0	334.0	335.0	338.0	340.0	337.0	337.0	334.0	337.0	336.0	
Tue Jun 06 13:42:00 UTC 2017	0.0	1.047281664E9	2843.7998046875	0.0	2.5628672E7	0.0	3.0	1.056915456E9	50.50069808959961	0.0	0.0	1.047150592E9	1.031368704E9	0.0	0.0	0.07975000143051147	0.05274999886751175	0.04149999842047691	0.9922500252723694	0.7909791469573975	0.0	244.0	371.0	0.0	0.0	0.0	0.0	0.0	0.0	null	null	null	null	null	null	null	null	336.0	336.0	338.0	336.0	336.0	336.0	332.0	333.0	335.0	335.0	335.0	
Tue Jun 06 13:41:00 UTC 2017	0.0	1.047281664E9	2843.7998046875	0.0	2.5628672E7	0.0	9.0	1.056546816E9	50.50069808959961	0.0	0.0	1.047150592E9	1.031368704E9	0.0	null	0.11774999648332596	0.05299999937415123	0.05299999937415123	0.9919999837875366	0.7910505533218384	0.0	244.0	371.0	0.0	0.0	0.0	0.0	0.0	0.0	null	null	null	null	null	null	null	null	338.0	333.0	335.0	331.0	335.0	335.0	336.0	337.0	331.0	336.0	339.0	
Tue Jun 06 13:40:00 UTC 2017	0.0	1.047281664E9	2552.859619140625	0.0	2.5628672E7	0.0	2.0	1.056546816E9	50.50069808959961	0.0	0.0	1.047150592E9	1.0323968E9	0.0	null	0.07800000160932541	0.057500001043081284	0.04374999925494194	0.9922500252723694	0.7932488322257996	0.0	244.0	371.0	0.0	0.0	0.0	0.0	0.0	0.0	null	null	null	null	null	null	null	null	336.0	337.0	335.0	337.0	336.0	335.0	331.0	333.0	338.0	334.0	334.0	
Tue Jun 06 13:39:00 UTC 2017	0.0	1.047281664E9	2809.65283203125	0.0	2.5628672E7	0.0	2.0	1.056456704E9	50.50069808959961	0.0	0.0	1.047150592E9	1.031368704E9	0.0	0.0	0.07150000333786011	0.05025000125169754	0.04899999871850014	0.9922500252723694	0.7932297587394714	0.0	244.0	371.0	0.0	0.0	0.0	0.0	0.0	0.0	null	null	null	null	null	null	null	null	336.0	334.0	334.0	338.0	335.0	336.0	334.0	338.0	333.0	337.0	337.0	
Tue Jun 06 13:38:00 UTC 2017	0.0	1.047281664E9	3178.263671875	0.0	2.5628672E7	0.0	2.0	1.056456704E9	51.36250686645508	0.0	0.0	1.047150592E9	1.0323968E9	0.0	null	0.07199999690055847	0.051500000059604645	0.045499999076128006	0.9922500252723694	0.7909032702445984	0.0	244.0	371.0	0.0	0.0	0.0	0.0	0.0	0.0	null	null	null	null	null	null	null	null	333.0	335.0	334.0	335.0	336.0	337.0	337.0	333.0	334.0	335.0	341.0	
Tue Jun 06 13:37:00 UTC 2017	0.0	1.047281664E9	2746.939208984375	0.0	2.5628672E7	0.0	2.0	1.056243712E9	51.36250686645508	0.0	0.0	1.047150592E9	1.0323968E9	0.0	null	0.07750000059604645	0.0507499985396862	0.045249998569488525	0.9919999837875366	0.7908127903938293	0.0	244.0	371.0	0.0	0.0	0.0	0.0	0.0	0.0	null	null	null	null	null	null	null	null	335.0	336.0	332.0	336.0	337.0	337.0	331.0	331.0	339.0	337.0	334.0	
Tue Jun 06 13:36:00 UTC 2017	0.0	1.047281664E9	2746.939208984375	0.0	2.5628672E7	0.0	3.0	1.056243712E9	33.456722259521484	0.0	0.0	1.047150592E9	1.031368704E9	0.0	null	0.08550000190734863	0.051500000059604645	0.04975000023841858	0.9919999837875366	0.79139643907547	0.0	244.0	371.0	0.0	0.0	0.0	0.0	0.0	0.0	null	null	null	null	null	null	null	null	337.0	336.0	339.0	339.0	332.0	337.0	334.0	335.0	332.0	336.0	335.0	
Tue Jun 06 13:35:00 UTC 2017	0.0	1.047281664E9	3181.35986328125	0.0	2.5628672E7	0.0	3.0	1.056333824E9	33.456722259521484	0.0	0.0	1.047150592E9	1.0323968E9	0.0	null	0.0767500028014183	0.05249999836087227	0.04600000008940697	0.9919999837875366	0.7930864095687866	0.0	244.0	371.0	0.0	0.0	0.0	0.0	0.0	0.0	null	null	null	null	null	null	null	null	332.0	334.0	335.0	333.0	336.0	334.0	336.0	338.0	334.0	335.0	334.0	
Tue Jun 06 13:34:00 UTC 2017	0.0	1.047281664E9	2491.033935546875	0.0	2.5628672E7	0.0	4.0	1.056243712E9	51.89158248901367	0.0	0.0	1.047150592E9	1.031368704E9	0.0	null	0.06624999642372131	0.051500000059604645	0.048250000923871994	0.9922500252723694	0.7907741069793701	0.0	244.0	371.0	0.0	0.0	0.0	0.0	0.0	0.0	null	null	null	null	null	null	null	null	338.0	338.0	335.0	336.0	336.0	337.0	336.0	333.0	340.0	336.0	334.0	
Tue Jun 06 13:33:00 UTC 2017	0.0	1.047281664E9	3394.465576171875	0.0	2.5628672E7	0.0	3.0	1.056243712E9	52.31367111206055	0.0	0.0	1.047150592E9	1.0323968E9	0.0	null	0.07599999755620956	0.05649999901652336	0.0442500002682209	0.9922500252723694	0.7907565236091614	0.0	244.0	371.0	0.0	0.0	0.0	0.0	0.0	0.0	null	null	null	null	null	null	null	null	331.0	333.0	335.0	334.0	332.0	334.0	331.0	335.0	330.0	339.0	335.0	
Tue Jun 06 13:32:00 UTC 2017	0.0	1.047281664E9	3394.465576171875	0.0	2.5628672E7	0.0	2.0	1.056034816E9	50.12007522583008	0.0	0.0	1.047150592E9	1.0323968E9	0.0	null	0.08150000125169754	0.04600000008940697	0.050999999046325684	0.9919999837875366	0.793043851852417	0.0	244.0	371.0	0.0	0.0	0.0	0.0	0.0	0.0	null	null	null	null	null	null	null	null	336.0	335.0	337.0	335.0	334.0	333.0	338.0	336.0	336.0	332.0	336.0	
Tue Jun 06 13:31:00 UTC 2017	0.0	1.047281664E9	2510.015869140625	0.0	2.5628672E7	0.0	2.0	1.056124928E9	50.12007522583008	0.0	0.0	1.047150592E9	1.031368704E9	0.0	null	0.10400000214576721	0.05849999934434891	0.04500000178813934	0.9922500252723694	0.7907384037971497	0.0	244.0	371.0	0.0	0.0	0.0	0.0	0.0	0.0	null	null	null	null	null	null	null	null	336.0	337.0	339.0	336.0	336.0	336.0	336.0	333.0	336.0	336.0	333.0	
Tue Jun 06 13:30:00 UTC 2017	0.0	1.047281664E9	2510.015869140625	0.0	2.5628672E7	0.0	2.0	1.056124928E9	50.12007522583008	0.0	0.0	1.047150592E9	1.0323968E9	0.0	null	0.07625000178813934	0.04699999839067459	0.04125000163912773	0.9922500252723694	0.7907056212425232	0.0	244.0	371.0	0.0	0.0	0.0	0.0	0.0	0.0	null	null	null	null	null	null	null	null	335.0	332.0	331.0	336.0	334.0	337.0	333.0	337.0	337.0	336.0	338.0	
Tue Jun 06 13:29:00 UTC 2017	0.0	1.047281664E9	2510.015869140625	0.0	2.5628672E7	0.0	2.0	1.056034816E9	51.061363220214844	0.0	0.0	1.047150592E9	1.031368704E9	0.0	null	0.06750000268220901	0.0560000017285347	0.0507499985396862	0.9919999837875366	0.7907071113586426	0.0	244.0	371.0	0.0	0.0	0.0	0.0	0.0	0.0	null	null	null	null	null	null	null	null	336.0	338.0	335.0	337.0	335.0	335.0	337.0	333.0	332.0	336.0	334.0	
Tue Jun 06 13:28:00 UTC 2017	0.0	1.047281664E9	2741.4326171875	0.0	2.5628672E7	0.0	3.0	1.056034816E9	51.603981018066406	0.0	0.0	1.047150592E9	1.0323968E9	0.0	null	0.07925000041723251	0.054999999701976776	0.042750000953674316	0.9925000071525574	0.7906982898712158	0.0	244.0	371.0	0.0	0.0	0.0	0.0	0.0	0.0	null	null	null	null	null	null	null	null	330.0	332.0	335.0	335.0	337.0	336.0	336.0	335.0	334.0	336.0	336.0	
Tue Jun 06 13:27:00 UTC 2017	0.0	1.047281664E9	2884.04443359375	0.0	2.5628672E7	0.0	2.0	1.055817728E9	62.06948471069336	0.0	0.0	1.047150592E9	1.031368704E9	0.0	null	0.0820000022649765	0.04899999871850014	0.045499999076128006	0.9922500252723694	0.7907178401947021	0.0	244.0	371.0	0.0	0.0	0.0	0.0	0.0	0.0	null	null	null	null	null	null	null	null	338.0	337.0	336.0	335.0	338.0	335.0	335.0	336.0	336.0	336.0	337.0	
Tue Jun 06 13:26:00 UTC 2017	0.0	1.047281664E9	2541.641357421875	0.0	2.5628672E7	0.0	3.0	1.055817728E9	36.85023880004883	0.0	0.0	1.047150592E9	1.031368704E9	0.0	null	0.07249999791383743	0.057750001549720764	0.0494999997317791	0.9925000071525574	0.790717363357544	0.0	244.0	371.0	0.0	0.0	0.0	0.0	0.0	0.0	null	null	null	null	null	null	null	null	334.0	333.0	334.0	337.0	330.0	333.0	336.0	340.0	335.0	335.0	336.0	
Tue Jun 06 13:25:00 UTC 2017	0.0	1.047281664E9	2541.641357421875	0.0	2.5628672E7	0.0	4.0	1.05590784E9	36.85023880004883	0.0	0.0	1.047150592E9	1.0323968E9	0.0	0.0	0.07374999672174454	0.05324999988079071	0.04800000041723251	0.9922500252723694	0.7906997203826904	0.0	244.0	371.0	0.0	0.0	0.0	0.0	0.0	0.0	null	null	null	null	null	null	null	null	336.0	340.0	336.0	332.0	333.0	335.0	335.0	335.0	336.0	336.0	333.0	
Tue Jun 06 13:24:00 UTC 2017	0.0	1.047281664E9	2940.7392578125	0.0	2.5628672E7	0.0	4.0	1.055817728E9	36.85023880004883	0.0	0.0	1.047150592E9	1.031368704E9	0.0	0.0	0.06975000351667404	0.04975000023841858	0.04024999961256981	0.9922500252723694	0.7906953692436218	0.0	244.0	371.0	0.0	0.0	0.0	0.0	0.0	0.0	null	null	null	null	null	null	null	null	338.0	333.0	335.0	338.0	333.0	336.0	335.0	336.0	337.0	337.0	336.0	
Tue Jun 06 13:23:00 UTC 2017	0.0	1.047281664E9	2726.363037109375	0.0	2.5628672E7	0.0	2.0	1.055817728E9	36.85023880004883	0.0	1.0	1.047150592E9	1.0323968E9	0.0	0.0	0.08174999803304672	0.057500001043081284	0.05000000074505806	0.9922500252723694	0.7906801700592041	0.0	244.0	371.0	0.0	0.0	0.0	0.0	0.0	0.0	null	null	null	null	null	null	null	null	335.0	335.0	335.0	333.0	336.0	335.0	338.0	338.0	335.0	334.0	337.0	
Tue Jun 06 13:22:00 UTC 2017	0.0	1.047281664E9	2726.363037109375	0.0	2.5628672E7	0.0	2.0	1.055604736E9	36.85023880004883	1.0	1.0	1.047150592E9	1.0323968E9	0.0	0.0	0.07774999737739563	0.05050000175833702	0.04450000077486038	0.9922500252723694	0.790661096572876	0.0	244.0	371.0	0.0	0.0	0.0	0.0	0.0	0.0	null	null	null	null	null	null	null	null	336.0	334.0	336.0	338.0	337.0	336.0	332.0	335.0	334.0	337.0	335.0	
Tue Jun 06 13:21:00 UTC 2017	0.0	1.047281664E9	2726.363037109375	0.0	2.5628672E7	0.0	2.0	1.055604736E9	73.66635131835938	2.0	1.0	1.047150592E9	1.0323968E9	0.0	0.0	0.09000000357627869	0.060750000178813934	0.04874999821186066	0.9922500252723694	0.7906371355056763	0.0	244.0	371.0	0.0	0.0	0.0	0.0	0.0	0.0	null	null	null	null	null	null	null	null	333.0	338.0	336.0	334.0	338.0	335.0	336.0	333.0	333.0	335.0	336.0	
Tue Jun 06 13:20:00 UTC 2017	0.0	1.047281664E9	2726.363037109375	0.0	2.5628672E7	0.0	2.0	1.055694848E9	50.550872802734375	1.0	1.0	1.047150592E9	1.0323968E9	0.0	0.0	0.08375000208616257	0.05674999952316284	0.04349999874830246	0.9919999837875366	0.7928647398948669	0.0	244.0	371.0	0.0	0.0	0.0	0.0	0.0	0.0	null	null	null	null	null	null	null	null	337.0	333.0	335.0	333.0	336.0	331.0	338.0	337.0	333.0	335.0	334.0	
Tue Jun 06 13:19:00 UTC 2017	0.0	1.047281664E9	2726.363037109375	0.0	2.5628672E7	0.0	2.0	1.055604736E9	50.550872802734375	1.0	1.0	1.047150592E9	1.0323968E9	0.0	0.0	0.07199999690055847	0.06174999848008156	0.04675000160932541	0.9922500252723694	0.7905617952346802	0.0	244.0	371.0	0.0	0.0	0.0	0.0	0.0	0.0	null	null	null	null	null	null	null	null	336.0	335.0	336.0	338.0	335.0	336.0	332.0	336.0	333.0	333.0	333.0	
Tue Jun 06 13:18:00 UTC 2017	0.0	1.047281664E9	2493.21435546875	0.0	2.5628672E7	0.0	5.0	1.055604736E9	52.58088302612305	0.0	0.0	1.047150592E9	1.031368704E9	0.0	0.0	0.08250000327825546	0.05525000020861626	0.04500000178813934	0.9919999837875366	0.7904648780822754	0.0	244.0	371.0	0.0	0.0	0.0	0.0	0.0	0.0	null	null	null	null	null	null	null	null	336.0	334.0	338.0	337.0	338.0	335.0	338.0	338.0	333.0	338.0	337.0	
Tue Jun 06 13:17:00 UTC 2017	0.0	1.047281664E9	2493.21435546875	0.0	2.5628672E7	0.0	2.0	1.05539584E9	52.58088302612305	0.0	0.0	1.047150592E9	1.0323968E9	0.0	0.0	0.0754999965429306	0.05225000157952309	0.048250000923871994	0.9922500252723694	0.7905275225639343	0.0	244.0	371.0	0.0	0.0	0.0	0.0	0.0	0.0	null	null	null	null	null	null	null	null	338.0	338.0	334.0	336.0	335.0	333.0	333.0	337.0	335.0	336.0	333.0	
Tue Jun 06 13:16:00 UTC 2017	0.0	1.047281664E9	2493.21435546875	0.0	2.5628672E7	0.0	2.0	1.055485952E9	52.58088302612305	0.0	0.0	1.047150592E9	1.0323968E9	0.0	0.0	0.06975000351667404	0.09300000220537186	0.04500000178813934	0.9917500019073486	0.792887270450592	0.0	244.0	371.0	0.0	0.0	0.0	0.0	0.0	0.0	null	null	null	null	null	null	null	null	332.0	335.0	336.0	335.0	334.0	337.0	337.0	337.0	333.0	331.0	334.0	
Tue Jun 06 13:15:00 UTC 2017	0.0	1.047281664E9	2658.068603515625	0.0	2.5628672E7	0.0	2.0	1.055485952E9	52.58088302612305	0.0	0.0	1.047150592E9	1.0323968E9	0.0	0.0	0.07349999994039536	0.050999999046325684	0.04774999991059303	0.9917500019073486	0.7904619574546814	0.0	244.0	371.0	0.0	0.0	0.0	0.0	0.0	0.0	null	null	null	null	null	null	null	null	334.0	336.0	336.0	333.0	338.0	332.0	334.0	333.0	336.0	335.0	335.0	
Tue Jun 06 13:14:00 UTC 2017	0.0	1.047281664E9	2658.068603515625	0.0	2.5628672E7	0.0	2.0	1.05539584E9	80.45758819580078	0.0	0.0	1.047150592E9	1.0323968E9	0.0	null	0.08124999701976776	0.054249998182058334	0.04874999821186066	0.9922500252723694	0.79266756772995	0.0	244.0	371.0	0.0	0.0	0.0	0.0	0.0	0.0	null	null	null	null	null	null	null	null	339.0	338.0	337.0	336.0	333.0	337.0	336.0	338.0	329.0	337.0	334.0	
Tue Jun 06 13:13:00 UTC 2017	0.0	1.047281664E9	2658.068603515625	0.0	2.5628672E7	0.0	3.0	1.05539584E9	80.45758819580078	0.0	0.0	1.047150592E9	1.0323968E9	0.0	null	0.06975000351667404	0.05350000038743019	0.04475000128149986	0.9922500252723694	0.7903684973716736	0.0	244.0	371.0	0.0	0.0	0.0	0.0	0.0	0.0	null	null	null	null	null	null	null	null	337.0	336.0	337.0	334.0	336.0	335.0	340.0	334.0	337.0	335.0	337.0	
Tue Jun 06 13:12:00 UTC 2017	0.0	1.047281664E9	2658.068603515625	0.0	2.5628672E7	0.0	2.0	1.055182848E9	51.761436462402344	0.0	0.0	1.047150592E9	1.0323968E9	0.0	null	0.08100000023841858	0.04475000128149986	0.048500001430511475	0.9917500019073486	0.790348470211029	0.0	244.0	371.0	0.0	0.0	0.0	0.0	0.0	0.0	null	null	null	null	null	null	null	null	338.0	332.0	337.0	340.0	336.0	335.0	333.0	338.0	330.0	335.0	333.0	
Tue Jun 06 13:11:00 UTC 2017	0.0	1.047281664E9	2658.068603515625	0.0	2.5628672E7	0.0	2.0	1.055182848E9	40.86980056762695	0.0	0.0	1.047150592E9	1.0323968E9	0.0	null	0.1042499989271164	0.0560000017285347	0.04349999874830246	0.9919999837875366	0.7903454899787903	0.0	244.0	371.0	0.0	0.0	0.0	0.0	0.0	0.0	null	null	null	null	null	null	null	null	336.0	339.0	336.0	335.0	335.0	334.0	338.0	334.0	338.0	336.0	333.0	
Tue Jun 06 13:10:00 UTC 2017	0.0	1.047281664E9	2658.068603515625	0.0	2.5628672E7	0.0	4.0	1.055535104E9	40.86980056762695	0.0	0.0	1.047150592E9	1.031368704E9	0.0	0.0	0.0742499977350235	0.04774999991059303	0.04574999958276749	0.9917500019073486	0.7904335856437683	0.0	244.0	371.0	0.0	0.0	0.0	0.0	0.0	0.0	null	null	null	null	null	null	null	null	332.0	334.0	332.0	335.0	340.0	334.0	332.0	336.0	333.0	334.0	335.0	
Tue Jun 06 13:09:00 UTC 2017	0.0	1.047281664E9	2755.725341796875	0.0	2.5628672E7	0.0	2.0	1.055174656E9	40.86980056762695	0.0	0.0	1.047150592E9	1.0323968E9	0.0	0.0	0.07774999737739563	0.05274999886751175	0.05000000074505806	0.9917500019073486	0.7904164791107178	0.0	244.0	371.0	0.0	0.0	0.0	0.0	0.0	0.0	null	null	null	null	null	null	null	null	341.0	334.0	337.0	335.0	331.0	334.0	338.0	334.0	337.0	334.0	335.0	
Tue Jun 06 13:08:00 UTC 2017	0.0	1.047281664E9	2755.725341796875	0.0	2.5628672E7	0.0	3.0	1.055174656E9	46.02035903930664	0.0	0.0	1.047150592E9	1.031368704E9	0.0	0.0	0.07100000232458115	0.05350000038743019	0.04324999824166298	0.9919999837875366	0.7904159426689148	0.0	244.0	371.0	0.0	0.0	0.0	0.0	0.0	0.0	null	null	null	null	null	null	null	null	335.0	336.0	336.0	336.0	337.0	338.0	331.0	335.0	333.0	335.0	331.0	
Tue Jun 06 13:07:00 UTC 2017	0.0	1.047281664E9	2471.463134765625	0.0	2.5628672E7	0.0	5.0	1.055420416E9	46.02035903930664	0.0	0.0	1.047150592E9	1.031368704E9	0.0	0.0	0.07800000160932541	0.04675000160932541	0.05000000074505806	0.9919999837875366	0.7903968691825867	0.0	244.0	371.0	0.0	0.0	0.0	0.0	0.0	0.0	null	null	null	null	null	null	null	null	336.0	341.0	339.0	333.0	339.0	336.0	336.0	333.0	336.0	340.0	339.0	
Tue Jun 06 13:06:00 UTC 2017	0.0	1.047281664E9	2471.463134765625	0.0	2.5628672E7	0.0	3.0	1.054961664E9	58.13734817504883	0.0	0.0	1.047150592E9	1.0323968E9	0.0	null	0.07575000077486038	0.05575000122189522	0.04625000059604645	0.9919999837875366	0.792646050453186	0.0	244.0	371.0	0.0	0.0	0.0	0.0	0.0	0.0	null	null	null	null	null	null	null	null	332.0	336.0	332.0	340.0	332.0	335.0	337.0	333.0	335.0	331.0	334.0	
Tue Jun 06 13:05:00 UTC 2017	0.0	1.047281664E9	2471.463134765625	0.0	2.5628672E7	0.0	2.0	1.055051776E9	58.13734817504883	0.0	0.0	1.047150592E9	1.0323968E9	0.0	null	0.07100000232458115	0.052000001072883606	0.04874999821186066	0.9922500252723694	0.7919816374778748	0.0	244.0	371.0	0.0	0.0	0.0	0.0	0.0	0.0	null	null	null	null	null	null	null	null	335.0	335.0	336.0	333.0	336.0	334.0	332.0	334.0	332.0	338.0	336.0	
Tue Jun 06 13:04:00 UTC 2017	0.0	1.047281664E9	2471.463134765625	0.0	2.5628672E7	0.0	2.0	1.054961664E9	51.46796417236328	0.0	0.0	1.047150592E9	1.031368704E9	0.0	null	0.07774999737739563	0.05400000140070915	0.04475000128149986	0.9922500252723694	0.7926079034805298	0.0	244.0	371.0	0.0	0.0	0.0	0.0	0.0	0.0	null	null	null	null	null	null	null	null	335.0	335.0	338.0	334.0	334.0	336.0	335.0	339.0	334.0	335.0	334.0	
Tue Jun 06 13:03:00 UTC 2017	0.0	1.047281664E9	2863.07470703125	0.0	2.5628672E7	0.0	2.0	1.054961664E9	46.565895080566406	0.0	0.0	1.047150592E9	1.0323968E9	0.0	null	0.06875000149011612	0.04500000178813934	0.048500001430511475	0.9919999837875366	0.7903494238853455	0.0	244.0	371.0	0.0	0.0	0.0	0.0	0.0	0.0	null	null	null	null	null	null	null	null	336.0	335.0	332.0	337.0	336.0	334.0	336.0	335.0	338.0	334.0	335.0	
Tue Jun 06 13:02:00 UTC 2017	0.0	1.047281664E9	2863.07470703125	0.0	2.5628672E7	0.0	2.0	1.054748672E9	46.565895080566406	0.0	0.0	1.047150592E9	1.031368704E9	0.0	null	0.08250000327825546	0.05874999985098839	0.04500000178813934	0.9919999837875366	0.7902966141700745	0.0	244.0	371.0	0.0	0.0	0.0	0.0	0.0	0.0	null	null	null	null	null	null	null	null	334.0	335.0	338.0	333.0	335.0	336.0	336.0	333.0	332.0	336.0	337.0	
Tue Jun 06 13:01:00 UTC 2017	0.0	1.047281664E9	2863.07470703125	0.0	2.5628672E7	0.0	2.0	1.054748672E9	50.60337448120117	0.0	0.0	1.047150592E9	1.0323968E9	0.0	null	0.09475000202655792	0.048250000923871994	0.04800000041723251	0.9912499785423279	0.7902329564094543	0.0	244.0	371.0	0.0	0.0	0.0	0.0	0.0	0.0	null	null	null	null	null	null	null	null	335.0	337.0	333.0	333.0	334.0	335.0	335.0	334.0	338.0	337.0	339.0	
Tue Jun 06 13:00:00 UTC 2017	0.0	1.047281664E9	2499.605224609375	0.0	2.5628672E7	0.0	2.0	1.054838784E9	47.37889099121094	0.0	0.0	1.047150592E9	1.031368704E9	0.0	null	0.07774999737739563	0.048500001430511475	0.04374999925494194	0.9922500252723694	0.7902329564094543	0.0	244.0	371.0	0.0	0.0	0.0	0.0	0.0	0.0	null	null	null	null	null	null	null	null	335.0	337.0	337.0	337.0	335.0	337.0	332.0	331.0	332.0	336.0	332.0	
Tue Jun 06 12:59:00 UTC 2017	0.0	1.047281664E9	2602.36572265625	0.0	2.5628672E7	0.0	6.0	1.054748672E9	32.74467849731445	0.0	0.0	1.047150592E9	1.0323968E9	0.0	0.0	0.0729999989271164	0.05400000140070915	0.051750000566244125	0.9925000071525574	0.7925266623497009	0.0	244.0	371.0	0.0	0.0	0.0	0.0	0.0	0.0	null	null	null	null	null	null	null	null	336.0	338.0	337.0	335.0	336.0	339.0	333.0	337.0	336.0	339.0	337.0	
Tue Jun 06 12:58:00 UTC 2017	0.0	1.047281664E9	3008.048583984375	0.0	2.5628672E7	0.0	4.0	1.054748672E9	32.74467849731445	0.0	0.0	1.047150592E9	1.031368704E9	0.0	0.0	0.07824999839067459	0.05225000157952309	0.04450000077486038	0.9922500252723694	0.7925183773040771	0.0	244.0	371.0	0.0	0.0	0.0	0.0	0.0	0.0	null	null	null	null	null	null	null	null	336.0	334.0	332.0	336.0	334.0	333.0	339.0	333.0	338.0	336.0	333.0	
Tue Jun 06 12:57:00 UTC 2017	0.0	1.047281664E9	2690.90185546875	0.0	2.5628672E7	0.0	2.0	1.055064064E9	47.740577697753906	2.0	2.0	1.047150592E9	1.031368704E9	0.0	0.0	0.07750000059604645	0.05900000035762787	0.05025000125169754	0.9922500252723694	0.7902975678443909	0.0	244.0	371.0	0.0	0.0	0.0	0.0	0.0	0.0	null	null	null	null	null	null	null	null	334.0	333.0	338.0	336.0	335.0	336.0	333.0	336.0	328.0	334.0	338.0	
Tue Jun 06 12:56:00 UTC 2017	0.0	1.047281664E9	2799.8505859375	0.0	2.5628672E7	0.0	2.0	1.054539776E9	47.740577697753906	1.0	2.0	1.047150592E9	1.0323968E9	0.0	0.0	0.07400000095367432	0.051249999552965164	0.04724999889731407	0.9922500252723694	0.7902305126190186	0.0	244.0	371.0	0.0	0.0	0.0	0.0	0.0	0.0	null	null	null	null	null	null	null	null	336.0	338.0	337.0	336.0	334.0	340.0	334.0	333.0	337.0	336.0	334.0	
Tue Jun 06 12:55:00 UTC 2017	0.0	1.047281664E9	2477.18212890625	0.0	2.5628672E7	0.0	2.0	1.054629888E9	65.75543212890625	0.0	0.0	1.047150592E9	1.0323968E9	0.0	0.0	0.07800000160932541	0.061250001192092896	0.04625000059604645	0.9919999837875366	0.7924655079841614	0.0	244.0	371.0	0.0	0.0	0.0	0.0	0.0	0.0	null	null	null	null	null	null	null	null	334.0	333.0	329.0	334.0	338.0	333.0	336.0	338.0	336.0	336.0	335.0	
Tue Jun 06 12:54:00 UTC 2017	0.0	1.047281664E9	3046.730712890625	0.0	2.5628672E7	0.0	2.0	1.054539776E9	65.75543212890625	0.0	0.0	1.047150592E9	1.0323968E9	0.0	null	0.06674999743700027	0.04749999940395355	0.04699999839067459	0.9922500252723694	0.790213406085968	0.0	244.0	371.0	0.0	0.0	0.0	0.0	0.0	0.0	null	null	null	null	null	null	null	null	337.0	336.0	337.0	335.0	330.0	335.0	338.0	335.0	337.0	335.0	337.0	
Tue Jun 06 12:53:00 UTC 2017	0.0	1.047281664E9	2286.0009765625	0.0	2.5628672E7	0.0	2.0	1.054539776E9	65.75543212890625	0.0	0.0	1.047150592E9	1.031368704E9	0.0	null	0.07450000196695328	0.05249999836087227	0.0430000014603138	0.9925000071525574	0.7901992201805115	0.0	244.0	371.0	0.0	0.0	0.0	0.0	0.0	0.0	null	null	null	null	null	null	null	null	333.0	334.0	336.0	336.0	338.0	335.0	335.0	335.0	333.0	335.0	336.0	
Tue Jun 06 12:52:00 UTC 2017	0.0	1.047281664E9	3661.234619140625	0.0	2.5628672E7	0.0	3.0	1.054326784E9	36.70946502685547	0.0	0.0	1.047150592E9	1.0323968E9	0.0	0.0	0.07474999874830246	0.05375000089406967	0.04874999821186066	0.9922500252723694	0.7902432680130005	0.0	244.0	371.0	0.0	0.0	0.0	0.0	0.0	0.0	null	null	null	null	null	null	null	null	334.0	337.0	341.0	334.0	333.0	336.0	335.0	336.0	335.0	336.0	337.0	
Tue Jun 06 12:51:00 UTC 2017	0.0	1.047281664E9	2660.07470703125	0.0	2.5628672E7	0.0	4.0	1.054416896E9	36.70946502685547	0.0	0.0	1.047150592E9	1.031368704E9	0.0	0.0	0.09375	0.05324999988079071	0.0442500002682209	0.9925000071525574	0.7915995121002197	0.0	244.0	371.0	0.0	0.0	0.0	0.0	0.0	0.0	null	null	null	null	null	null	null	null	337.0	337.0	333.0	332.0	334.0	331.0	336.0	335.0	331.0	336.0	334.0	
Tue Jun 06 12:50:00 UTC 2017	0.0	1.047281664E9	2660.07470703125	0.0	2.5628672E7	0.0	2.0	1.054416896E9	36.70946502685547	0.0	0.0	1.047150592E9	1.0323968E9	0.0	null	0.07450000196695328	0.04475000128149986	0.04724999889731407	0.9925000071525574	0.7902007102966309	0.0	244.0	371.0	0.0	0.0	0.0	0.0	0.0	0.0	null	null	null	null	null	null	null	null	335.0	333.0	337.0	336.0	337.0	336.0	336.0	336.0	335.0	336.0	336.0	
Tue Jun 06 12:49:00 UTC 2017	0.0	1.047281664E9	3091.031494140625	0.0	2.5628672E7	0.0	4.0	1.054326784E9	63.39690017700195	0.0	0.0	1.047150592E9	1.0323968E9	0.0	null	0.07975000143051147	0.0560000017285347	0.048250000923871994	0.9922500252723694	0.7901414632797241	0.0	244.0	371.0	0.0	0.0	0.0	0.0	0.0	0.0	null	null	null	null	null	null	null	null	336.0	338.0	334.0	335.0	334.0	337.0	337.0	332.0	337.0	335.0	336.0	
Tue Jun 06 12:48:00 UTC 2017	0.0	1.047281664E9	2746.694091796875	0.0	2.5628672E7	0.0	3.0	1.054326784E9	63.39690017700195	0.0	1.0	1.047150592E9	1.031368704E9	0.0	null	0.07175000011920929	0.05000000074505806	0.04724999889731407	0.9925000071525574	0.7924029231071472	0.0	244.0	371.0	0.0	0.0	0.0	0.0	0.0	0.0	null	null	null	null	null	null	null	null	337.0	333.0	335.0	335.0	337.0	333.0	337.0	337.0	336.0	336.0	336.0	
Tue Jun 06 12:47:00 UTC 2017	0.0	1.047281664E9	2746.694091796875	0.0	2.5628672E7	0.0	2.0	1.054113792E9	63.39690017700195	0.0	1.0	1.047150592E9	1.0323968E9	0.0	0.0	0.07999999821186066	0.054249998182058334	0.045249998569488525	0.9922500252723694	0.7901185154914856	0.0	244.0	371.0	0.0	0.0	0.0	0.0	0.0	0.0	null	null	null	null	null	null	null	null	334.0	339.0	338.0	334.0	336.0	335.0	334.0	334.0	331.0	337.0	334.0	
Tue Jun 06 12:46:00 UTC 2017	0.0	1.047281664E9	2746.694091796875	0.0	2.5628672E7	0.0	2.0	1.054113792E9	63.39690017700195	0.0	0.0	1.047150592E9	1.031368704E9	0.0	0.0	0.06700000166893005	0.04975000023841858	0.0442500002682209	0.9922500252723694	0.7900993824005127	0.0	244.0	371.0	0.0	0.0	0.0	0.0	0.0	0.0	null	null	null	null	null	null	null	null	336.0	335.0	338.0	336.0	331.0	339.0	338.0	337.0	339.0	332.0	335.0	
Tue Jun 06 12:45:00 UTC 2017	0.0	1.047281664E9	2341.462158203125	0.0	2.5628672E7	0.0	2.0	1.054203904E9	63.39690017700195	0.0	0.0	1.047150592E9	1.031368704E9	0.0	null	0.08349999785423279	0.05249999836087227	0.04774999991059303	0.9922500252723694	0.7900842428207397	0.0	244.0	371.0	0.0	0.0	0.0	0.0	0.0	0.0	null	null	null	null	null	null	null	null	333.0	335.0	335.0	334.0	334.0	334.0	332.0	333.0	340.0	332.0	331.0	
Tue Jun 06 12:44:00 UTC 2017	0.0	1.047281664E9	3578.2783203125	0.0	2.5628672E7	0.0	2.0	1.054113792E9	63.39690017700195	0.0	0.0	1.047150592E9	1.0323968E9	0.0	null	0.06825000047683716	0.05400000140070915	0.05050000175833702	0.9922500252723694	0.7900808453559875	0.0	244.0	371.0	0.0	0.0	0.0	0.0	0.0	0.0	null	null	null	null	null	null	null	null	336.0	337.0	337.0	336.0	339.0	336.0	337.0	336.0	333.0	335.0	335.0	
Tue Jun 06 12:43:00 UTC 2017	0.0	1.047281664E9	2744.7841796875	0.0	2.5628672E7	0.0	3.0	1.054113792E9	45.36492156982422	0.0	0.0	1.047150592E9	1.031368704E9	0.0	null	0.06975000351667404	0.04749999940395355	0.042249999940395355	0.9922500252723694	0.7900578379631042	0.0	244.0	371.0	0.0	0.0	0.0	0.0	0.0	0.0	null	null	null	null	null	null	null	null	334.0	335.0	335.0	335.0	334.0	338.0	336.0	338.0	337.0	335.0	337.0	
Tue Jun 06 12:42:00 UTC 2017	0.0	1.047281664E9	2744.7841796875	0.0	2.5628672E7	0.0	4.0	1.053904896E9	45.36492156982422	0.0	1.0	1.047150592E9	1.0323968E9	0.0	0.0	0.0754999965429306	0.05700000002980232	0.04650000110268593	0.9925000071525574	0.7900397181510925	0.0	244.0	371.0	0.0	0.0	0.0	0.0	0.0	0.0	null	null	null	null	null	null	null	null	338.0	338.0	338.0	336.0	338.0	335.0	333.0	336.0	335.0	340.0	335.0	
Tue Jun 06 12:41:00 UTC 2017	0.0	1.047281664E9	2578.588623046875	0.0	2.5628672E7	0.0	2.0	1.053904896E9	40.27473068237305	2.0	2.0	1.047150592E9	1.031368704E9	0.0	0.0	0.10275000333786011	0.06300000101327896	0.04675000160932541	0.9922500252723694	0.7923231720924377	0.0	244.0	371.0	0.0	0.0	0.0	0.0	0.0	0.0	null	null	null	null	null	null	null	null	334.0	335.0	337.0	332.0	337.0	335.0	340.0	334.0	338.0	332.0	338.0	
Tue Jun 06 12:40:00 UTC 2017	0.0	1.047281664E9	2578.588623046875	0.0	2.5628672E7	0.0	2.0	1.053999104E9	42.05818176269531	1.0	1.0	1.047150592E9	1.031368704E9	0.0	0.0	0.07275000214576721	0.05274999886751175	0.04625000059604645	0.9922500252723694	0.7900182008743286	0.0	244.0	371.0	0.0	0.0	0.0	0.0	0.0	0.0	null	null	null	null	null	null	null	null	336.0	336.0	332.0	337.0	336.0	335.0	335.0	334.0	334.0	339.0	337.0	
Tue Jun 06 12:39:00 UTC 2017	0.0	1.047281664E9	2555.604736328125	0.0	2.5628672E7	0.0	3.0	1.053908992E9	42.05818176269531	0.0	0.0	1.047150592E9	1.031368704E9	0.0	0.0	0.07325000315904617	0.04800000041723251	0.04975000023841858	0.9922500252723694	0.7906053066253662	0.0	244.0	371.0	0.0	0.0	0.0	0.0	0.0	0.0	null	null	null	null	null	null	null	null	336.0	330.0	338.0	332.0	334.0	333.0	334.0	333.0	340.0	333.0	336.0	
Tue Jun 06 12:38:00 UTC 2017	0.0	1.047281664E9	2555.604736328125	0.0	2.5628672E7	0.0	3.0	1.053908992E9	42.05818176269531	0.0	0.0	1.047150592E9	1.031368704E9	0.0	null	0.07474999874830246	0.054749999195337296	0.04349999874830246	0.9917500019073486	0.7922424077987671	0.0	244.0	371.0	0.0	0.0	0.0	0.0	0.0	0.0	null	null	null	null	null	null	null	null	334.0	335.0	335.0	334.0	333.0	337.0	333.0	336.0	336.0	334.0	332.0	
Tue Jun 06 12:37:00 UTC 2017	0.0	1.047281664E9	2555.604736328125	0.0	2.5628672E7	0.0	3.0	1.053691904E9	49.62599182128906	0.0	0.0	1.047150592E9	1.0323968E9	0.0	null	0.0807500034570694	0.0494999997317791	0.05025000125169754	0.9919999837875366	0.7922316789627075	0.0	244.0	371.0	0.0	0.0	0.0	0.0	0.0	0.0	null	null	null	null	null	null	null	null	334.0	340.0	337.0	337.0	337.0	335.0	336.0	334.0	340.0	338.0	336.0	
Tue Jun 06 12:36:00 UTC 2017	0.0	1.047281664E9	2555.604736328125	0.0	2.5628672E7	0.0	2.0	1.053691904E9	33.27286911010742	0.0	0.0	1.047150592E9	1.031368704E9	0.0	null	0.07374999672174454	0.0507499985396862	0.04450000077486038	0.9925000071525574	0.7905294895172119	0.0	244.0	371.0	0.0	0.0	0.0	0.0	0.0	0.0	null	null	null	null	null	null	null	null	337.0	337.0	339.0	336.0	334.0	335.0	339.0	336.0	336.0	335.0	336.0	
Tue Jun 06 12:35:00 UTC 2017	0.0	1.047281664E9	2555.604736328125	0.0	2.5628672E7	0.0	2.0	1.053782016E9	33.27286911010742	0.0	0.0	1.047150592E9	1.0323968E9	0.0	0.0	0.07400000095367432	0.04899999871850014	0.05025000125169754	0.9919999837875366	0.7899658679962158	0.0	244.0	371.0	0.0	0.0	0.0	0.0	0.0	0.0	null	null	null	null	null	null	null	null	333.0	332.0	333.0	335.0	335.0	335.0	333.0	335.0	333.0	334.0	333.0	
Tue Jun 06 12:34:00 UTC 2017	0.0	1.047281664E9	2555.604736328125	0.0	2.5628672E7	0.0	2.0	1.053691904E9	38.85121536254883	0.0	0.0	1.047150592E9	1.031368704E9	0.0	0.0	0.07225000113248825	0.05700000002980232	0.04324999824166298	0.9919999837875366	0.7899242639541626	0.0	244.0	371.0	0.0	0.0	0.0	0.0	0.0	0.0	null	null	null	null	null	null	null	null	336.0	337.0	333.0	337.0	334.0	333.0	337.0	335.0	334.0	333.0	337.0	
Tue Jun 06 12:33:00 UTC 2017	0.0	1.047281664E9	2712.127197265625	0.0	2.5628672E7	0.0	3.0	1.053691904E9	38.85121536254883	0.0	0.0	1.047150592E9	1.031368704E9	0.0	0.0	0.07925000041723251	0.05375000089406967	0.045499999076128006	0.9919999837875366	0.7899096012115479	0.0	244.0	371.0	0.0	0.0	0.0	0.0	0.0	0.0	null	null	null	null	null	null	null	null	331.0	336.0	334.0	332.0	336.0	333.0	334.0	336.0	337.0	338.0	336.0	
Tue Jun 06 12:32:00 UTC 2017	0.0	1.047281664E9	2349.963623046875	0.0	2.5628672E7	0.0	2.0	1.053478912E9	38.85121536254883	0.0	0.0	1.047150592E9	1.031368704E9	0.0	0.0	0.07450000196695328	0.04324999824166298	0.052000001072883606	0.9917500019073486	0.7899056673049927	0.0	244.0	371.0	0.0	0.0	0.0	0.0	0.0	0.0	null	null	null	null	null	null	null	null	337.0	335.0	337.0	336.0	336.0	336.0	338.0	340.0	333.0	334.0	334.0	
Tue Jun 06 12:31:00 UTC 2017	0.0	1.047281664E9	2349.963623046875	0.0	2.5628672E7	0.0	5.0	1.053478912E9	38.85121536254883	0.0	0.0	1.047150592E9	1.0323968E9	0.0	null	0.09525000303983688	0.05375000089406967	0.04675000160932541	0.9922500252723694	0.7921739220619202	0.0	244.0	371.0	0.0	0.0	0.0	0.0	0.0	0.0	null	null	null	null	null	null	null	null	336.0	337.0	336.0	330.0	336.0	336.0	333.0	330.0	333.0	338.0	335.0	
Tue Jun 06 12:30:00 UTC 2017	0.0	1.047281664E9	2763.97900390625	0.0	2.5628672E7	0.0	3.0	1.053569024E9	38.85121536254883	0.0	0.0	1.047150592E9	1.0323968E9	0.0	null	0.0729999989271164	0.057500001043081284	0.04724999889731407	0.9922500252723694	0.7920990586280823	0.0	244.0	371.0	0.0	0.0	0.0	0.0	0.0	0.0	null	null	null	null	null	null	null	null	335.0	334.0	336.0	336.0	336.0	335.0	336.0	337.0	338.0	335.0	335.0	
Tue Jun 06 12:29:00 UTC 2017	0.0	1.047281664E9	2763.97900390625	0.0	2.5628672E7	0.0	2.0	1.053478912E9	38.85121536254883	0.0	0.0	1.047150592E9	1.0323968E9	0.0	null	0.07850000262260437	0.04574999958276749	0.04650000110268593	0.9922500252723694	0.7912213206291199	0.0	244.0	371.0	0.0	0.0	0.0	0.0	0.0	0.0	null	null	null	null	null	null	null	null	333.0	333.0	336.0	338.0	332.0	338.0	333.0	334.0	334.0	332.0	336.0	
Tue Jun 06 12:28:00 UTC 2017	1.0	1.047281664E9	2763.97900390625	0.0	2.5628672E7	0.0	3.0	1.053478912E9	64.63337707519531	0.0	0.0	1.047150592E9	1.031368704E9	0.0	null	0.07325000315904617	0.052000001072883606	0.045249998569488525	0.9919999837875366	0.7897672057151794	0.0	244.0	371.0	0.0	0.0	0.0	0.0	0.0	0.0	null	null	null	null	null	null	null	null	336.0	335.0	334.0	333.0	336.0	331.0	338.0	337.0	336.0	339.0	336.0	
Tue Jun 06 12:27:00 UTC 2017	0.0	1.047281664E9	2851.142333984375	0.0	2.5628672E7	0.0	3.0	1.05326592E9	64.63337707519531	0.0	0.0	1.047150592E9	1.0323968E9	0.0	null	0.08574999868869781	0.054499998688697815	0.0494999997317791	0.9919999837875366	0.7910392880439758	0.0	244.0	371.0	0.0	0.0	0.0	0.0	0.0	0.0	null	null	null	null	null	null	null	null	335.0	336.0	335.0	337.0	337.0	337.0	337.0	336.0	337.0	332.0	335.0	
Tue Jun 06 12:26:00 UTC 2017	0.0	1.047281664E9	2692.577880859375	0.0	2.5628672E7	0.0	2.0	1.05326592E9	64.63337707519531	0.0	0.0	1.047150592E9	1.031368704E9	0.0	null	0.07774999737739563	0.054499998688697815	0.04574999958276749	0.9919999837875366	0.7897495627403259	0.0	244.0	371.0	0.0	0.0	0.0	0.0	0.0	0.0	null	null	null	null	null	null	null	null	336.0	331.0	337.0	336.0	337.0	335.0	332.0	335.0	335.0	338.0	337.0	
Tue Jun 06 12:25:00 UTC 2017	0.0	1.047281664E9	2692.577880859375	0.0	2.5628672E7	0.0	2.0	1.053356032E9	50.70343017578125	0.0	1.0	1.047150592E9	1.0323968E9	0.0	null	0.07774999737739563	0.04724999889731407	0.04574999958276749	0.9922500252723694	0.7897339463233948	0.0	244.0	371.0	0.0	0.0	0.0	0.0	0.0	0.0	null	null	null	null	null	null	null	null	334.0	335.0	335.0	335.0	334.0	336.0	336.0	336.0	331.0	334.0	338.0	
Tue Jun 06 12:24:00 UTC 2017	0.0	1.047281664E9	2524.833251953125	0.0	2.5628672E7	0.0	2.0	1.05326592E9	43.35837173461914	1.0	0.0	1.047150592E9	1.031368704E9	0.0	0.0	0.06724999845027924	0.051500000059604645	0.048500001430511475	0.9922500252723694	0.7897163033485413	0.0	244.0	371.0	0.0	0.0	0.0	0.0	0.0	0.0	null	null	null	null	null	null	null	null	334.0	334.0	333.0	332.0	333.0	337.0	337.0	336.0	337.0	337.0	336.0	
Tue Jun 06 12:23:00 UTC 2017	0.0	1.047281664E9	2869.852783203125	0.0	2.5628672E7	0.0	2.0	1.05326592E9	42.87168884277344	2.0	2.0	1.047150592E9	1.0323968E9	0.0	0.0	0.07900000363588333	0.05849999934434891	0.04574999958276749	0.9925000071525574	0.7904658913612366	0.0	244.0	371.0	0.0	0.0	0.0	0.0	0.0	0.0	null	null	null	null	null	null	null	null	337.0	337.0	336.0	336.0	338.0	332.0	334.0	337.0	336.0	337.0	333.0	
Tue Jun 06 12:22:00 UTC 2017	0.0	1.047281664E9	2869.852783203125	0.0	2.5628672E7	0.0	3.0	1.053515776E9	42.87168884277344	1.0	1.0	1.047150592E9	1.0323968E9	0.0	null	0.06424999982118607	0.05950000137090683	0.0442500002682209	0.9922500252723694	0.7896952629089355	0.0	244.0	371.0	0.0	0.0	0.0	0.0	0.0	0.0	null	null	null	null	null	null	null	null	335.0	337.0	332.0	337.0	333.0	337.0	338.0	333.0	334.0	336.0	336.0	
Tue Jun 06 12:21:00 UTC 2017	0.0	1.047281664E9	3166.042724609375	0.0	2.5628672E7	0.0	5.0	1.053057024E9	42.87168884277344	0.0	0.0	1.047150592E9	1.0323968E9	0.0	null	0.10350000113248825	0.05324999988079071	0.0442500002682209	0.9922500252723694	0.789674699306488	0.0	244.0	371.0	0.0	0.0	0.0	0.0	0.0	0.0	null	null	null	null	null	null	null	null	335.0	337.0	337.0	337.0	337.0	336.0	336.0	335.0	335.0	333.0	334.0	
Tue Jun 06 12:20:00 UTC 2017	0.0	1.047281664E9	2468.5576171875	0.0	2.5628672E7	0.0	3.0	1.053147136E9	42.87168884277344	0.0	0.0	1.047150592E9	1.0323968E9	0.0	null	0.07774999737739563	0.051249999552965164	0.04874999821186066	0.9922500252723694	0.7896586060523987	0.0	244.0	371.0	0.0	0.0	0.0	0.0	0.0	0.0	null	null	null	null	null	null	null	null	336.0	336.0	333.0	335.0	336.0	333.0	335.0	336.0	340.0	337.0	336.0	
Tue Jun 06 12:19:00 UTC 2017	0.0	1.047281664E9	2734.841064453125	0.0	2.5628672E7	0.0	2.0	1.053057024E9	44.28388977050781	0.0	0.0	1.047150592E9	1.031368704E9	0.0	null	0.0677499994635582	0.04924999922513962	0.04100000113248825	0.9925000071525574	0.7896443605422974	0.0	244.0	371.0	0.0	0.0	0.0	0.0	0.0	0.0	null	null	null	null	null	null	null	null	331.0	334.0	337.0	334.0	336.0	333.0	333.0	334.0	336.0	335.0	338.0	
Tue Jun 06 12:18:00 UTC 2017	0.0	1.047281664E9	2734.841064453125	0.0	2.5628672E7	0.0	3.0	1.053057024E9	64.8807373046875	0.0	0.0	1.047150592E9	1.031368704E9	0.0	null	0.07874999940395355	0.05375000089406967	0.04450000077486038	0.9922500252723694	0.7896199226379395	0.0	244.0	371.0	0.0	0.0	0.0	0.0	0.0	0.0	null	null	null	null	null	null	null	null	338.0	334.0	336.0	333.0	332.0	339.0	336.0	337.0	335.0	335.0	335.0	
Tue Jun 06 12:17:00 UTC 2017	0.0	1.047281664E9	2734.841064453125	0.0	2.5628672E7	0.0	3.0	1.052844032E9	64.8807373046875	0.0	0.0	1.047150592E9	1.0323968E9	0.0	null	0.07374999672174454	0.042750000953674316	0.04874999821186066	0.9922500252723694	0.7896208763122559	0.0	244.0	371.0	0.0	0.0	0.0	0.0	0.0	0.0	null	null	null	null	null	null	null	null	335.0	334.0	334.0	337.0	338.0	331.0	338.0	335.0	337.0	336.0	336.0	
Tue Jun 06 12:16:00 UTC 2017	0.0	1.047281664E9	2734.841064453125	0.0	2.5628672E7	0.0	3.0	1.052844032E9	57.368778228759766	0.0	0.0	1.047150592E9	1.031368704E9	0.0	null	0.08474999666213989	0.05249999836087227	0.04899999871850014	0.9922500252723694	0.7919009327888489	0.0	244.0	371.0	0.0	0.0	0.0	0.0	0.0	0.0	null	null	null	null	null	null	null	null	335.0	340.0	334.0	333.0	339.0	335.0	335.0	335.0	334.0	336.0	335.0	
Tue Jun 06 12:15:00 UTC 2017	0.0	1.047281664E9	2734.841064453125	0.0	2.5628672E7	0.0	3.0	1.052934144E9	38.59709930419922	0.0	0.0	1.047150592E9	1.0323968E9	0.0	0.0	0.07400000095367432	0.054499998688697815	0.04874999821186066	0.9919999837875366	0.7896121144294739	0.0	244.0	371.0	0.0	0.0	0.0	0.0	0.0	0.0	null	null	null	null	null	null	null	null	335.0	335.0	338.0	338.0	335.0	337.0	334.0	335.0	339.0	334.0	335.0	
Tue Jun 06 12:14:00 UTC 2017	0.0	1.047281664E9	2734.841064453125	0.0	2.5628672E7	0.0	4.0	1.052844032E9	46.109432220458984	0.0	1.0	1.047150592E9	1.031368704E9	0.0	0.0	0.07349999994039536	0.05274999886751175	0.051750000566244125	0.9922500252723694	0.791869580745697	0.0	244.0	371.0	0.0	0.0	0.0	0.0	0.0	0.0	null	null	null	null	null	null	null	null	336.0	331.0	335.0	331.0	332.0	334.0	342.0	332.0	335.0	337.0	334.0	
Tue Jun 06 12:13:00 UTC 2017	0.0	1.047281664E9	2601.75146484375	0.0	2.5628672E7	0.0	3.0	1.052844032E9	53.22123718261719	0.0	1.0	1.047150592E9	1.031368704E9	0.0	null	0.08124999701976776	0.05649999901652336	0.04475000128149986	0.9922500252723694	0.79108726978302	0.0	244.0	371.0	0.0	0.0	0.0	0.0	0.0	0.0	null	null	null	null	null	null	null	null	336.0	339.0	337.0	339.0	338.0	337.0	333.0	338.0	336.0	334.0	338.0	
Tue Jun 06 12:12:00 UTC 2017	0.0	1.047281664E9	2601.75146484375	0.0	2.5628672E7	0.0	2.0	1.052614656E9	63.96588897705078	0.0	0.0	1.047150592E9	1.0323968E9	0.0	null	0.07249999791383743	0.0494999997317791	0.04975000023841858	0.9925000071525574	0.7902202606201172	0.0	244.0	371.0	0.0	0.0	0.0	0.0	0.0	0.0	null	null	null	null	null	null	null	null	333.0	335.0	336.0	334.0	336.0	339.0	335.0	333.0	335.0	336.0	336.0	
Tue Jun 06 12:11:00 UTC 2017	0.0	1.047281664E9	2601.75146484375	0.0	2.5628672E7	0.0	2.0	1.052614656E9	63.96588897705078	0.0	0.0	1.047150592E9	1.0323968E9	0.0	null	0.10474999994039536	0.048500001430511475	0.045499999076128006	0.9922500252723694	0.7895519137382507	0.0	244.0	371.0	0.0	0.0	0.0	0.0	0.0	0.0	null	null	null	null	null	null	null	null	338.0	333.0	336.0	335.0	331.0	337.0	335.0	340.0	334.0	337.0	333.0	
Tue Jun 06 12:10:00 UTC 2017	0.0	1.047281664E9	2601.75146484375	0.0	2.5628672E7	0.0	4.0	1.053126656E9	63.96588897705078	0.0	0.0	1.047130112E9	1.031368704E9	0.0	0.0	0.06875000149011612	0.05649999901652336	0.04774999991059303	0.9919999837875366	0.7895504236221313	0.0	244.0	371.0	0.0	0.0	0.0	0.0	0.0	0.0	null	null	null	null	null	null	null	null	330.0	340.0	336.0	336.0	336.0	333.0	337.0	335.0	338.0	336.0	333.0	
Tue Jun 06 12:09:00 UTC 2017	0.0	1.047281664E9	3224.72802734375	0.0	2.5628672E7	0.0	2.0	1.05254912E9	46.83846664428711	0.0	0.0	1.047130112E9	1.0323968E9	0.0	0.0	0.08100000023841858	0.04800000041723251	0.04625000059604645	0.9919999837875366	0.7895357608795166	0.0	244.0	371.0	0.0	0.0	0.0	0.0	0.0	0.0	null	null	null	null	null	null	null	null	337.0	332.0	332.0	336.0	333.0	335.0	332.0	335.0	337.0	334.0	337.0	
Tue Jun 06 12:08:00 UTC 2017	0.0	1.047281664E9	3224.72802734375	0.0	2.5628672E7	0.0	2.0	1.05254912E9	46.83846664428711	0.0	0.0	1.047130112E9	1.031368704E9	0.0	0.0	0.0754999965429306	0.05324999988079071	0.04500000178813934	0.9922500252723694	0.7895196080207825	0.0	244.0	371.0	0.0	0.0	0.0	0.0	0.0	0.0	null	null	null	null	null	null	null	null	336.0	340.0	335.0	336.0	337.0	336.0	334.0	332.0	335.0	335.0	337.0	
Tue Jun 06 12:07:00 UTC 2017	0.0	1.047281664E9	3224.72802734375	0.0	2.5628672E7	0.0	2.0	1.052798976E9	48.24335479736328	0.0	0.0	1.047130112E9	1.031368704E9	0.0	0.0	0.07374999672174454	0.048500001430511475	0.045499999076128006	0.9922500252723694	0.7901669144630432	0.0	244.0	371.0	0.0	0.0	0.0	0.0	0.0	0.0	null	null	null	null	null	null	null	null	334.0	337.0	339.0	337.0	335.0	339.0	339.0	340.0	335.0	340.0	335.0	
Tue Jun 06 12:06:00 UTC 2017	0.0	1.047281664E9	3129.217041015625	0.0	2.5628672E7	0.0	4.0	1.052340224E9	48.24335479736328	0.0	0.0	1.047130112E9	1.031368704E9	0.0	null	0.07575000077486038	0.0572500005364418	0.042500000447034836	0.9922500252723694	0.7894980907440186	0.0	244.0	371.0	0.0	0.0	0.0	0.0	0.0	0.0	null	null	null	null	null	null	null	null	337.0	335.0	334.0	336.0	338.0	333.0	334.0	334.0	335.0	337.0	336.0	
Tue Jun 06 12:05:00 UTC 2017	0.0	1.047281664E9	3129.217041015625	0.0	2.5628672E7	0.0	3.0	1.052430336E9	48.24335479736328	0.0	0.0	1.047130112E9	1.0323968E9	0.0	null	0.07900000363588333	0.05225000157952309	0.0494999997317791	0.9922500252723694	0.7894995808601379	0.0	244.0	371.0	0.0	0.0	0.0	0.0	0.0	0.0	null	null	null	null	null	null	null	null	336.0	332.0	333.0	335.0	337.0	335.0	331.0	334.0	334.0	334.0	335.0	
Tue Jun 06 12:04:00 UTC 2017	0.0	1.047281664E9	2780.173583984375	0.0	2.5628672E7	0.0	2.0	1.052340224E9	48.24335479736328	0.0	0.0	1.047130112E9	1.031368704E9	0.0	null	0.0729999989271164	0.04924999922513962	0.04324999824166298	0.9922500252723694	0.7894848585128784	0.0	244.0	371.0	0.0	0.0	0.0	0.0	0.0	0.0	null	null	null	null	null	null	null	null	335.0	341.0	337.0	340.0	335.0	334.0	339.0	338.0	335.0	337.0	333.0	
Tue Jun 06 12:03:00 UTC 2017	0.0	1.047281664E9	2780.173583984375	0.0	2.5628672E7	0.0	2.0	1.052340224E9	48.24335479736328	0.0	0.0	1.047130112E9	1.0323968E9	0.0	null	0.0820000022649765	0.051249999552965164	0.042500000447034836	0.9922500252723694	0.7894667983055115	0.0	244.0	371.0	0.0	0.0	0.0	0.0	0.0	0.0	null	null	null	null	null	null	null	null	335.0	335.0	332.0	333.0	340.0	339.0	331.0	335.0	333.0	338.0	335.0	
Tue Jun 06 12:02:00 UTC 2017	0.0	1.047281664E9	2899.178466796875	0.0	2.5628672E7	0.0	4.0	1.052585984E9	43.02126693725586	0.0	0.0	1.047130112E9	1.031368704E9	0.0	0.0	0.07175000011920929	0.05000000074505806	0.048250000923871994	0.9922500252723694	0.7894452810287476	0.0	244.0	371.0	0.0	0.0	0.0	0.0	0.0	0.0	null	null	null	null	null	null	null	null	335.0	337.0	336.0	336.0	340.0	334.0	339.0	334.0	333.0	337.0	334.0	
Tue Jun 06 12:01:00 UTC 2017	0.0	1.047281664E9	2899.178466796875	0.0	2.5628672E7	0.0	2.0	1.052127232E9	45.15641784667969	0.0	0.0	1.047130112E9	1.0323968E9	0.0	0.0	0.09674999862909317	0.05324999988079071	0.04450000077486038	0.9922500252723694	0.7894447445869446	0.0	244.0	371.0	0.0	0.0	0.0	0.0	0.0	0.0	null	null	null	null	null	null	null	null	336.0	333.0	335.0	334.0	336.0	333.0	333.0	332.0	333.0	335.0	337.0	
Tue Jun 06 12:00:00 UTC 2017	0.0	1.047281664E9	2476.85205078125	0.0	2.5628672E7	0.0	2.0	1.052217344E9	44.57506561279297	0.0	0.0	1.047130112E9	1.031368704E9	0.0	0.0	0.08049999922513962	0.05575000122189522	0.04399999976158142	0.9922500252723694	0.7917086482048035	0.0	244.0	371.0	0.0	0.0	0.0	0.0	0.0	0.0	null	null	null	null	null	null	null	null	334.0	336.0	337.0	335.0	337.0	333.0	334.0	335.0	336.0	338.0	334.0	
Tue Jun 06 11:59:00 UTC 2017	0.0	1.047281664E9	3058.66455078125	0.0	2.5628672E7	0.0	2.0	1.052127232E9	86.2872085571289	0.0	0.0	1.047130112E9	1.031368704E9	0.0	0.0	0.06849999725818634	0.04675000160932541	0.04349999874830246	0.9922500252723694	0.7914747595787048	0.0	244.0	371.0	0.0	0.0	0.0	0.0	0.0	0.0	null	null	null	null	null	null	null	null	333.0	336.0	334.0	337.0	337.0	334.0	334.0	336.0	335.0	336.0	334.0	
Tue Jun 06 11:58:00 UTC 2017	0.0	1.047281664E9	2669.288330078125	0.0	2.5628672E7	0.0	2.0	1.052127232E9	86.2872085571289	0.0	0.0	1.047130112E9	1.0323968E9	0.0	0.0	0.08025000244379044	0.05350000038743019	0.048250000923871994	0.9922500252723694	0.7893968224525452	0.0	244.0	371.0	0.0	0.0	0.0	0.0	0.0	0.0	null	null	null	null	null	null	null	null	335.0	339.0	335.0	333.0	335.0	336.0	336.0	335.0	332.0	332.0	337.0	
Tue Jun 06 11:57:00 UTC 2017	0.0	1.047281664E9	3278.0888671875	0.0	2.5628672E7	0.0	2.0	1.05191424E9	72.38594055175781	0.0	0.0	1.047130112E9	1.0323968E9	0.0	0.0	0.07500000298023224	0.050999999046325684	0.04749999940395355	0.9919999837875366	0.7904967069625854	0.0	244.0	371.0	0.0	0.0	0.0	0.0	0.0	0.0	null	null	null	null	null	null	null	null	337.0	331.0	335.0	338.0	335.0	334.0	336.0	335.0	336.0	338.0	335.0	
Tue Jun 06 11:56:00 UTC 2017	0.0	1.047281664E9	3278.0888671875	0.0	2.5628672E7	0.0	2.0	1.05191424E9	72.38594055175781	0.0	0.0	1.047130112E9	1.0323968E9	0.0	null	0.07150000333786011	0.05350000038743019	0.03974999859929085	0.9919999837875366	0.7893591523170471	0.0	244.0	371.0	0.0	0.0	0.0	0.0	0.0	0.0	null	null	null	null	null	null	null	null	335.0	336.0	335.0	333.0	337.0	336.0	338.0	337.0	337.0	334.0	333.0	
Tue Jun 06 11:55:00 UTC 2017	0.0	1.047281664E9	3278.0888671875	0.0	2.5628672E7	0.0	3.0	1.052004352E9	72.38594055175781	0.0	0.0	1.047130112E9	1.031368704E9	0.0	null	0.07649999856948853	0.05225000157952309	0.04450000077486038	0.9922500252723694	0.7892975211143494	0.0	244.0	371.0	0.0	0.0	0.0	0.0	0.0	0.0	null	null	null	null	null	null	null	null	335.0	337.0	334.0	334.0	332.0	334.0	331.0	336.0	332.0	333.0	335.0	
Tue Jun 06 11:54:00 UTC 2017	0.0	1.047281664E9	3278.0888671875	0.0	2.5628672E7	0.0	2.0	1.05191424E9	53.76797103881836	0.0	0.0	1.047130112E9	1.0323968E9	0.0	null	0.07750000059604645	0.051750000566244125	0.04475000128149986	0.9919999837875366	0.78929603099823	0.0	244.0	371.0	0.0	0.0	0.0	0.0	0.0	0.0	null	null	null	null	null	null	null	null	335.0	334.0	335.0	334.0	337.0	334.0	338.0	340.0	338.0	337.0	338.0	
Tue Jun 06 11:53:00 UTC 2017	0.0	1.047281664E9	2388.697509765625	0.0	2.5628672E7	0.0	3.0	1.05191424E9	56.264320373535156	0.0	0.0	1.047130112E9	1.0323968E9	0.0	null	0.08150000125169754	0.0572500005364418	0.045249998569488525	0.9922500252723694	0.789286732673645	0.0	244.0	371.0	0.0	0.0	0.0	0.0	0.0	0.0	null	null	null	null	null	null	null	null	336.0	340.0	334.0	336.0	329.0	337.0	335.0	332.0	335.0	332.0	336.0	
Tue Jun 06 11:52:00 UTC 2017	0.0	1.047281664E9	3436.087158203125	0.0	2.5628672E7	0.0	2.0	1.051705344E9	60.985511779785156	0.0	0.0	1.047130112E9	1.031368704E9	0.0	0.0	0.0742499977350235	0.04800000041723251	0.04324999824166298	0.9922500252723694	0.7892705798149109	0.0	244.0	371.0	0.0	0.0	0.0	0.0	0.0	0.0	null	null	null	null	null	null	null	null	335.0	335.0	335.0	335.0	337.0	334.0	335.0	338.0	334.0	335.0	334.0	
Tue Jun 06 11:51:00 UTC 2017	0.0	1.047281664E9	2423.030517578125	0.0	2.5628672E7	0.0	2.0	1.051705344E9	59.85309982299805	0.0	0.0	1.047130112E9	1.0323968E9	0.0	0.0	0.09974999725818634	0.05849999934434891	0.04399999976158142	0.9922500252723694	0.7892745137214661	0.0	244.0	371.0	0.0	0.0	0.0	0.0	0.0	0.0	null	null	null	null	null	null	null	null	336.0	338.0	334.0	335.0	335.0	334.0	336.0	336.0	335.0	334.0	333.0	
Tue Jun 06 11:50:00 UTC 2017	0.0	1.047281664E9	2423.030517578125	0.0	2.5628672E7	0.0	2.0	1.05179136E9	59.85309982299805	0.0	0.0	1.047130112E9	1.0323968E9	0.0	0.0	0.07074999809265137	0.04699999839067459	0.051249999552965164	0.9922500252723694	0.7892470955848694	0.0	244.0	371.0	0.0	0.0	0.0	0.0	0.0	0.0	null	null	null	null	null	null	null	null	336.0	337.0	335.0	334.0	333.0	333.0	333.0	337.0	337.0	333.0	337.0	
Tue Jun 06 11:49:00 UTC 2017	0.0	1.047281664E9	2869.622802734375	0.0	2.5628672E7	0.0	4.0	1.051701248E9	59.85309982299805	0.0	0.0	1.047130112E9	1.0323968E9	0.0	0.0	0.07575000077486038	0.05649999901652336	0.04500000178813934	0.9922500252723694	0.7892382740974426	0.0	244.0	371.0	0.0	0.0	0.0	0.0	0.0	0.0	null	null	null	null	null	null	null	null	332.0	335.0	336.0	337.0	333.0	335.0	336.0	331.0	337.0	336.0	331.0	
Tue Jun 06 11:48:00 UTC 2017	0.0	1.047281664E9	2869.622802734375	0.0	2.5628672E7	0.0	4.0	1.051701248E9	59.85309982299805	0.0	0.0	1.047130112E9	1.0323968E9	0.0	0.0	0.0820000022649765	0.05050000175833702	0.0442500002682209	0.9922500252723694	0.7892211675643921	0.0	244.0	371.0	0.0	0.0	0.0	0.0	0.0	0.0	null	null	null	null	null	null	null	null	335.0	333.0	337.0	336.0	336.0	337.0	335.0	338.0	337.0	336.0	338.0	
Tue Jun 06 11:47:00 UTC 2017	0.0	1.047281664E9	2869.622802734375	0.0	2.5628672E7	0.0	2.0	1.051488256E9	70.38853454589844	0.0	0.0	1.047130112E9	1.031368704E9	0.0	0.0	0.07050000131130219	0.04924999922513962	0.04450000077486038	0.9922500252723694	0.789205014705658	0.0	244.0	371.0	0.0	0.0	0.0	0.0	0.0	0.0	null	null	null	null	null	null	null	null	336.0	338.0	333.0	334.0	334.0	334.0	335.0	335.0	337.0	333.0	335.0	
Tue Jun 06 11:46:00 UTC 2017	0.0	1.047281664E9	3353.09814453125	0.0	2.5628672E7	0.0	2.0	1.051488256E9	44.48154830932617	0.0	0.0	1.047130112E9	1.031368704E9	0.0	0.0	0.07175000011920929	0.052000001072883606	0.04574999958276749	0.9922500252723694	0.789186418056488	0.0	244.0	371.0	0.0	0.0	0.0	0.0	0.0	0.0	null	null	null	null	null	null	null	null	338.0	336.0	336.0	338.0	337.0	335.0	339.0	337.0	335.0	336.0	331.0	
Tue Jun 06 11:45:00 UTC 2017	0.0	1.047281664E9	3353.09814453125	0.0	2.5628672E7	0.0	2.0	1.051578368E9	45.89638137817383	0.0	0.0	1.047130112E9	1.031368704E9	0.0	0.0	0.07874999940395355	0.05225000157952309	0.04699999839067459	0.9922500252723694	0.7891839742660522	0.0	244.0	371.0	0.0	0.0	0.0	0.0	0.0	0.0	null	null	null	null	null	null	null	null	337.0	338.0	336.0	333.0	332.0	336.0	335.0	337.0	332.0	330.0	337.0	
Tue Jun 06 11:44:00 UTC 2017	0.0	1.047281664E9	2839.03662109375	0.0	2.5628672E7	0.0	2.0	1.051488256E9	45.89638137817383	0.0	0.0	1.047130112E9	1.031368704E9	0.0	0.0	0.0742499977350235	0.04724999889731407	0.04699999839067459	0.9922500252723694	0.7891154885292053	0.0	244.0	371.0	0.0	0.0	0.0	0.0	0.0	0.0	null	null	null	null	null	null	null	null	335.0	337.0	334.0	338.0	334.0	335.0	337.0	334.0	337.0	337.0	334.0	
Tue Jun 06 11:43:00 UTC 2017	0.0	1.047281664E9	2839.03662109375	0.0	2.5628672E7	0.0	3.0	1.051488256E9	45.962772369384766	0.0	0.0	1.047130112E9	1.037533184E9	0.0	0.0	0.07524999976158142	0.0494999997317791	0.04500000178813934	0.9922500252723694	0.789089560508728	0.0	244.0	371.0	0.0	0.0	0.0	0.0	0.0	0.0	null	null	null	null	null	null	null	null	336.0	332.0	338.0	336.0	336.0	335.0	337.0	333.0	332.0	330.0	331.0	
Tue Jun 06 11:42:00 UTC 2017	0.0	1.047281664E9	2839.03662109375	0.0	2.5628672E7	0.0	4.0	1.051275264E9	45.962772369384766	0.0	0.0	1.047130112E9	1.037533184E9	0.0	0.0	0.0832500010728836	0.05025000125169754	0.048500001430511475	0.9922500252723694	0.7906718850135803	0.0	244.0	371.0	0.0	0.0	0.0	0.0	0.0	0.0	null	null	null	null	null	null	null	null	337.0	339.0	337.0	335.0	335.0	336.0	337.0	337.0	334.0	338.0	336.0	
Tue Jun 06 11:41:00 UTC 2017	0.0	1.047281664E9	2695.65869140625	0.0	2.5628672E7	0.0	2.0	1.051275264E9	45.962772369384766	0.0	0.0	1.047130112E9	1.03856128E9	0.0	0.0	0.0925000011920929	0.05874999985098839	0.0442500002682209	0.9919999837875366	0.7890670299530029	0.0	244.0	371.0	0.0	0.0	0.0	0.0	0.0	0.0	null	null	null	null	null	null	null	null	334.0	333.0	334.0	336.0	336.0	336.0	333.0	336.0	337.0	336.0	338.0	
Tue Jun 06 11:40:00 UTC 2017	0.0	1.047281664E9	2483.329833984375	0.0	2.5628672E7	0.0	2.0	1.051365376E9	56.85422134399414	0.0	0.0	1.047130112E9	1.037533184E9	0.0	0.0	0.0794999971985817	0.04924999922513962	0.04899999871850014	0.9922500252723694	0.789048969745636	0.0	244.0	371.0	0.0	0.0	0.0	0.0	0.0	0.0	null	null	null	null	null	null	null	null	337.0	337.0	333.0	334.0	334.0	334.0	334.0	335.0	335.0	334.0	334.0	
Tue Jun 06 11:39:00 UTC 2017	0.0	1.047281664E9	2880.715576171875	0.0	2.5628672E7	0.0	2.0	1.051275264E9	56.85422134399414	0.0	0.0	1.047130112E9	1.037533184E9	0.0	0.0	0.0754999965429306	0.05000000074505806	0.042249999940395355	0.9922500252723694	0.7897192239761353	0.0	244.0	371.0	0.0	0.0	0.0	0.0	0.0	0.0	null	null	null	null	null	null	null	null	334.0	339.0	336.0	341.0	334.0	336.0	339.0	334.0	334.0	336.0	335.0	
Tue Jun 06 11:38:00 UTC 2017	0.0	1.047281664E9	2880.715576171875	0.0	2.5628672E7	0.0	5.0	1.051275264E9	55.64054870605469	0.0	0.0	1.047130112E9	1.037533184E9	0.0	0.0	0.07874999940395355	0.051500000059604645	0.04899999871850014	0.9922500252723694	0.7889383435249329	0.0	244.0	371.0	0.0	0.0	0.0	0.0	0.0	0.0	null	null	null	null	null	null	null	null	338.0	335.0	334.0	334.0	338.0	334.0	335.0	336.0	334.0	336.0	334.0	
Tue Jun 06 11:37:00 UTC 2017	0.0	1.047281664E9	2880.715576171875	0.0	2.5628672E7	0.0	4.0	1.051521024E9	44.69407272338867	0.0	0.0	1.047130112E9	1.03856128E9	0.0	0.0	0.06624999642372131	0.04675000160932541	0.04500000178813934	0.9917500019073486	0.7889212369918823	0.0	244.0	371.0	0.0	0.0	0.0	0.0	0.0	0.0	null	null	null	null	null	null	null	null	337.0	336.0	335.0	335.0	334.0	337.0	337.0	335.0	333.0	332.0	333.0	
Tue Jun 06 11:36:00 UTC 2017	0.0	1.047281664E9	2712.99853515625	0.0	2.5628672E7	0.0	2.0	1.051062272E9	44.69407272338867	0.0	0.0	1.047130112E9	1.03856128E9	0.0	0.0	0.07450000196695328	0.054999999701976776	0.04724999889731407	0.9919999837875366	0.78890460729599	0.0	244.0	371.0	0.0	0.0	0.0	0.0	0.0	0.0	null	null	null	null	null	null	null	null	336.0	333.0	337.0	333.0	337.0	336.0	335.0	332.0	336.0	336.0	337.0	
Tue Jun 06 11:35:00 UTC 2017	0.0	1.047281664E9	2712.99853515625	0.0	2.5628672E7	0.0	2.0	1.051152384E9	47.47734451293945	0.0	0.0	1.047130112E9	1.03856128E9	0.0	0.0	0.07699999958276749	0.05299999937415123	0.045249998569488525	0.9919999837875366	0.788901686668396	0.0	244.0	371.0	0.0	0.0	0.0	0.0	0.0	0.0	null	null	null	null	null	null	null	null	336.0	336.0	333.0	339.0	331.0	334.0	336.0	337.0	337.0	332.0	331.0	
Tue Jun 06 11:34:00 UTC 2017	0.0	1.047281664E9	2712.99853515625	0.0	2.5628672E7	0.0	3.0	1.051062272E9	47.47734451293945	0.0	0.0	1.047130112E9	1.03856128E9	0.0	0.0	0.07100000232458115	0.045499999076128006	0.04749999940395355	0.9922500252723694	0.7912486791610718	0.0	244.0	371.0	0.0	0.0	0.0	0.0	0.0	0.0	null	null	null	null	null	null	null	null	332.0	332.0	337.0	336.0	339.0	339.0	335.0	336.0	336.0	337.0	334.0	
Tue Jun 06 11:33:00 UTC 2017	0.0	1.047281664E9	2761.373779296875	0.0	2.5628672E7	0.0	2.0	1.051062272E9	42.692989349365234	0.0	0.0	1.047130112E9	1.03856128E9	0.0	0.0	0.08524999767541885	0.054999999701976776	0.04699999839067459	0.9919999837875366	0.7912350296974182	0.0	244.0	371.0	0.0	0.0	0.0	0.0	0.0	0.0	null	null	null	null	null	null	null	null	338.0	335.0	337.0	334.0	334.0	336.0	333.0	336.0	334.0	339.0	340.0	
Tue Jun 06 11:32:00 UTC 2017	0.0	1.047281664E9	2761.373779296875	0.0	2.5628672E7	0.0	2.0	1.051312128E9	50.090118408203125	0.0	0.0	1.047130112E9	1.03856128E9	0.0	0.0	0.06825000047683716	0.052000001072883606	0.045249998569488525	0.9922500252723694	0.7889476418495178	0.0	244.0	371.0	0.0	0.0	0.0	0.0	0.0	0.0	null	null	null	null	null	null	null	null	335.0	339.0	338.0	331.0	333.0	338.0	336.0	333.0	335.0	335.0	334.0	
Tue Jun 06 11:31:00 UTC 2017	0.0	1.047281664E9	2761.373779296875	0.0	2.5628672E7	0.0	2.0	1.050853376E9	50.201934814453125	0.0	0.0	1.047130112E9	1.03856128E9	0.0	0.0	0.09875000268220901	0.04975000023841858	0.04749999940395355	0.9919999837875366	0.789831280708313	0.0	244.0	371.0	0.0	0.0	0.0	0.0	0.0	0.0	null	null	null	null	null	null	null	null	334.0	330.0	333.0	339.0	339.0	333.0	340.0	335.0	338.0	335.0	335.0	
Tue Jun 06 11:30:00 UTC 2017	0.0	1.047281664E9	2761.373779296875	0.0	2.5628672E7	0.0	3.0	1.051041792E9	50.201934814453125	0.0	0.0	1.047130112E9	1.037533184E9	0.0	0.0	0.0820000022649765	0.048500001430511475	0.05025000125169754	0.9919999837875366	0.7889320254325867	0.0	244.0	371.0	0.0	0.0	0.0	0.0	0.0	0.0	null	null	null	null	null	null	null	null	336.0	337.0	333.0	334.0	334.0	339.0	336.0	335.0	334.0	335.0	332.0	
Tue Jun 06 11:29:00 UTC 2017	0.0	1.047281664E9	2761.373779296875	0.0	2.5628672E7	0.0	2.0	1.05095168E9	50.201934814453125	0.0	0.0	1.047130112E9	1.037533184E9	0.0	0.0	0.07750000059604645	0.052000001072883606	0.042500000447034836	0.9919999837875366	0.7912032008171082	0.0	244.0	371.0	0.0	0.0	0.0	0.0	0.0	0.0	null	null	null	null	null	null	null	null	340.0	334.0	337.0	337.0	339.0	332.0	333.0	338.0	335.0	335.0	334.0	
Tue Jun 06 11:28:00 UTC 2017	0.0	1.047281664E9	2872.6220703125	0.0	2.5628672E7	0.0	2.0	1.05095168E9	50.201934814453125	0.0	0.0	1.047130112E9	1.037533184E9	0.0	0.0	0.07500000298023224	0.05350000038743019	0.04774999991059303	0.9925000071525574	0.7889672517776489	0.0	244.0	371.0	0.0	0.0	0.0	0.0	0.0	0.0	null	null	null	null	null	null	null	null	334.0	339.0	339.0	333.0	334.0	340.0	337.0	336.0	337.0	339.0	339.0	
Tue Jun 06 11:27:00 UTC 2017	0.0	1.047281664E9	2504.370849609375	0.0	2.5628672E7	0.0	3.0	1.050738688E9	50.201934814453125	0.0	0.0	1.047130112E9	1.037533184E9	0.0	0.0	0.07150000333786011	0.05324999988079071	0.04324999824166298	0.9925000071525574	0.7888752818107605	0.0	244.0	371.0	0.0	0.0	0.0	0.0	0.0	0.0	null	null	null	null	null	null	null	null	336.0	335.0	333.0	339.0	334.0	337.0	337.0	335.0	334.0	334.0	336.0	
Tue Jun 06 11:26:00 UTC 2017	0.0	1.047281664E9	3043.969970703125	0.0	2.5628672E7	0.0	4.0	1.050738688E9	52.109657287597656	0.0	0.0	1.047130112E9	1.037533184E9	0.0	0.0	0.07450000196695328	0.04625000059604645	0.05025000125169754	0.9922500252723694	0.7910334467887878	0.0	244.0	371.0	0.0	0.0	0.0	0.0	0.0	0.0	null	null	null	null	null	null	null	null	333.0	335.0	334.0	333.0	341.0	332.0	336.0	333.0	340.0	338.0	333.0	
Tue Jun 06 11:25:00 UTC 2017	0.0	1.047281664E9	2536.039794921875	0.0	2.5628672E7	0.0	2.0	1.0508288E9	60.64552307128906	0.0	0.0	1.047130112E9	1.03856128E9	0.0	0.0	0.08449999988079071	0.05550000071525574	0.04800000041723251	0.9925000071525574	0.7887886762619019	0.0	244.0	371.0	0.0	0.0	0.0	0.0	0.0	0.0	null	null	null	null	null	null	null	null	337.0	337.0	335.0	335.0	335.0	338.0	333.0	335.0	333.0	336.0	337.0	
Tue Jun 06 11:24:00 UTC 2017	0.0	1.047281664E9	2478.858154296875	0.0	2.5628672E7	0.0	3.0	1.050738688E9	52.857177734375	0.0	0.0	1.047130112E9	1.03856128E9	0.0	0.0	0.07400000095367432	0.04800000041723251	0.045249998569488525	0.9922500252723694	0.7887876629829407	0.0	244.0	371.0	0.0	0.0	0.0	0.0	0.0	0.0	null	null	null	null	null	null	null	null	335.0	333.0	335.0	335.0	335.0	333.0	334.0	340.0	339.0	333.0	335.0	
Tue Jun 06 11:23:00 UTC 2017	0.0	1.047281664E9	2478.858154296875	0.0	2.5628672E7	0.0	3.0	1.050738688E9	52.857177734375	0.0	0.0	1.047130112E9	1.03856128E9	0.0	0.0	0.06650000065565109	0.05624999850988388	0.04749999940395355	0.9919999837875366	0.7902867794036865	0.0	244.0	371.0	0.0	0.0	0.0	0.0	0.0	0.0	null	null	null	null	null	null	null	null	337.0	338.0	338.0	339.0	334.0	337.0	340.0	333.0	335.0	336.0	333.0	
Tue Jun 06 11:22:00 UTC 2017	0.0	1.047281664E9	2787.9580078125	0.0	2.5628672E7	0.0	3.0	1.050525696E9	52.857177734375	0.0	0.0	1.047130112E9	1.037533184E9	0.0	0.0	0.08900000154972076	0.05350000038743019	0.04450000077486038	0.9919999837875366	0.7888287901878357	0.0	244.0	371.0	0.0	0.0	0.0	0.0	0.0	0.0	null	null	null	null	null	null	null	null	336.0	337.0	332.0	331.0	334.0	337.0	335.0	336.0	334.0	331.0	335.0	
Tue Jun 06 11:21:00 UTC 2017	0.0	1.047281664E9	2787.9580078125	0.0	2.5628672E7	0.0	2.0	1.050525696E9	52.857177734375	0.0	0.0	1.047130112E9	1.037533184E9	0.0	0.0	0.09049999713897705	0.04574999958276749	0.04699999839067459	0.9922500252723694	0.7888155579566956	0.0	244.0	371.0	0.0	0.0	0.0	0.0	0.0	0.0	null	null	null	null	null	null	null	null	336.0	332.0	337.0	334.0	337.0	334.0	329.0	338.0	338.0	337.0	337.0	
Tue Jun 06 11:20:00 UTC 2017	0.0	1.047281664E9	2787.9580078125	0.0	2.5628672E7	0.0	2.0	1.050615808E9	52.857177734375	0.0	0.0	1.047130112E9	1.037533184E9	0.0	0.0	0.07599999755620956	0.05649999901652336	0.04600000008940697	0.9922500252723694	0.7910363674163818	0.0	244.0	371.0	0.0	0.0	0.0	0.0	0.0	0.0	null	null	null	null	null	null	null	null	336.0	336.0	331.0	332.0	338.0	336.0	336.0	336.0	334.0	331.0	332.0	
Tue Jun 06 11:19:00 UTC 2017	0.0	1.047281664E9	2787.9580078125	0.0	2.5628672E7	0.0	3.0	1.050525696E9	52.857177734375	0.0	0.0	1.047130112E9	1.037533184E9	0.0	0.0	0.07400000095367432	0.04899999871850014	0.05000000074505806	0.9919999837875366	0.79090815782547	0.0	244.0	371.0	0.0	0.0	0.0	0.0	0.0	0.0	null	null	null	null	null	null	null	null	335.0	335.0	338.0	333.0	336.0	334.0	338.0	336.0	334.0	334.0	339.0	
Tue Jun 06 11:18:00 UTC 2017	0.0	1.047281664E9	2391.38427734375	0.0	2.5628672E7	0.0	2.0	1.050525696E9	52.857177734375	0.0	0.0	1.047130112E9	1.03856128E9	0.0	0.0	0.07999999821186066	0.04675000160932541	0.04574999958276749	0.9917500019073486	0.7887142896652222	0.0	244.0	371.0	0.0	0.0	0.0	0.0	0.0	0.0	null	null	null	null	null	null	null	null	334.0	336.0	335.0	338.0	332.0	337.0	333.0	332.0	337.0	338.0	337.0	
Tue Jun 06 11:17:00 UTC 2017	0.0	1.047281664E9	2523.12890625	0.0	2.5628672E7	0.0	2.0	1.0503168E9	48.442138671875	0.0	0.0	1.047130112E9	1.037533184E9	0.0	0.0	0.07975000143051147	0.05624999850988388	0.0442500002682209	0.9919999837875366	0.7887083888053894	0.0	244.0	371.0	0.0	0.0	0.0	0.0	0.0	0.0	null	null	null	null	null	null	null	null	337.0	337.0	335.0	334.0	337.0	334.0	333.0	335.0	334.0	330.0	334.0	
Tue Jun 06 11:16:00 UTC 2017	0.0	1.047281664E9	3149.812744140625	0.0	2.5628672E7	0.0	4.0	1.050406912E9	43.29072952270508	0.0	0.0	1.047130112E9	1.03856128E9	0.0	null	0.0689999982714653	0.0430000014603138	0.05025000125169754	0.9922500252723694	0.7886903285980225	0.0	244.0	371.0	0.0	0.0	0.0	0.0	0.0	0.0	null	null	null	null	null	null	null	null	336.0	336.0	333.0	334.0	334.0	335.0	337.0	337.0	336.0	337.0	337.0	
Tue Jun 06 11:15:00 UTC 2017	0.0	1.047281664E9	3149.812744140625	0.0	2.5628672E7	0.0	5.0	1.050406912E9	48.536766052246094	0.0	0.0	1.047130112E9	1.03856128E9	0.0	null	0.07150000333786011	0.05274999886751175	0.04924999922513962	0.9919999837875366	0.7892505526542664	0.0	244.0	371.0	0.0	0.0	0.0	0.0	0.0	0.0	null	null	null	null	null	null	null	null	333.0	331.0	338.0	335.0	337.0	335.0	335.0	335.0	333.0	333.0	332.0	
Tue Jun 06 11:14:00 UTC 2017	0.0	1.047281664E9	2647.394775390625	0.0	2.5628672E7	0.0	2.0	1.0503168E9	46.087982177734375	0.0	0.0	1.047130112E9	1.03856128E9	0.0	null	0.07374999672174454	0.05274999886751175	0.04500000178813934	0.9922500252723694	0.7886418700218201	0.0	244.0	371.0	0.0	0.0	0.0	0.0	0.0	0.0	null	null	null	null	null	null	null	null	333.0	338.0	335.0	331.0	336.0	337.0	336.0	339.0	339.0	337.0	333.0	
Tue Jun 06 11:13:00 UTC 2017	0.0	1.047281664E9	2864.56396484375	0.0	2.5628672E7	0.0	3.0	1.0503168E9	45.174957275390625	0.0	0.0	1.047130112E9	1.03856128E9	0.0	null	0.07975000143051147	0.04924999922513962	0.045249998569488525	0.9919999837875366	0.788616418838501	0.0	244.0	371.0	0.0	0.0	0.0	0.0	0.0	0.0	null	null	null	null	null	null	null	null	337.0	332.0	332.0	337.0	336.0	334.0	334.0	335.0	335.0	338.0	336.0	
Tue Jun 06 11:12:00 UTC 2017	0.0	1.047281664E9	2907.5263671875	0.0	2.5628672E7	0.0	3.0	1.050103808E9	46.70220947265625	0.0	0.0	1.047130112E9	1.037533184E9	0.0	0.0	0.07100000232458115	0.054999999701976776	0.04774999991059303	0.9917500019073486	0.7886056900024414	0.0	244.0	371.0	0.0	0.0	0.0	0.0	0.0	0.0	null	null	null	null	null	null	null	null	331.0	337.0	336.0	334.0	338.0	333.0	335.0	337.0	336.0	334.0	334.0	
Tue Jun 06 11:11:00 UTC 2017	0.0	1.047281664E9	2907.5263671875	0.0	2.5628672E7	0.0	2.0	1.050103808E9	46.70220947265625	0.0	0.0	1.047130112E9	1.03856128E9	0.0	0.0	0.10700000077486038	0.05025000125169754	0.04724999889731407	0.9922500252723694	0.7885841131210327	0.0	244.0	371.0	0.0	0.0	0.0	0.0	0.0	0.0	null	null	null	null	null	null	null	null	336.0	335.0	336.0	334.0	332.0	336.0	337.0	338.0	336.0	336.0	337.0	
Tue Jun 06 11:10:00 UTC 2017	0.0	1.047281664E9	2542.08740234375	0.0	2.5731072E7	0.0	5.0	1.05592832E9	41.23717498779297	0.0	0.0	1.047130112E9	1.03856128E9	0.0	0.0	0.06499999761581421	0.04774999991059303	0.04874999821186066	0.9919999837875366	0.7885268926620483	0.0	244.0	371.0	0.0	0.0	0.0	0.0	0.0	0.0	null	null	null	null	null	null	null	null	334.0	333.0	337.0	333.0	336.0	334.0	335.0	334.0	335.0	337.0	336.0	
Tue Jun 06 11:09:00 UTC 2017	0.0	1.047281664E9	2670.885498046875	0.0	2.5731072E7	0.0	2.0	1.055633408E9	60.72566604614258	0.0	0.0	1.047130112E9	1.03856128E9	0.0	null	0.07275000214576721	0.05249999836087227	0.045499999076128006	0.9922500252723694	0.7897613048553467	0.0	244.0	371.0	0.0	0.0	0.0	0.0	0.0	0.0	null	null	null	null	null	null	null	null	337.0	338.0	332.0	337.0	336.0	335.0	334.0	337.0	333.0	335.0	336.0	
Tue Jun 06 11:08:00 UTC 2017	0.0	1.047281664E9	3198.228759765625	0.0	2.5731072E7	0.0	2.0	1.055633408E9	60.72566604614258	0.0	0.0	1.047130112E9	1.037533184E9	0.0	null	0.08349999785423279	0.0494999997317791	0.04600000008940697	0.9922500252723694	0.7884907126426697	0.0	244.0	371.0	0.0	0.0	0.0	0.0	0.0	0.0	null	null	null	null	null	null	null	null	335.0	337.0	337.0	335.0	336.0	334.0	334.0	336.0	336.0	336.0	336.0	
Tue Jun 06 11:07:00 UTC 2017	0.0	1.047281664E9	3198.228759765625	0.0	2.5731072E7	0.0	5.0	1.055420416E9	60.72566604614258	0.0	0.0	1.047130112E9	1.03856128E9	0.0	0.0	0.06849999725818634	0.05400000140070915	0.048500001430511475	0.9922500252723694	0.7884896993637085	0.0	244.0	371.0	0.0	0.0	0.0	0.0	0.0	0.0	null	null	null	null	null	null	null	null	336.0	335.0	335.0	336.0	336.0	336.0	336.0	334.0	336.0	337.0	336.0	
Tue Jun 06 11:06:00 UTC 2017	0.0	1.047281664E9	3198.228759765625	0.0	2.5731072E7	0.0	3.0	1.055510528E9	60.72566604614258	0.0	0.0	1.047130112E9	1.037533184E9	0.0	0.0	0.0860000029206276	0.05400000140070915	0.04625000059604645	0.9922500252723694	0.789036214351654	0.0	244.0	371.0	0.0	0.0	0.0	0.0	0.0	0.0	null	null	null	null	null	null	null	null	335.0	337.0	338.0	334.0	334.0	339.0	335.0	336.0	337.0	336.0	335.0	
Tue Jun 06 11:05:00 UTC 2017	0.0	1.047281664E9	3198.228759765625	0.0	2.5731072E7	0.0	2.0	1.055510528E9	60.72566604614258	0.0	0.0	1.047130112E9	1.03856128E9	0.0	0.0	0.07150000333786011	0.051249999552965164	0.04574999958276749	0.9922500252723694	0.7884750366210938	0.0	244.0	371.0	0.0	0.0	0.0	0.0	0.0	0.0	null	null	null	null	null	null	null	null	335.0	333.0	337.0	337.0	337.0	334.0	336.0	336.0	333.0	336.0	333.0	
Tue Jun 06 11:04:00 UTC 2017	0.0	1.047281664E9	3198.228759765625	0.0	2.5731072E7	0.0	2.0	1.055420416E9	41.10503387451172	0.0	0.0	1.047130112E9	1.03856128E9	0.0	0.0	0.07524999976158142	0.05000000074505806	0.04500000178813934	0.9922500252723694	0.7884750366210938	0.0	244.0	371.0	0.0	0.0	0.0	0.0	0.0	0.0	null	null	null	null	null	null	null	null	337.0	337.0	335.0	336.0	333.0	335.0	337.0	335.0	339.0	335.0	336.0	
Tue Jun 06 11:03:00 UTC 2017	0.0	1.047281664E9	2399.85986328125	0.0	2.5731072E7	0.0	2.0	1.055420416E9	59.30743408203125	0.0	0.0	1.047130112E9	1.03856128E9	0.0	0.0	0.06975000351667404	0.05050000175833702	0.05050000175833702	0.9922500252723694	0.790739893913269	0.0	244.0	371.0	0.0	0.0	0.0	0.0	0.0	0.0	null	null	null	null	null	null	null	null	337.0	335.0	336.0	333.0	335.0	332.0	336.0	335.0	335.0	337.0	338.0	
Tue Jun 06 11:02:00 UTC 2017	0.0	1.047281664E9	2399.85986328125	0.0	2.5731072E7	0.0	2.0	1.055203328E9	59.30743408203125	0.0	0.0	1.047130112E9	1.037533184E9	0.0	0.0	0.0807500034570694	0.04675000160932541	0.04600000008940697	0.9922500252723694	0.7884373664855957	0.0	244.0	371.0	0.0	0.0	0.0	0.0	0.0	0.0	null	null	null	null	null	null	null	null	336.0	337.0	336.0	336.0	339.0	340.0	334.0	334.0	335.0	332.0	336.0	
Tue Jun 06 11:01:00 UTC 2017	0.0	1.047281664E9	2632.739501953125	0.0	2.5731072E7	0.0	2.0	1.05529344E9	48.027122497558594	0.0	0.0	1.047130112E9	1.037533184E9	0.0	null	0.10199999809265137	0.05525000020861626	0.04600000008940697	0.9922500252723694	0.7884060144424438	0.0	244.0	371.0	0.0	0.0	0.0	0.0	0.0	0.0	null	null	null	null	null	null	null	null	335.0	337.0	334.0	334.0	335.0	334.0	334.0	336.0	335.0	339.0	334.0	
Tue Jun 06 11:00:00 UTC 2017	0.0	1.047281664E9	2632.739501953125	0.0	2.5731072E7	0.0	2.0	1.05529344E9	48.027122497558594	0.0	0.0	1.047130112E9	1.03856128E9	0.0	null	0.07199999690055847	0.04800000041723251	0.045499999076128006	0.9919999837875366	0.7884026169776917	0.0	244.0	371.0	0.0	0.0	0.0	0.0	0.0	0.0	null	null	null	null	null	null	null	null	336.0	336.0	339.0	339.0	334.0	337.0	337.0	335.0	338.0	334.0	334.0	
Tue Jun 06 10:59:00 UTC 2017	0.0	1.047281664E9	2887.44580078125	0.0	2.5731072E7	0.0	2.0	1.055203328E9	48.027122497558594	0.0	0.0	1.047130112E9	1.037533184E9	0.0	0.0	0.07474999874830246	0.05299999937415123	0.04774999991059303	0.9922500252723694	0.7883855104446411	0.0	244.0	371.0	0.0	0.0	0.0	0.0	0.0	0.0	null	null	null	null	null	null	null	null	333.0	336.0	335.0	333.0	337.0	335.0	336.0	336.0	331.0	336.0	336.0	
Tue Jun 06 10:58:00 UTC 2017	0.0	1.047281664E9	2878.751708984375	0.0	2.5731072E7	0.0	5.0	1.055203328E9	57.7231330871582	0.0	0.0	1.047130112E9	1.03856128E9	0.0	0.0	0.07999999821186066	0.048500001430511475	0.048500001430511475	0.9919999837875366	0.788369357585907	0.0	244.0	371.0	0.0	0.0	0.0	0.0	0.0	0.0	null	null	null	null	null	null	null	null	338.0	333.0	335.0	336.0	335.0	336.0	334.0	334.0	336.0	334.0	332.0	
Tue Jun 06 10:57:00 UTC 2017	0.0	1.047281664E9	2586.1083984375	0.0	2.5731072E7	0.0	5.0	1.055453184E9	57.7231330871582	0.0	0.0	1.047130112E9	1.03856128E9	0.0	null	0.0767500028014183	0.048500001430511475	0.04924999922513962	0.9919999837875366	0.7883673906326294	0.0	244.0	371.0	0.0	0.0	0.0	0.0	0.0	0.0	null	null	null	null	null	null	null	null	334.0	335.0	334.0	335.0	335.0	334.0	338.0	333.0	334.0	340.0	333.0	
Tue Jun 06 10:56:00 UTC 2017	0.0	1.047281664E9	2586.1083984375	0.0	2.5731072E7	0.0	2.0	1.054994432E9	57.7231330871582	0.0	0.0	1.047130112E9	1.037533184E9	0.0	0.0	0.07275000214576721	0.054749999195337296	0.04324999824166298	0.9922500252723694	0.7884172797203064	0.0	244.0	371.0	0.0	0.0	0.0	0.0	0.0	0.0	null	null	null	null	null	null	null	null	338.0	339.0	337.0	334.0	338.0	335.0	331.0	335.0	339.0	335.0	335.0	
Tue Jun 06 10:55:00 UTC 2017	0.0	1.047281664E9	2419.538818359375	0.0	2.5731072E7	0.0	2.0	1.055084544E9	57.7231330871582	0.0	0.0	1.047130112E9	1.03856128E9	0.0	0.0	0.06599999964237213	0.04574999958276749	0.048500001430511475	0.9919999837875366	0.7898699641227722	0.0	244.0	371.0	0.0	0.0	0.0	0.0	0.0	0.0	null	null	null	null	null	null	null	null	333.0	333.0	335.0	339.0	334.0	338.0	338.0	334.0	331.0	332.0	336.0	
Tue Jun 06 10:54:00 UTC 2017	0.0	1.047281664E9	2419.538818359375	0.0	2.5731072E7	0.0	2.0	1.054994432E9	57.7231330871582	0.0	0.0	1.047130112E9	1.037533184E9	0.0	0.0	0.08675000071525574	0.050999999046325684	0.04699999839067459	0.9919999837875366	0.7906699180603027	0.0	244.0	371.0	0.0	0.0	0.0	0.0	0.0	0.0	null	null	null	null	null	null	null	null	338.0	334.0	335.0	335.0	337.0	335.0	332.0	337.0	337.0	338.0	336.0	
Tue Jun 06 10:53:00 UTC 2017	0.0	1.047281664E9	2520.64892578125	0.0	2.5731072E7	0.0	2.0	1.054994432E9	62.907318115234375	0.0	0.0	1.047130112E9	1.037533184E9	0.0	0.0	0.0689999982714653	0.05299999937415123	0.04724999889731407	0.9919999837875366	0.7883820533752441	0.0	244.0	371.0	0.0	0.0	0.0	0.0	0.0	0.0	null	null	null	null	null	null	null	null	334.0	337.0	333.0	337.0	332.0	337.0	335.0	336.0	333.0	336.0	335.0	
Tue Jun 06 10:52:00 UTC 2017	0.0	1.047281664E9	2571.8037109375	0.0	2.5731072E7	0.0	2.0	1.054785536E9	62.907318115234375	0.0	0.0	1.047130112E9	1.037533184E9	0.0	0.0	0.08574999868869781	0.054999999701976776	0.04650000110268593	0.9922500252723694	0.7906537652015686	0.0	244.0	371.0	0.0	0.0	0.0	0.0	0.0	0.0	null	null	null	null	null	null	null	null	336.0	331.0	333.0	338.0	339.0	332.0	339.0	335.0	340.0	334.0	339.0	
Tue Jun 06 10:51:00 UTC 2017	0.0	1.047281664E9	2571.8037109375	0.0	2.5731072E7	0.0	3.0	1.054785536E9	62.907318115234375	0.0	0.0	1.047130112E9	1.03856128E9	0.0	0.0	0.09775000065565109	0.04975000023841858	0.04625000059604645	0.9922500252723694	0.7883091568946838	0.0	244.0	371.0	0.0	0.0	0.0	0.0	0.0	0.0	null	null	null	null	null	null	null	null	333.0	335.0	337.0	333.0	332.0	335.0	332.0	341.0	333.0	338.0	332.0	
Tue Jun 06 10:50:00 UTC 2017	0.0	1.047281664E9	2571.8037109375	0.0	2.5731072E7	0.0	2.0	1.054875648E9	62.907318115234375	0.0	0.0	1.047130112E9	1.03856128E9	0.0	0.0	0.07599999755620956	0.048500001430511475	0.04800000041723251	0.9922500252723694	0.788253903388977	0.0	244.0	371.0	0.0	0.0	0.0	0.0	0.0	0.0	null	null	null	null	null	null	null	null	339.0	336.0	333.0	337.0	339.0	338.0	337.0	331.0	331.0	334.0	333.0	
Tue Jun 06 10:49:00 UTC 2017	0.0	1.047281664E9	3591.45947265625	0.0	2.5731072E7	0.0	2.0	1.054785536E9	62.907318115234375	0.0	0.0	1.047130112E9	1.03856128E9	0.0	null	0.07150000333786011	0.05350000038743019	0.04675000160932541	0.9919999837875366	0.7882533669471741	0.0	244.0	371.0	0.0	0.0	0.0	0.0	0.0	0.0	null	null	null	null	null	null	null	null	333.0	335.0	334.0	335.0	335.0	334.0	334.0	336.0	335.0	337.0	336.0	
Tue Jun 06 10:48:00 UTC 2017	0.0	1.047281664E9	3591.45947265625	0.0	2.5731072E7	0.0	2.0	1.054785536E9	62.907318115234375	0.0	0.0	1.047130112E9	1.037533184E9	0.0	0.0	0.07325000315904617	0.0507499985396862	0.04699999839067459	0.9922500252723694	0.7882063984870911	0.0	244.0	371.0	0.0	0.0	0.0	0.0	0.0	0.0	null	null	null	null	null	null	null	null	334.0	334.0	337.0	337.0	335.0	336.0	337.0	333.0	338.0	335.0	336.0	
Tue Jun 06 10:47:00 UTC 2017	0.0	1.047281664E9	3591.45947265625	0.0	2.5731072E7	0.0	2.0	1.055031296E9	62.907318115234375	0.0	0.0	1.047130112E9	1.03856128E9	0.0	0.0	0.08649999648332596	0.051500000059604645	0.04374999925494194	0.9922500252723694	0.7881819605827332	0.0	244.0	371.0	0.0	0.0	0.0	0.0	0.0	0.0	null	null	null	null	null	null	null	null	334.0	336.0	336.0	336.0	335.0	335.0	336.0	336.0	334.0	336.0	336.0	
Tue Jun 06 10:46:00 UTC 2017	0.0	1.047281664E9	3591.45947265625	0.0	2.5731072E7	0.0	2.0	1.054662656E9	62.907318115234375	0.0	0.0	1.047130112E9	1.03856128E9	0.0	0.0	0.07124999910593033	0.051249999552965164	0.04924999922513962	0.9922500252723694	0.7893219590187073	0.0	244.0	371.0	0.0	0.0	0.0	0.0	0.0	0.0	null	null	null	null	null	null	null	null	337.0	334.0	334.0	335.0	335.0	333.0	334.0	337.0	336.0	336.0	337.0	
Tue Jun 06 10:45:00 UTC 2017	0.0	1.047281664E9	3591.45947265625	0.0	2.5731072E7	0.0	8.0	1.054662656E9	62.907318115234375	0.0	0.0	1.047130112E9	1.03856128E9	0.0	0.0	0.08100000023841858	0.051750000566244125	0.051750000566244125	0.9922500252723694	0.78919917345047	0.0	244.0	371.0	0.0	0.0	0.0	0.0	0.0	0.0	null	null	null	null	null	null	null	null	335.0	334.0	336.0	335.0	336.0	337.0	337.0	332.0	335.0	337.0	333.0	
Tue Jun 06 10:44:00 UTC 2017	0.0	1.047281664E9	2913.72900390625	0.0	2.5731072E7	0.0	2.0	1.054572544E9	41.33099365234375	0.0	0.0	1.047130112E9	1.037533184E9	0.0	0.0	0.07349999994039536	0.0507499985396862	0.039000000804662704	0.9922500252723694	0.7881741523742676	0.0	244.0	371.0	0.0	0.0	0.0	0.0	0.0	0.0	null	null	null	null	null	null	null	null	334.0	336.0	336.0	336.0	332.0	332.0	335.0	336.0	336.0	335.0	336.0	
Tue Jun 06 10:43:00 UTC 2017	0.0	1.047281664E9	2913.72900390625	0.0	2.5731072E7	0.0	2.0	1.054572544E9	34.015281677246094	0.0	0.0	1.047130112E9	1.037533184E9	0.0	0.0	0.07800000160932541	0.054249998182058334	0.04749999940395355	0.9919999837875366	0.7904276847839355	0.0	244.0	371.0	0.0	0.0	0.0	0.0	0.0	0.0	null	null	null	null	null	null	null	null	335.0	334.0	338.0	337.0	335.0	337.0	335.0	337.0	338.0	338.0	339.0	
Tue Jun 06 10:42:00 UTC 2017	0.0	1.047281664E9	2913.72900390625	0.0	2.5731072E7	0.0	2.0	1.0548224E9	34.015281677246094	0.0	0.0	1.047130112E9	1.03856128E9	0.0	0.0	0.0742499977350235	0.04650000110268593	0.048250000923871994	0.9922500252723694	0.7881242036819458	0.0	244.0	371.0	0.0	0.0	0.0	0.0	0.0	0.0	null	null	null	null	null	null	null	null	337.0	337.0	330.0	330.0	336.0	337.0	333.0	338.0	335.0	336.0	331.0	
Tue Jun 06 10:41:00 UTC 2017	0.0	1.047281664E9	2913.72900390625	0.0	2.5731072E7	0.0	3.0	1.05445376E9	44.15467834472656	0.0	0.0	1.047130112E9	1.03856128E9	0.0	0.0	0.09650000184774399	0.05249999836087227	0.04899999871850014	0.9919999837875366	0.7881036996841431	0.0	244.0	371.0	0.0	0.0	0.0	0.0	0.0	0.0	null	null	null	null	null	null	null	null	336.0	335.0	337.0	337.0	336.0	336.0	335.0	329.0	334.0	334.0	335.0	
Tue Jun 06 10:40:00 UTC 2017	0.0	1.047281664E9	2913.72900390625	0.0	2.5731072E7	0.0	4.0	1.05445376E9	40.27064895629883	0.0	0.0	1.047130112E9	1.037533184E9	0.0	null	0.0754999965429306	0.054749999195337296	0.04475000128149986	0.9922500252723694	0.7880914211273193	0.0	244.0	371.0	0.0	0.0	0.0	0.0	0.0	0.0	null	null	null	null	null	null	null	null	334.0	334.0	334.0	337.0	333.0	334.0	334.0	337.0	338.0	336.0	335.0	
Tue Jun 06 10:39:00 UTC 2017	0.0	1.047281664E9	2913.72900390625	0.0	2.5731072E7	0.0	2.0	1.054363648E9	40.27064895629883	0.0	0.0	1.047130112E9	1.037533184E9	0.0	null	0.07474999874830246	0.050999999046325684	0.04650000110268593	0.9922500252723694	0.7880728244781494	0.0	244.0	371.0	0.0	0.0	0.0	0.0	0.0	0.0	null	null	null	null	null	null	null	null	337.0	337.0	334.0	334.0	336.0	332.0	338.0	334.0	337.0	338.0	335.0	
Tue Jun 06 10:38:00 UTC 2017	0.0	1.047281664E9	2548.42138671875	0.0	2.5731072E7	0.0	2.0	1.054363648E9	40.27064895629883	0.0	0.0	1.047130112E9	1.037533184E9	0.0	null	0.08174999803304672	0.042500000447034836	0.04800000041723251	0.9922500252723694	0.7880479097366333	0.0	244.0	371.0	0.0	0.0	0.0	0.0	0.0	0.0	null	null	null	null	null	null	null	null	338.0	335.0	337.0	334.0	333.0	337.0	335.0	336.0	336.0	331.0	338.0	
Tue Jun 06 10:37:00 UTC 2017	0.0	1.047281664E9	3112.70458984375	0.0	2.5731072E7	0.0	2.0	1.054609408E9	47.35538864135742	0.0	0.0	1.047130112E9	1.03856128E9	0.0	null	0.0689999982714653	0.0507499985396862	0.04450000077486038	0.9917500019073486	0.7880297899246216	0.0	244.0	371.0	0.0	0.0	0.0	0.0	0.0	0.0	null	null	null	null	null	null	null	null	334.0	336.0	337.0	336.0	335.0	336.0	332.0	336.0	333.0	337.0	335.0	
Tue Jun 06 10:36:00 UTC 2017	0.0	1.047281664E9	3112.70458984375	0.0	2.5731072E7	0.0	3.0	1.054150656E9	47.35538864135742	0.0	0.0	1.047130112E9	1.037533184E9	0.0	null	0.08174999803304672	0.054249998182058334	0.04749999940395355	0.9922500252723694	0.7902007102966309	0.0	244.0	371.0	0.0	0.0	0.0	0.0	0.0	0.0	null	null	null	null	null	null	null	null	336.0	334.0	331.0	335.0	337.0	332.0	335.0	332.0	336.0	336.0	334.0	
Tue Jun 06 10:35:00 UTC 2017	0.0	1.047281664E9	2389.900390625	0.0	2.5731072E7	0.0	3.0	1.054240768E9	47.35538864135742	0.0	0.0	1.047130112E9	1.03856128E9	0.0	null	0.07699999958276749	0.05375000089406967	0.04899999871850014	0.9919999837875366	0.7879925966262817	0.0	244.0	371.0	0.0	0.0	0.0	0.0	0.0	0.0	null	null	null	null	null	null	null	null	335.0	336.0	335.0	335.0	332.0	335.0	335.0	335.0	338.0	338.0	336.0	
Tue Jun 06 10:34:00 UTC 2017	0.0	1.047281664E9	2822.342529296875	0.0	2.5731072E7	0.0	3.0	1.054150656E9	62.33770751953125	0.0	0.0	1.047130112E9	1.037533184E9	0.0	0.0	0.07450000196695328	0.04675000160932541	0.04349999874830246	0.9922500252723694	0.7880087494850159	0.0	244.0	371.0	0.0	0.0	0.0	0.0	0.0	0.0	null	null	null	null	null	null	null	null	334.0	339.0	339.0	332.0	337.0	337.0	340.0	335.0	334.0	338.0	335.0	
Tue Jun 06 10:33:00 UTC 2017	0.0	1.047281664E9	2960.6572265625	0.0	2.5731072E7	0.0	3.0	1.054150656E9	62.33770751953125	0.0	0.0	1.047130112E9	1.03856128E9	0.0	0.0	0.07625000178813934	0.054249998182058334	0.05274999886751175	0.9922500252723694	0.7902897596359253	0.0	244.0	371.0	0.0	0.0	0.0	0.0	0.0	0.0	null	null	null	null	null	null	null	null	337.0	336.0	335.0	335.0	334.0	336.0	335.0	336.0	336.0	336.0	334.0	
Tue Jun 06 10:32:00 UTC 2017	0.0	1.047281664E9	2960.6572265625	0.0	2.5731072E7	0.0	2.0	1.053937664E9	43.84408187866211	0.0	0.0	1.047130112E9	1.03856128E9	0.0	0.0	0.07750000059604645	0.04724999889731407	0.041749998927116394	0.9922500252723694	0.7880395650863647	0.0	244.0	371.0	0.0	0.0	0.0	0.0	0.0	0.0	null	null	null	null	null	null	null	null	334.0	337.0	336.0	334.0	340.0	339.0	335.0	333.0	337.0	334.0	332.0	
Tue Jun 06 10:31:00 UTC 2017	0.0	1.047281664E9	2960.6572265625	0.0	2.5731072E7	0.0	2.0	1.054027776E9	43.58793258666992	0.0	0.0	1.047130112E9	1.03856128E9	0.0	0.0	0.09425000101327896	0.05350000038743019	0.05025000125169754	0.9922500252723694	0.7903225421905518	0.0	244.0	371.0	0.0	0.0	0.0	0.0	0.0	0.0	null	null	null	null	null	null	null	null	334.0	333.0	336.0	336.0	332.0	334.0	335.0	334.0	336.0	338.0	336.0	
Tue Jun 06 10:30:00 UTC 2017	0.0	1.047281664E9	2935.854736328125	0.0	2.5731072E7	0.0	2.0	1.054027776E9	54.49521255493164	0.0	0.0	1.047130112E9	1.03856128E9	0.0	0.0	0.07824999839067459	0.05324999988079071	0.04600000008940697	0.9922500252723694	0.7880215048789978	0.0	244.0	371.0	0.0	0.0	0.0	0.0	0.0	0.0	null	null	null	null	null	null	null	null	336.0	336.0	336.0	337.0	339.0	334.0	336.0	335.0	336.0	336.0	334.0	
Tue Jun 06 10:29:00 UTC 2017	0.0	1.047281664E9	2935.854736328125	0.0	2.5731072E7	0.0	4.0	1.053937664E9	54.49521255493164	0.0	0.0	1.047130112E9	1.03856128E9	0.0	0.0	0.07325000315904617	0.05050000175833702	0.05025000125169754	0.9919999837875366	0.7902892231941223	0.0	244.0	371.0	0.0	0.0	0.0	0.0	0.0	0.0	null	null	null	null	null	null	null	null	334.0	335.0	331.0	333.0	332.0	334.0	338.0	335.0	336.0	334.0	340.0	
Tue Jun 06 10:28:00 UTC 2017	0.0	1.047281664E9	2935.854736328125	0.0	2.5731072E7	0.0	2.0	1.053937664E9	54.49521255493164	0.0	0.0	1.047130112E9	1.037533184E9	0.0	0.0	0.07524999976158142	0.04500000178813934	0.045249998569488525	0.9925000071525574	0.7879862785339355	0.0	244.0	371.0	0.0	0.0	0.0	0.0	0.0	0.0	null	null	null	null	null	null	null	null	337.0	334.0	340.0	338.0	334.0	334.0	335.0	340.0	334.0	337.0	337.0	
Tue Jun 06 10:27:00 UTC 2017	0.0	1.047281664E9	3054.88623046875	0.0	2.5731072E7	0.0	2.0	1.053724672E9	54.49521255493164	0.0	0.0	1.047130112E9	1.037533184E9	0.0	0.0	0.07474999874830246	0.054499998688697815	0.04450000077486038	0.9925000071525574	0.7879475951194763	0.0	244.0	371.0	0.0	0.0	0.0	0.0	0.0	0.0	null	null	null	null	null	null	null	null	339.0	335.0	333.0	334.0	335.0	338.0	336.0	338.0	335.0	335.0	333.0	
Tue Jun 06 10:26:00 UTC 2017	0.0	1.047281664E9	2736.364990234375	0.0	2.5731072E7	0.0	2.0	1.053724672E9	54.49521255493164	0.0	0.0	1.047130112E9	1.03856128E9	0.0	0.0	0.0807500034570694	0.05525000020861626	0.04650000110268593	0.9922500252723694	0.7879324555397034	0.0	244.0	371.0	0.0	0.0	0.0	0.0	0.0	0.0	null	null	null	null	null	null	null	null	335.0	333.0	339.0	335.0	338.0	336.0	335.0	335.0	334.0	335.0	338.0	
Tue Jun 06 10:25:00 UTC 2017	0.0	1.047281664E9	2736.364990234375	0.0	2.5731072E7	0.0	2.0	1.053814784E9	60.51655960083008	0.0	0.0	1.047130112E9	1.037533184E9	0.0	0.0	0.07199999690055847	0.04475000128149986	0.04749999940395355	0.9922500252723694	0.7902001738548279	0.0	244.0	371.0	0.0	0.0	0.0	0.0	0.0	0.0	null	null	null	null	null	null	null	null	335.0	337.0	335.0	333.0	331.0	336.0	333.0	333.0	334.0	338.0	334.0	
Tue Jun 06 10:24:00 UTC 2017	0.0	1.047281664E9	2960.354736328125	0.0	2.5731072E7	0.0	3.0	1.053724672E9	60.51655960083008	0.0	0.0	1.047130112E9	1.037533184E9	0.0	0.0	0.08250000327825546	0.05274999886751175	0.04050000011920929	0.9922500252723694	0.7901850342750549	0.0	244.0	371.0	0.0	0.0	0.0	0.0	0.0	0.0	null	null	null	null	null	null	null	null	333.0	336.0	332.0	335.0	335.0	337.0	334.0	338.0	340.0	337.0	336.0	
Tue Jun 06 10:23:00 UTC 2017	0.0	1.047281664E9	2960.354736328125	0.0	2.5731072E7	0.0	3.0	1.053724672E9	40.33354187011719	0.0	0.0	1.047130112E9	1.037533184E9	0.0	0.0	0.06700000166893005	0.05525000020861626	0.04675000160932541	0.9922500252723694	0.7874289751052856	0.0	244.0	371.0	0.0	0.0	0.0	0.0	0.0	0.0	null	null	null	null	null	null	null	null	338.0	334.0	335.0	335.0	336.0	335.0	334.0	333.0	332.0	336.0	336.0	
Tue Jun 06 10:22:00 UTC 2017	0.0	1.047281664E9	2960.354736328125	0.0	2.5731072E7	0.0	3.0	1.053515776E9	55.23501968383789	0.0	0.0	1.047130112E9	1.037533184E9	0.0	0.0	0.07225000113248825	0.04874999821186066	0.04774999991059303	0.9922500252723694	0.7873682975769043	0.0	244.0	371.0	0.0	0.0	0.0	0.0	0.0	0.0	null	null	null	null	null	null	null	null	336.0	337.0	338.0	334.0	339.0	339.0	335.0	338.0	336.0	336.0	337.0	
Tue Jun 06 10:21:00 UTC 2017	0.0	1.047281664E9	2960.354736328125	0.0	2.5731072E7	0.0	5.0	1.053605888E9	55.23501968383789	0.0	0.0	1.047130112E9	1.03856128E9	0.0	0.0	0.10125000029802322	0.05324999988079071	0.04600000008940697	0.9917500019073486	0.7873335480690002	0.0	244.0	371.0	0.0	0.0	0.0	0.0	0.0	0.0	null	null	null	null	null	null	null	null	336.0	332.0	336.0	333.0	334.0	331.0	336.0	332.0	336.0	336.0	334.0	
Tue Jun 06 10:20:00 UTC 2017	0.0	1.047281664E9	1978.57421875	0.0	2.5731072E7	0.0	3.0	1.053605888E9	74.57485961914062	0.0	0.0	1.047130112E9	1.037533184E9	0.0	0.0	0.07999999821186066	0.04699999839067459	0.04774999991059303	0.9919999837875366	0.7879157662391663	0.0	244.0	371.0	0.0	0.0	0.0	0.0	0.0	0.0	null	null	null	null	null	null	null	null	336.0	335.0	332.0	339.0	335.0	338.0	338.0	336.0	334.0	336.0	335.0	
Tue Jun 06 10:19:00 UTC 2017	0.0	1.047281664E9	1978.57421875	0.0	2.5731072E7	0.0	2.0	1.053515776E9	74.57485961914062	0.0	0.0	1.047130112E9	1.037533184E9	0.0	0.0	0.06674999743700027	0.04975000023841858	0.04899999871850014	0.9919999837875366	0.7872914671897888	0.0	244.0	371.0	0.0	0.0	0.0	0.0	0.0	0.0	null	null	null	null	null	null	null	null	335.0	335.0	335.0	334.0	335.0	331.0	334.0	336.0	337.0	338.0	334.0	
Tue Jun 06 10:18:00 UTC 2017	0.0	1.047281664E9	1978.57421875	0.0	2.5731072E7	0.0	3.0	1.053515776E9	55.2729377746582	0.0	0.0	1.047130112E9	1.03856128E9	0.0	0.0	0.07699999958276749	0.05624999850988388	0.042249999940395355	0.9919999837875366	0.7872900366783142	0.0	244.0	371.0	0.0	0.0	0.0	0.0	0.0	0.0	null	null	null	null	null	null	null	null	336.0	336.0	336.0	336.0	336.0	337.0	336.0	335.0	336.0	332.0	337.0	
Tue Jun 06 10:17:00 UTC 2017	0.0	1.047281664E9	2728.032958984375	0.0	2.5731072E7	0.0	3.0	1.053302784E9	49.93682861328125	0.0	0.0	1.047130112E9	1.037533184E9	0.0	0.0	0.08299999684095383	0.04800000041723251	0.04724999889731407	0.9922500252723694	0.7873521447181702	0.0	244.0	371.0	0.0	0.0	0.0	0.0	0.0	0.0	null	null	null	null	null	null	null	null	335.0	334.0	335.0	333.0	336.0	334.0	335.0	336.0	332.0	335.0	337.0	
Tue Jun 06 10:16:00 UTC 2017	0.0	1.047281664E9	2728.032958984375	0.0	2.5731072E7	0.0	2.0	1.053392896E9	51.15087127685547	0.0	0.0	1.047130112E9	1.03856128E9	0.0	null	0.06875000149011612	0.051500000059604645	0.0507499985396862	0.9922500252723694	0.7873325943946838	0.0	244.0	371.0	0.0	0.0	0.0	0.0	0.0	0.0	null	null	null	null	null	null	null	null	334.0	337.0	339.0	337.0	338.0	333.0	338.0	336.0	335.0	336.0	336.0	
Tue Jun 06 10:15:00 UTC 2017	0.0	1.047281664E9	2520.82275390625	0.0	2.5731072E7	0.0	3.0	1.053392896E9	38.431617736816406	0.0	0.0	1.047130112E9	1.03856128E9	0.0	null	0.07874999940395355	0.04699999839067459	0.04399999976158142	0.9919999837875366	0.7873335480690002	0.0	244.0	371.0	0.0	0.0	0.0	0.0	0.0	0.0	null	null	null	null	null	null	null	null	333.0	336.0	334.0	334.0	334.0	335.0	334.0	337.0	334.0	335.0	335.0	
Tue Jun 06 10:14:00 UTC 2017	0.0	1.047281664E9	2520.82275390625	0.0	2.5731072E7	0.0	6.0	1.053302784E9	38.431617736816406	0.0	0.0	1.047130112E9	1.037533184E9	0.0	null	0.07400000095367432	0.06350000202655792	0.050999999046325684	0.9922500252723694	0.7873173952102661	0.0	244.0	371.0	0.0	0.0	0.0	0.0	0.0	0.0	null	null	null	null	null	null	null	null	334.0	336.0	341.0	337.0	339.0	334.0	333.0	333.0	332.0	336.0	335.0	
Tue Jun 06 10:13:00 UTC 2017	0.0	1.047281664E9	3024.328125	0.0	2.5731072E7	0.0	3.0	1.053302784E9	38.431617736816406	0.0	0.0	1.047130112E9	1.03856128E9	0.0	0.0	0.07575000077486038	0.050999999046325684	0.048250000923871994	0.9922500252723694	0.7872743606567383	0.0	244.0	371.0	0.0	0.0	0.0	0.0	0.0	0.0	null	null	null	null	null	null	null	null	337.0	335.0	334.0	331.0	337.0	335.0	339.0	335.0	336.0	335.0	335.0	
Tue Jun 06 10:12:00 UTC 2017	0.0	1.047281664E9	3008.239501953125	0.0	2.5731072E7	0.0	2.0	1.053085696E9	38.431617736816406	0.0	0.0	1.047130112E9	1.037533184E9	0.0	0.0	0.07724999636411667	0.045249998569488525	0.04475000128149986	0.9922500252723694	0.7872856259346008	0.0	244.0	371.0	0.0	0.0	0.0	0.0	0.0	0.0	null	null	null	null	null	null	null	null	332.0	337.0	335.0	337.0	333.0	336.0	335.0	334.0	336.0	336.0	339.0	
Tue Jun 06 10:11:00 UTC 2017	0.0	1.047281664E9	2803.27783203125	0.0	2.5731072E7	0.0	2.0	1.053085696E9	38.431617736816406	0.0	0.0	1.047130112E9	1.037533184E9	0.0	0.0	0.10225000232458115	0.050999999046325684	0.04899999871850014	0.9922500252723694	0.7872503995895386	0.0	244.0	371.0	0.0	0.0	0.0	0.0	0.0	0.0	null	null	null	null	null	null	null	null	335.0	334.0	339.0	333.0	338.0	333.0	336.0	338.0	331.0	339.0	334.0	
Tue Jun 06 10:10:00 UTC 2017	0.0	1.047281664E9	2803.27783203125	0.0	2.5731072E7	0.0	4.0	1.053437952E9	36.44644546508789	0.0	0.0	1.047130112E9	1.037533184E9	0.0	0.0	0.06925000250339508	0.05249999836087227	0.04500000178813934	0.9922500252723694	0.7871862649917603	0.0	244.0	371.0	0.0	0.0	0.0	0.0	0.0	0.0	null	null	null	null	null	null	null	null	334.0	338.0	337.0	332.0	337.0	333.0	334.0	331.0	337.0	332.0	335.0	
Tue Jun 06 10:09:00 UTC 2017	0.0	1.047281664E9	2583.775390625	0.0	2.5731072E7	0.0	4.0	1.053069312E9	36.44644546508789	0.0	0.0	1.047130112E9	1.037533184E9	0.0	0.0	0.08100000023841858	0.05225000157952309	0.0507499985396862	0.9922500252723694	0.7871706485748291	0.0	244.0	371.0	0.0	0.0	0.0	0.0	0.0	0.0	null	null	null	null	null	null	null	null	334.0	335.0	332.0	337.0	331.0	338.0	338.0	337.0	338.0	336.0	338.0	
Tue Jun 06 10:08:00 UTC 2017	0.0	1.047281664E9	2583.775390625	0.0	2.5731072E7	0.0	2.0	1.053069312E9	36.44644546508789	0.0	0.0	1.047130112E9	1.03856128E9	0.0	0.0	0.07249999791383743	0.05299999937415123	0.04450000077486038	0.9922500252723694	0.787151575088501	0.0	244.0	371.0	0.0	0.0	0.0	0.0	0.0	0.0	null	null	null	null	null	null	null	null	339.0	335.0	337.0	337.0	332.0	333.0	330.0	337.0	335.0	334.0	337.0	
Tue Jun 06 10:07:00 UTC 2017	0.0	1.047281664E9	2943.767822265625	0.0	2.5731072E7	0.0	3.0	1.053315072E9	36.44644546508789	0.0	0.0	1.047130112E9	1.037533184E9	0.0	0.0	0.08399999886751175	0.04899999871850014	0.04800000041723251	0.9922500252723694	0.787138819694519	0.0	244.0	371.0	0.0	0.0	0.0	0.0	0.0	0.0	null	null	null	null	null	null	null	null	336.0	336.0	336.0	332.0	336.0	334.0	339.0	331.0	337.0	333.0	333.0	
Tue Jun 06 10:06:00 UTC 2017	0.0	1.047281664E9	2546.0146484375	0.0	2.5731072E7	0.0	2.0	1.05285632E9	36.44644546508789	0.0	0.0	1.047130112E9	1.037533184E9	0.0	0.0	0.06949999928474426	0.04699999839067459	0.04800000041723251	0.9919999837875366	0.7871339321136475	0.0	244.0	371.0	0.0	0.0	0.0	0.0	0.0	0.0	null	null	null	null	null	null	null	null	339.0	336.0	334.0	336.0	334.0	336.0	335.0	336.0	338.0	336.0	336.0	
Tue Jun 06 10:05:00 UTC 2017	0.0	1.047281664E9	2522.466552734375	0.0	2.5731072E7	0.0	2.0	1.052946432E9	60.55986404418945	0.0	0.0	1.047130112E9	1.03856128E9	0.0	0.0	0.08124999701976776	0.050999999046325684	0.04125000163912773	0.9922500252723694	0.7871114611625671	0.0	244.0	371.0	0.0	0.0	0.0	0.0	0.0	0.0	null	null	null	null	null	null	null	null	332.0	336.0	334.0	335.0	337.0	338.0	337.0	335.0	331.0	335.0	335.0	
Tue Jun 06 10:04:00 UTC 2017	0.0	1.047281664E9	2522.466552734375	0.0	2.5731072E7	0.0	5.0	1.05285632E9	60.55986404418945	0.0	0.0	1.047130112E9	1.03856128E9	0.0	0.0	0.06475000083446503	0.05550000071525574	0.04899999871850014	0.9922500252723694	0.7870933413505554	0.0	244.0	371.0	0.0	0.0	0.0	0.0	0.0	0.0	null	null	null	null	null	null	null	null	332.0	336.0	338.0	334.0	336.0	336.0	336.0	337.0	336.0	336.0	334.0	
Tue Jun 06 10:03:00 UTC 2017	0.0	1.047281664E9	3513.3017578125	0.0	2.5731072E7	0.0	4.0	1.05285632E9	60.55986404418945	0.0	0.0	1.047130112E9	1.037533184E9	0.0	null	0.08299999684095383	0.04724999889731407	0.0442500002682209	0.9919999837875366	0.7871065139770508	0.0	244.0	371.0	0.0	0.0	0.0	0.0	0.0	0.0	null	null	null	null	null	null	null	null	338.0	334.0	333.0	333.0	333.0	335.0	336.0	336.0	334.0	338.0	337.0	
Tue Jun 06 10:02:00 UTC 2017	0.0	1.047281664E9	3513.3017578125	0.0	2.5731072E7	0.0	7.0	1.053106176E9	44.51828384399414	0.0	0.0	1.047130112E9	1.037533184E9	0.0	null	0.07649999856948853	0.057500001043081284	0.05025000125169754	0.9922500252723694	0.7891179323196411	0.0	244.0	371.0	0.0	0.0	0.0	0.0	0.0	0.0	null	null	null	null	null	null	null	null	335.0	338.0	339.0	336.0	337.0	333.0	334.0	332.0	332.0	336.0	337.0	
Tue Jun 06 10:01:00 UTC 2017	0.0	1.047281664E9	3513.3017578125	0.0	2.5731072E7	0.0	5.0	1.052647424E9	44.51828384399414	0.0	0.0	1.047130112E9	1.037533184E9	0.0	null	0.08974999934434891	0.0494999997317791	0.04600000008940697	0.9922500252723694	0.7871354222297668	0.0	244.0	371.0	0.0	0.0	0.0	0.0	0.0	0.0	null	null	null	null	null	null	null	null	338.0	336.0	336.0	337.0	333.0	337.0	334.0	338.0	339.0	336.0	335.0	
Tue Jun 06 10:00:00 UTC 2017	0.0	1.047281664E9	3513.3017578125	0.0	2.5731072E7	0.0	4.0	1.052737536E9	44.51828384399414	0.0	0.0	1.047130112E9	1.037533184E9	0.0	null	0.08624999970197678	0.04675000160932541	0.04625000059604645	0.9922500252723694	0.7894222736358643	0.0	244.0	371.0	0.0	0.0	0.0	0.0	0.0	0.0	null	null	null	null	null	null	null	null	335.0	333.0	334.0	334.0	335.0	336.0	338.0	335.0	333.0	336.0	334.0	
Tue Jun 06 09:59:00 UTC 2017	0.0	1.047281664E9	2838.193603515625	0.0	2.5731072E7	0.0	4.0	1.052647424E9	44.51828384399414	0.0	0.0	1.047130112E9	1.03856128E9	0.0	0.0	0.07249999791383743	0.05299999937415123	0.0507499985396862	0.9922500252723694	0.7871197462081909	0.0	244.0	371.0	0.0	0.0	0.0	0.0	0.0	0.0	null	null	null	null	null	null	null	null	338.0	339.0	340.0	333.0	334.0	337.0	336.0	334.0	335.0	336.0	334.0	
Tue Jun 06 09:58:00 UTC 2017	0.0	1.047281664E9	2838.193603515625	0.0	2.5731072E7	0.0	3.0	1.052647424E9	68.14961242675781	0.0	0.0	1.047130112E9	1.037533184E9	0.0	0.0	0.07750000059604645	0.05025000125169754	0.04699999839067459	0.9922500252723694	0.7871114611625671	0.0	244.0	371.0	0.0	0.0	0.0	0.0	0.0	0.0	null	null	null	null	null	null	null	null	337.0	334.0	333.0	334.0	334.0	337.0	337.0	335.0	335.0	334.0	334.0	
Tue Jun 06 09:57:00 UTC 2017	0.0	1.047281664E9	2838.193603515625	0.0	2.5731072E7	0.0	3.0	1.052434432E9	68.14961242675781	0.0	0.0	1.047130112E9	1.037533184E9	0.0	0.0	0.07100000232458115	0.0507499985396862	0.042500000447034836	0.9922500252723694	0.78900146484375	0.0	244.0	371.0	0.0	0.0	0.0	0.0	0.0	0.0	null	null	null	null	null	null	null	null	333.0	336.0	341.0	339.0	333.0	332.0	335.0	335.0	336.0	334.0	332.0	
Tue Jun 06 09:56:00 UTC 2017	0.0	1.047281664E9	2838.193603515625	0.0	2.5731072E7	0.0	3.0	1.052434432E9	68.14961242675781	0.0	0.0	1.047130112E9	1.037533184E9	0.0	0.0	0.07800000160932541	0.05249999836087227	0.05225000157952309	0.9922500252723694	0.7870463728904724	0.0	244.0	371.0	0.0	0.0	0.0	0.0	0.0	0.0	null	null	null	null	null	null	null	null	338.0	334.0	331.0	336.0	340.0	340.0	334.0	334.0	333.0	336.0	335.0	
Tue Jun 06 09:55:00 UTC 2017	0.0	1.047281664E9	2838.193603515625	0.0	2.5731072E7	0.0	3.0	1.052524544E9	68.14961242675781	0.0	0.0	1.047130112E9	1.03856128E9	0.0	0.0	0.07474999874830246	0.054999999701976776	0.042249999940395355	0.9925000071525574	0.7869651317596436	0.0	244.0	371.0	0.0	0.0	0.0	0.0	0.0	0.0	null	null	null	null	null	null	null	null	334.0	340.0	341.0	334.0	338.0	333.0	338.0	336.0	337.0	339.0	336.0	
Tue Jun 06 09:54:00 UTC 2017	0.0	1.047281664E9	2838.193603515625	0.0	2.5731072E7	0.0	3.0	1.052434432E9	44.000640869140625	0.0	0.0	1.047130112E9	1.037533184E9	0.0	0.0	0.07150000333786011	0.04874999821186066	0.048250000923871994	0.9925000071525574	0.7878345847129822	0.0	244.0	371.0	0.0	0.0	0.0	0.0	0.0	0.0	null	null	null	null	null	null	null	null	335.0	335.0	335.0	335.0	337.0	338.0	335.0	335.0	333.0	332.0	337.0	
Tue Jun 06 09:53:00 UTC 2017	0.0	1.047281664E9	2692.626708984375	0.0	2.5731072E7	0.0	3.0	1.052434432E9	44.000640869140625	0.0	0.0	1.047130112E9	1.037533184E9	0.0	0.0	0.08100000023841858	0.051750000566244125	0.04724999889731407	0.9922500252723694	0.7868716716766357	0.0	244.0	371.0	0.0	0.0	0.0	0.0	0.0	0.0	null	null	null	null	null	null	null	null	336.0	339.0	332.0	337.0	336.0	334.0	334.0	340.0	337.0	335.0	340.0	
Tue Jun 06 09:52:00 UTC 2017	0.0	1.047281664E9	2878.201416015625	0.0	2.5731072E7	0.0	2.0	1.05222144E9	44.000640869140625	0.0	0.0	1.047130112E9	1.037533184E9	0.0	0.0	0.08275000005960464	0.05225000157952309	0.04374999925494194	0.9925000071525574	0.786851167678833	0.0	244.0	371.0	0.0	0.0	0.0	0.0	0.0	0.0	null	null	null	null	null	null	null	null	337.0	331.0	337.0	331.0	331.0	337.0	336.0	334.0	337.0	335.0	333.0	
Tue Jun 06 09:51:00 UTC 2017	0.0	1.047281664E9	2878.201416015625	0.0	2.5731072E7	0.0	2.0	1.052311552E9	66.10379791259766	0.0	0.0	1.047130112E9	1.037533184E9	0.0	0.0	0.09825000166893005	0.04774999991059303	0.04975000023841858	0.9922500252723694	0.7868501543998718	0.0	244.0	371.0	0.0	0.0	0.0	0.0	0.0	0.0	null	null	null	null	null	null	null	null	333.0	331.0	330.0	322.0	322.0	322.0	332.0	319.0	319.0	326.0	324.0	
Tue Jun 06 09:50:00 UTC 2017	0.0	1.047281664E9	2878.201416015625	0.0	2.5731072E7	0.0	2.0	1.052471296E9	45.51918029785156	0.0	0.0	1.047130112E9	1.037533184E9	0.0	0.0	0.06949999928474426	0.05375000089406967	0.04650000110268593	0.9917500019073486	0.8081779479980469	0.0	244.0	371.0	0.0	0.0	0.0	0.0	0.0	0.0	null	null	null	null	null	null	null	null	323.0	324.0	322.0	336.0	334.0	333.0	327.0	332.0	335.0	332.0	330.0	
Tue Jun 06 09:49:00 UTC 2017	0.0	1.047281664E9	3022.41259765625	0.0	2.5731072E7	0.0	2.0	1.052381184E9	42.78828811645508	0.0	0.0	1.047130112E9	1.037533184E9	0.0	0.0	0.08275000005960464	0.051500000059604645	0.04800000041723251	0.9922500252723694	0.7867752909660339	0.0	244.0	371.0	0.0	0.0	0.0	0.0	0.0	0.0	null	null	null	null	null	null	null	null	332.0	336.0	337.0	339.0	338.0	336.0	334.0	335.0	334.0	332.0	335.0	
Tue Jun 06 09:48:00 UTC 2017	0.0	1.047281664E9	3022.41259765625	0.0	2.5731072E7	0.0	3.0	1.052381184E9	71.14886474609375	0.0	0.0	1.047130112E9	1.03856128E9	0.0	0.0	0.07225000113248825	0.0507499985396862	0.04625000059604645	0.9925000071525574	0.7866926193237305	0.0	244.0	371.0	0.0	0.0	0.0	0.0	0.0	0.0	null	null	null	null	null	null	null	null	337.0	335.0	335.0	332.0	335.0	337.0	335.0	336.0	336.0	336.0	338.0	
Tue Jun 06 09:47:00 UTC 2017	0.0	1.047281664E9	3022.41259765625	0.0	2.5731072E7	0.0	2.0	1.052172288E9	71.14886474609375	0.0	0.0	1.047130112E9	1.03856128E9	0.0	null	0.07199999690055847	0.0507499985396862	0.048500001430511475	0.9919999837875366	0.7866823673248291	0.0	244.0	371.0	0.0	0.0	0.0	0.0	0.0	0.0	null	null	null	null	null	null	null	null	336.0	339.0	335.0	336.0	336.0	332.0	337.0	333.0	334.0	334.0	333.0	
Tue Jun 06 09:46:00 UTC 2017	0.0	1.047281664E9	3107.72021484375	0.0	2.5731072E7	0.0	6.0	1.052172288E9	71.14886474609375	0.0	0.0	1.047130112E9	1.037533184E9	0.0	null	0.08224999904632568	0.0494999997317791	0.04349999874830246	0.9922500252723694	0.7866613268852234	0.0	244.0	371.0	0.0	0.0	0.0	0.0	0.0	0.0	null	null	null	null	null	null	null	null	334.0	333.0	334.0	334.0	337.0	337.0	336.0	337.0	336.0	334.0	336.0	
Tue Jun 06 09:45:00 UTC 2017	0.0	1.047281664E9	3107.72021484375	0.0	2.5731072E7	0.0	4.0	1.0522624E9	71.14886474609375	0.0	0.0	1.047130112E9	1.03856128E9	0.0	null	0.07800000160932541	0.05324999988079071	0.05000000074505806	0.9922500252723694	0.7866588830947876	0.0	244.0	371.0	0.0	0.0	0.0	0.0	0.0	0.0	null	null	null	null	null	null	null	null	335.0	337.0	336.0	336.0	334.0	334.0	336.0	336.0	336.0	336.0	337.0	
Tue Jun 06 09:44:00 UTC 2017	0.0	1.047281664E9	3107.72021484375	0.0	2.5731072E7	0.0	2.0	1.052172288E9	71.14886474609375	0.0	0.0	1.047130112E9	1.03856128E9	0.0	null	0.07524999976158142	0.04924999922513962	0.048500001430511475	0.9919999837875366	0.7890044450759888	0.0	244.0	371.0	0.0	0.0	0.0	0.0	0.0	0.0	null	null	null	null	null	null	null	null	336.0	334.0	332.0	337.0	338.0	334.0	336.0	334.0	332.0	339.0	334.0	
Tue Jun 06 09:43:00 UTC 2017	0.0	1.047281664E9	2334.030517578125	0.0	2.5731072E7	0.0	2.0	1.052172288E9	71.14886474609375	0.0	0.0	1.047130112E9	1.037533184E9	0.0	0.0	0.07699999958276749	0.05375000089406967	0.04924999922513962	0.9922500252723694	0.786716103553772	0.0	244.0	371.0	0.0	0.0	0.0	0.0	0.0	0.0	null	null	null	null	null	null	null	null	335.0	336.0	335.0	335.0	336.0	332.0	337.0	337.0	334.0	337.0	338.0	
Tue Jun 06 09:42:00 UTC 2017	0.0	1.047281664E9	2334.030517578125	0.0	2.5731072E7	0.0	5.0	1.052418048E9	71.14886474609375	0.0	0.0	1.047130112E9	1.03856128E9	0.0	0.0	0.06875000149011612	0.052000001072883606	0.042750000953674316	0.9922500252723694	0.7867136597633362	0.0	244.0	371.0	0.0	0.0	0.0	0.0	0.0	0.0	null	null	null	null	null	null	null	null	335.0	335.0	334.0	334.0	337.0	333.0	332.0	335.0	334.0	334.0	334.0	
Tue Jun 06 09:41:00 UTC 2017	0.0	1.047281664E9	2963.432373046875	0.0	2.5731072E7	0.0	3.0	1.052049408E9	71.14886474609375	0.0	0.0	1.047130112E9	1.03856128E9	0.0	0.0	0.10899999737739563	0.052000001072883606	0.05225000157952309	0.9922500252723694	0.7875997424125671	0.0	244.0	371.0	0.0	0.0	0.0	0.0	0.0	0.0	null	null	null	null	null	null	null	null	339.0	337.0	336.0	338.0	334.0	337.0	336.0	337.0	335.0	334.0	337.0	
Tue Jun 06 09:40:00 UTC 2017	0.0	1.047281664E9	3203.30419921875	0.0	2.5731072E7	0.0	2.0	1.052049408E9	58.837303161621094	0.0	0.0	1.047130112E9	1.03856128E9	0.0	0.0	0.07349999994039536	0.04874999821186066	0.04625000059604645	0.9922500252723694	0.7866799235343933	0.0	244.0	371.0	0.0	0.0	0.0	0.0	0.0	0.0	null	null	null	null	null	null	null	null	335.0	335.0	335.0	333.0	335.0	338.0	337.0	334.0	337.0	335.0	332.0	
Tue Jun 06 09:39:00 UTC 2017	0.0	1.047281664E9	3141.262939453125	0.0	2.5731072E7	0.0	2.0	1.051959296E9	42.67584228515625	0.0	0.0	1.047130112E9	1.03856128E9	0.0	0.0	0.08049999922513962	0.054249998182058334	0.04574999958276749	0.9922500252723694	0.7868261933326721	0.0	244.0	371.0	0.0	0.0	0.0	0.0	0.0	0.0	null	null	null	null	null	null	null	null	338.0	334.0	336.0	334.0	335.0	332.0	333.0	334.0	338.0	335.0	338.0	
Tue Jun 06 09:38:00 UTC 2017	0.0	1.047281664E9	3141.262939453125	0.0	2.5731072E7	0.0	2.0	1.051959296E9	43.5244026184082	0.0	0.0	1.047130112E9	1.03856128E9	0.0	null	0.07599999755620956	0.05249999836087227	0.0442500002682209	0.9917500019073486	0.7867493629455566	0.0	244.0	371.0	0.0	0.0	0.0	0.0	0.0	0.0	null	null	null	null	null	null	null	null	334.0	335.0	334.0	338.0	336.0	337.0	338.0	338.0	332.0	337.0	335.0	
Tue Jun 06 09:37:00 UTC 2017	0.0	1.047281664E9	3141.262939453125	0.0	2.5731072E7	0.0	2.0	1.051746304E9	45.46524429321289	0.0	0.0	1.047130112E9	1.037533184E9	0.0	0.0	0.0742499977350235	0.04475000128149986	0.04675000160932541	0.9922500252723694	0.7867347002029419	0.0	244.0	371.0	0.0	0.0	0.0	0.0	0.0	0.0	null	null	null	null	null	null	null	null	337.0	336.0	336.0	333.0	338.0	332.0	336.0	332.0	336.0	338.0	334.0	
Tue Jun 06 09:36:00 UTC 2017	0.0	1.047281664E9	3141.262939453125	0.0	2.5731072E7	0.0	4.0	1.051836416E9	45.46524429321289	0.0	0.0	1.047130112E9	1.03856128E9	0.0	0.0	0.07074999809265137	0.05575000122189522	0.04399999976158142	0.9922500252723694	0.7867351770401001	0.0	244.0	371.0	0.0	0.0	0.0	0.0	0.0	0.0	null	null	null	null	null	null	null	null	335.0	337.0	336.0	339.0	335.0	336.0	337.0	338.0	336.0	336.0	336.0	
Tue Jun 06 09:35:00 UTC 2017	0.0	1.047281664E9	2428.25048828125	0.0	2.5731072E7	0.0	4.0	1.051836416E9	45.46524429321289	0.0	0.0	1.047130112E9	1.03856128E9	0.0	0.0	0.07599999755620956	0.04675000160932541	0.05025000125169754	0.9922500252723694	0.7867185473442078	0.0	244.0	371.0	0.0	0.0	0.0	0.0	0.0	0.0	null	null	null	null	null	null	null	null	333.0	336.0	332.0	333.0	333.0	335.0	333.0	335.0	336.0	332.0	337.0	
Tue Jun 06 09:34:00 UTC 2017	0.0	1.047281664E9	2384.2646484375	0.0	2.5731072E7	0.0	2.0	1.051746304E9	44.98487854003906	0.0	0.0	1.047130112E9	1.037533184E9	0.0	0.0	0.07850000262260437	0.05299999937415123	0.045499999076128006	0.9922500252723694	0.7867856025695801	0.0	244.0	371.0	0.0	0.0	0.0	0.0	0.0	0.0	null	null	null	null	null	null	null	null	335.0	337.0	337.0	337.0	339.0	333.0	338.0	332.0	334.0	339.0	332.0	
Tue Jun 06 09:33:00 UTC 2017	0.0	1.047281664E9	2384.2646484375	0.0	2.5731072E7	0.0	3.0	1.051746304E9	48.227901458740234	0.0	0.0	1.047130112E9	1.03856128E9	0.0	0.0	0.07500000298023224	0.05350000038743019	0.048500001430511475	0.9919999837875366	0.7867856025695801	0.0	244.0	371.0	0.0	0.0	0.0	0.0	0.0	0.0	null	null	null	null	null	null	null	null	336.0	334.0	333.0	336.0	336.0	334.0	334.0	336.0	335.0	335.0	337.0	
Tue Jun 06 09:32:00 UTC 2017	0.0	1.047281664E9	2384.2646484375	0.0	2.5731072E7	0.0	4.0	1.05199616E9	44.20429992675781	0.0	0.0	1.047130112E9	1.037533184E9	0.0	0.0	0.07699999958276749	0.054499998688697815	0.04399999976158142	0.9922500252723694	0.78905189037323	0.0	244.0	371.0	0.0	0.0	0.0	0.0	0.0	0.0	null	null	null	null	null	null	null	null	338.0	334.0	337.0	333.0	335.0	334.0	337.0	337.0	334.0	336.0	337.0	
Tue Jun 06 09:31:00 UTC 2017	0.0	1.047281664E9	2384.2646484375	0.0	2.5731072E7	0.0	3.0	1.051537408E9	54.68750762939453	0.0	0.0	1.047130112E9	1.037533184E9	0.0	0.0	0.09475000202655792	0.04874999821186066	0.04574999958276749	0.9925000071525574	0.7867503762245178	0.0	244.0	371.0	0.0	0.0	0.0	0.0	0.0	0.0	null	null	null	null	null	null	null	null	336.0	337.0	336.0	336.0	335.0	336.0	338.0	337.0	338.0	334.0	334.0	
Tue Jun 06 09:30:00 UTC 2017	0.0	1.047281664E9	2622.905517578125	0.0	2.5731072E7	0.0	2.0	1.05162752E9	54.68750762939453	0.0	0.0	1.047130112E9	1.037533184E9	0.0	null	0.0729999989271164	0.05249999836087227	0.04500000178813934	0.9922500252723694	0.7869030237197876	0.0	244.0	371.0	0.0	0.0	0.0	0.0	0.0	0.0	null	null	null	null	null	null	null	null	337.0	336.0	335.0	335.0	334.0	335.0	334.0	336.0	336.0	339.0	336.0	
Tue Jun 06 09:29:00 UTC 2017	0.0	1.047281664E9	2622.905517578125	0.0	2.5731072E7	0.0	4.0	1.051537408E9	54.68750762939453	0.0	0.0	1.047130112E9	1.03856128E9	0.0	null	0.08550000190734863	0.05050000175833702	0.04749999940395355	0.9922500252723694	0.7866148352622986	0.0	244.0	371.0	0.0	0.0	0.0	0.0	0.0	0.0	null	null	null	null	null	null	null	null	335.0	336.0	335.0	339.0	336.0	335.0	334.0	334.0	334.0	335.0	335.0	
Tue Jun 06 09:28:00 UTC 2017	0.0	1.047281664E9	2622.905517578125	0.0	2.5731072E7	0.0	2.0	1.051537408E9	54.68750762939453	0.0	0.0	1.047130112E9	1.037533184E9	0.0	null	0.07225000113248825	0.054499998688697815	0.04774999991059303	0.9925000071525574	0.7865898609161377	0.0	244.0	371.0	0.0	0.0	0.0	0.0	0.0	0.0	null	null	null	null	null	null	null	null	333.0	336.0	337.0	336.0	335.0	336.0	336.0	333.0	336.0	337.0	338.0	
Tue Jun 06 09:27:00 UTC 2017	0.0	1.047281664E9	2730.348876953125	0.0	2.5731072E7	0.0	2.0	1.051324416E9	54.68750762939453	0.0	0.0	1.047130112E9	1.03856128E9	0.0	0.0	0.06849999725818634	0.04924999922513962	0.04600000008940697	0.9922500252723694	0.7888727784156799	0.0	244.0	371.0	0.0	0.0	0.0	0.0	0.0	0.0	null	null	null	null	null	null	null	null	338.0	335.0	338.0	337.0	337.0	336.0	338.0	331.0	337.0	333.0	335.0	
Tue Jun 06 09:26:00 UTC 2017	0.0	1.047281664E9	2730.348876953125	0.0	2.5731072E7	0.0	2.0	1.051324416E9	52.22492980957031	0.0	0.0	1.047130112E9	1.037533184E9	0.0	0.0	0.07699999958276749	0.04774999991059303	0.04374999925494194	0.9922500252723694	0.786562442779541	0.0	244.0	371.0	0.0	0.0	0.0	0.0	0.0	0.0	null	null	null	null	null	null	null	null	333.0	336.0	338.0	334.0	337.0	337.0	335.0	332.0	337.0	334.0	332.0	
Tue Jun 06 09:25:00 UTC 2017	0.0	1.047281664E9	2730.348876953125	0.0	2.5731072E7	0.0	2.0	1.051414528E9	52.22492980957031	0.0	0.0	1.047130112E9	1.03856128E9	0.0	0.0	0.08100000023841858	0.05274999886751175	0.04975000023841858	0.9919999837875366	0.7865834832191467	0.0	244.0	371.0	0.0	0.0	0.0	0.0	0.0	0.0	null	null	null	null	null	null	null	null	334.0	336.0	333.0	337.0	334.0	334.0	335.0	333.0	332.0	340.0	337.0	
Tue Jun 06 09:24:00 UTC 2017	0.0	1.047281664E9	2730.348876953125	0.0	2.5731072E7	0.0	2.0	1.051324416E9	45.24067687988281	0.0	0.0	1.047130112E9	1.037533184E9	0.0	0.0	0.0742499977350235	0.05375000089406967	0.04399999976158142	0.9922500252723694	0.7865585684776306	0.0	244.0	371.0	0.0	0.0	0.0	0.0	0.0	0.0	null	null	null	null	null	null	null	null	340.0	336.0	334.0	334.0	336.0	334.0	335.0	337.0	334.0	333.0	334.0	
Tue Jun 06 09:23:00 UTC 2017	0.0	1.047281664E9	2482.10546875	0.0	2.5731072E7	0.0	4.0	1.051324416E9	45.24067687988281	0.0	0.0	1.047130112E9	1.03856128E9	0.0	0.0	0.07774999737739563	0.05400000140070915	0.04724999889731407	0.9925000071525574	0.7888160347938538	0.0	244.0	371.0	0.0	0.0	0.0	0.0	0.0	0.0	null	null	null	null	null	null	null	null	335.0	336.0	334.0	339.0	335.0	337.0	334.0	334.0	339.0	339.0	338.0	
Tue Jun 06 09:22:00 UTC 2017	0.0	1.047281664E9	2482.10546875	0.0	2.5731072E7	0.0	2.0	1.051107328E9	35.95554733276367	0.0	0.0	1.047130112E9	1.03856128E9	0.0	0.0	0.07000000029802322	0.04699999839067459	0.04574999958276749	0.9925000071525574	0.786506712436676	0.0	244.0	371.0	0.0	0.0	0.0	0.0	0.0	0.0	null	null	null	null	null	null	null	null	337.0	337.0	338.0	332.0	334.0	334.0	337.0	335.0	336.0	335.0	336.0	
Tue Jun 06 09:21:00 UTC 2017	0.0	1.047281664E9	2858.25830078125	0.0	2.5731072E7	0.0	3.0	1.051107328E9	50.08831787109375	0.0	0.0	1.047130112E9	1.03856128E9	0.0	0.0	0.10374999791383743	0.05324999988079071	0.04924999922513962	0.9922500252723694	0.7878365516662598	0.0	244.0	371.0	0.0	0.0	0.0	0.0	0.0	0.0	null	null	null	null	null	null	null	null	335.0	332.0	339.0	340.0	338.0	332.0	335.0	337.0	337.0	334.0	337.0	
Tue Jun 06 09:20:00 UTC 2017	0.0	1.047281664E9	2858.25830078125	0.0	2.5731072E7	0.0	2.0	1.05119744E9	50.08831787109375	1.0	2.0	1.047130112E9	1.03856128E9	0.0	null	0.08474999666213989	0.052000001072883606	0.05050000175833702	0.9925000071525574	0.7864915132522583	0.0	244.0	371.0	0.0	0.0	0.0	0.0	0.0	0.0	null	null	null	null	null	null	null	null	336.0	338.0	335.0	334.0	337.0	337.0	338.0	331.0	335.0	340.0	331.0	
Tue Jun 06 09:19:00 UTC 2017	0.0	1.047281664E9	2858.25830078125	0.0	2.5731072E7	0.0	2.0	1.051107328E9	46.23234558105469	1.0	1.0	1.047130112E9	1.03856128E9	0.0	null	0.07000000029802322	0.05849999934434891	0.04774999991059303	0.9925000071525574	0.7864846587181091	0.0	244.0	371.0	0.0	0.0	0.0	0.0	0.0	0.0	null	null	null	null	null	null	null	null	335.0	333.0	336.0	332.0	334.0	338.0	334.0	338.0	335.0	335.0	336.0	
Tue Jun 06 09:18:00 UTC 2017	0.0	1.047281664E9	2858.25830078125	0.0	2.5731072E7	0.0	2.0	1.051107328E9	63.03636932373047	0.0	0.0	1.047130112E9	1.03856128E9	0.0	null	0.08449999988079071	0.05299999937415123	0.04125000163912773	0.9922500252723694	0.7864445447921753	0.0	244.0	371.0	0.0	0.0	0.0	0.0	0.0	0.0	null	null	null	null	null	null	null	null	337.0	335.0	336.0	338.0	340.0	337.0	338.0	332.0	334.0	336.0	335.0	
Tue Jun 06 09:17:00 UTC 2017	0.0	1.047281664E9	2858.25830078125	0.0	2.5731072E7	0.0	2.0	1.050894336E9	63.03636932373047	0.0	0.0	1.047130112E9	1.037533184E9	0.0	0.0	0.06674999743700027	0.04899999871850014	0.04749999940395355	0.9922500252723694	0.7864425778388977	0.0	244.0	371.0	0.0	0.0	0.0	0.0	0.0	0.0	null	null	null	null	null	null	null	null	332.0	337.0	337.0	333.0	334.0	332.0	330.0	335.0	334.0	337.0	339.0	
Tue Jun 06 09:16:00 UTC 2017	0.0	1.047281664E9	2858.25830078125	0.0	2.5731072E7	0.0	2.0	1.051009024E9	60.00653839111328	0.0	0.0	1.047130112E9	1.03856128E9	0.0	0.0	0.07699999958276749	0.050999999046325684	0.04975000023841858	0.9919999837875366	0.7864274382591248	0.0	244.0	371.0	0.0	0.0	0.0	0.0	0.0	0.0	null	null	null	null	null	null	null	null	337.0	335.0	334.0	336.0	333.0	335.0	338.0	337.0	339.0	333.0	336.0	
Tue Jun 06 09:15:00 UTC 2017	0.0	1.047281664E9	2404.505126953125	0.0	2.5731072E7	0.0	2.0	1.050984448E9	60.00653839111328	0.0	0.0	1.047130112E9	1.03856128E9	0.0	0.0	0.08174999803304672	0.050999999046325684	0.045249998569488525	0.9917500019073486	0.786422073841095	0.0	244.0	371.0	0.0	0.0	0.0	0.0	0.0	0.0	null	null	null	null	null	null	null	null	334.0	335.0	333.0	337.0	333.0	335.0	334.0	333.0	332.0	334.0	334.0	
Tue Jun 06 09:14:00 UTC 2017	0.0	1.047281664E9	2449.496337890625	0.0	2.5731072E7	0.0	2.0	1.050894336E9	30.46390151977539	0.0	0.0	1.047130112E9	1.037533184E9	0.0	0.0	0.07400000095367432	0.051249999552965164	0.04500000178813934	0.9919999837875366	0.7875067591667175	0.0	244.0	371.0	0.0	0.0	0.0	0.0	0.0	0.0	null	null	null	null	null	null	null	null	338.0	335.0	335.0	333.0	337.0	335.0	334.0	338.0	336.0	336.0	335.0	
Tue Jun 06 09:13:00 UTC 2017	0.0	1.047281664E9	2449.496337890625	0.0	2.5731072E7	0.0	3.0	1.050894336E9	52.419769287109375	0.0	0.0	1.047130112E9	1.037533184E9	0.0	0.0	0.07625000178813934	0.05700000002980232	0.041999999433755875	0.9922500252723694	0.7862762212753296	0.0	244.0	371.0	0.0	0.0	0.0	0.0	0.0	0.0	null	null	null	null	null	null	null	null	334.0	337.0	339.0	336.0	334.0	337.0	336.0	333.0	334.0	331.0	337.0	
Tue Jun 06 09:12:00 UTC 2017	0.0	1.047281664E9	2449.496337890625	0.0	2.5731072E7	0.0	3.0	1.05068544E9	45.522159576416016	0.0	0.0	1.047130112E9	1.037533184E9	0.0	0.0	0.07249999791383743	0.04625000059604645	0.04899999871850014	0.9917500019073486	0.7885406017303467	0.0	244.0	371.0	0.0	0.0	0.0	0.0	0.0	0.0	null	null	null	null	null	null	null	null	335.0	334.0	333.0	336.0	337.0	335.0	336.0	334.0	335.0	337.0	330.0	
Tue Jun 06 09:11:00 UTC 2017	0.0	1.047281664E9	3232.040771484375	0.0	2.5731072E7	0.0	2.0	1.05068544E9	45.522159576416016	0.0	0.0	1.047130112E9	1.037533184E9	0.0	0.0	0.09724999964237213	0.051249999552965164	0.04924999922513962	0.9917500019073486	0.7885210514068604	0.0	244.0	371.0	0.0	0.0	0.0	0.0	0.0	0.0	null	null	null	null	null	null	null	null	335.0	335.0	339.0	335.0	334.0	336.0	336.0	337.0	334.0	332.0	336.0	
Tue Jun 06 09:10:00 UTC 2017	0.0	1.047281664E9	2395.897705078125	0.0	2.5731072E7	0.0	3.0	1.051037696E9	45.161231994628906	0.0	0.0	1.047130112E9	1.037533184E9	0.0	0.0	0.07524999976158142	0.05299999937415123	0.04975000023841858	0.9917500019073486	0.7872176170349121	0.0	244.0	371.0	0.0	0.0	0.0	0.0	0.0	0.0	null	null	null	null	null	null	null	null	336.0	337.0	331.0	339.0	335.0	334.0	330.0	334.0	333.0	337.0	334.0	
Tue Jun 06 09:09:00 UTC 2017	0.0	1.047281664E9	2395.897705078125	0.0	2.5731072E7	0.0	2.0	1.050529792E9	45.78673553466797	0.0	0.0	1.047130112E9	1.037533184E9	0.0	null	0.08250000327825546	0.051249999552965164	0.041749998927116394	0.9917500019073486	0.7863535284996033	0.0	244.0	371.0	0.0	0.0	0.0	0.0	0.0	0.0	null	null	null	null	null	null	null	null	336.0	333.0	336.0	332.0	336.0	336.0	335.0	335.0	337.0	335.0	335.0	
Tue Jun 06 09:08:00 UTC 2017	0.0	1.047281664E9	2610.537353515625	0.0	2.5731072E7	0.0	2.0	1.050529792E9	54.118343353271484	0.0	0.0	1.047130112E9	1.03856128E9	0.0	0.0	0.07199999690055847	0.057999998331069946	0.04749999940395355	0.9922500252723694	0.7863374352455139	0.0	244.0	371.0	0.0	0.0	0.0	0.0	0.0	0.0	null	null	null	null	null	null	null	null	336.0	335.0	333.0	336.0	335.0	337.0	334.0	334.0	333.0	335.0	334.0	
Tue Jun 06 09:07:00 UTC 2017	0.0	1.047281664E9	2610.537353515625	0.0	2.5731072E7	0.0	2.0	1.050775552E9	54.118343353271484	0.0	0.0	1.047130112E9	1.037533184E9	0.0	0.0	0.07400000095367432	0.051249999552965164	0.0442500002682209	0.9919999837875366	0.7863168716430664	0.0	244.0	371.0	0.0	0.0	0.0	0.0	0.0	0.0	null	null	null	null	null	null	null	null	336.0	333.0	336.0	334.0	336.0	332.0	334.0	334.0	338.0	334.0	333.0	
Tue Jun 06 09:06:00 UTC 2017	0.0	1.047281664E9	2610.537353515625	0.0	2.5731072E7	0.0	3.0	1.0503168E9	55.9130973815918	0.0	0.0	1.047130112E9	1.03856128E9	0.0	0.0	0.07900000363588333	0.04774999991059303	0.04675000160932541	0.9917500019073486	0.7863178253173828	0.0	244.0	371.0	0.0	0.0	0.0	0.0	0.0	0.0	null	null	null	null	null	null	null	null	337.0	337.0	331.0	335.0	336.0	337.0	335.0	333.0	336.0	338.0	338.0	
Tue Jun 06 09:05:00 UTC 2017	0.0	1.047281664E9	2577.099609375	0.0	2.5731072E7	0.0	3.0	1.050406912E9	55.9130973815918	0.0	0.0	1.047130112E9	1.03856128E9	0.0	null	0.08399999886751175	0.05624999850988388	0.04574999958276749	0.9919999837875366	0.7862997055053711	0.0	244.0	371.0	0.0	0.0	0.0	0.0	0.0	0.0	null	null	null	null	null	null	null	null	330.0	333.0	337.0	336.0	335.0	332.0	333.0	337.0	334.0	331.0	334.0	
Tue Jun 06 09:04:00 UTC 2017	0.0	1.047281664E9	2819.521728515625	0.0	2.5731072E7	0.0	2.0	1.0503168E9	35.95612716674805	0.0	0.0	1.047130112E9	1.037533184E9	0.0	0.0	0.07050000131130219	0.04975000023841858	0.042750000953674316	0.9919999837875366	0.7862894535064697	0.0	244.0	371.0	0.0	0.0	0.0	0.0	0.0	0.0	null	null	null	null	null	null	null	null	338.0	335.0	333.0	338.0	336.0	337.0	333.0	333.0	338.0	336.0	334.0	
Tue Jun 06 09:03:00 UTC 2017	0.0	1.047281664E9	2741.107177734375	0.0	2.5731072E7	0.0	4.0	1.0503168E9	72.2496109008789	0.0	0.0	1.047130112E9	1.03856128E9	0.0	0.0	0.07824999839067459	0.05274999886751175	0.052000001072883606	0.9922500252723694	0.7862894535064697	0.0	244.0	371.0	0.0	0.0	0.0	0.0	0.0	0.0	null	null	null	null	null	null	null	null	332.0	335.0	335.0	335.0	332.0	334.0	335.0	337.0	331.0	334.0	336.0	
Tue Jun 06 09:02:00 UTC 2017	0.0	1.047281664E9	2741.107177734375	0.0	2.5731072E7	0.0	3.0	1.050103808E9	58.861759185791016	0.0	0.0	1.047130112E9	1.03856128E9	0.0	0.0	0.06925000250339508	0.04749999940395355	0.04475000128149986	0.9922500252723694	0.786271333694458	0.0	244.0	371.0	0.0	0.0	0.0	0.0	0.0	0.0	null	null	null	null	null	null	null	null	337.0	335.0	336.0	335.0	336.0	337.0	337.0	334.0	335.0	337.0	334.0	
Tue Jun 06 09:01:00 UTC 2017	0.0	1.047281664E9	2741.107177734375	0.0	2.5731072E7	0.0	2.0	1.050103808E9	58.861759185791016	0.0	0.0	1.047130112E9	1.03856128E9	0.0	0.0	0.10050000250339508	0.051249999552965164	0.045499999076128006	0.9922500252723694	0.7862385511398315	0.0	244.0	371.0	0.0	0.0	0.0	0.0	0.0	0.0	null	null	null	null	null	null	null	null	335.0	336.0	336.0	336.0	337.0	335.0	332.0	335.0	335.0	334.0	336.0	
Tue Jun 06 09:00:00 UTC 2017	0.0	1.047281664E9	2492.265869140625	0.0	2.5731072E7	0.0	3.0	1.05019392E9	58.861759185791016	0.0	0.0	1.047130112E9	1.037533184E9	0.0	null	0.0729999989271164	0.05350000038743019	0.04924999922513962	0.9922500252723694	0.7861749529838562	0.0	244.0	371.0	0.0	0.0	0.0	0.0	0.0	0.0	null	null	null	null	null	null	null	null	338.0	333.0	332.0	337.0	336.0	336.0	336.0	337.0	334.0	332.0	334.0	
Tue Jun 06 08:59:00 UTC 2017	0.0	1.047281664E9	2790.406982421875	0.0	2.5731072E7	0.0	2.0	1.050103808E9	58.861759185791016	0.0	0.0	1.047130112E9	1.037533184E9	0.0	null	0.07575000077486038	0.04975000023841858	0.04800000041723251	0.9922500252723694	0.7861578464508057	0.0	244.0	371.0	0.0	0.0	0.0	0.0	0.0	0.0	null	null	null	null	null	null	null	null	335.0	335.0	336.0	336.0	334.0	334.0	334.0	336.0	338.0	337.0	335.0	
Tue Jun 06 08:58:00 UTC 2017	0.0	1.047281664E9	2790.406982421875	0.0	2.5731072E7	0.0	3.0	1.050103808E9	58.861759185791016	0.0	0.0	1.047130112E9	1.03856128E9	0.0	0.0	0.07275000214576721	0.05274999886751175	0.045249998569488525	0.9917500019073486	0.7861427068710327	0.0	244.0	371.0	0.0	0.0	0.0	0.0	0.0	0.0	null	null	null	null	null	null	null	null	334.0	337.0	335.0	337.0	337.0	335.0	335.0	335.0	332.0	334.0	335.0	
Tue Jun 06 08:57:00 UTC 2017	0.0	1.047281664E9	2881.921142578125	0.0	2.5731072E7	0.0	4.0	1.050353664E9	58.861759185791016	0.0	0.0	1.047130112E9	1.037533184E9	0.0	0.0	0.07850000262260437	0.04724999889731407	0.04675000160932541	0.9915000200271606	0.7861358523368835	0.0	244.0	371.0	0.0	0.0	0.0	0.0	0.0	0.0	null	null	null	null	null	null	null	null	337.0	336.0	337.0	333.0	336.0	334.0	336.0	331.0	339.0	335.0	334.0	
Tue Jun 06 08:56:00 UTC 2017	0.0	1.047281664E9	2580.096435546875	0.0	2.5731072E7	0.0	4.0	1.049894912E9	51.55219650268555	0.0	0.0	1.047130112E9	1.03856128E9	0.0	0.0	0.0832500010728836	0.05674999952316284	0.04374999925494194	0.9922500252723694	0.7861201763153076	0.0	244.0	371.0	0.0	0.0	0.0	0.0	0.0	0.0	null	null	null	null	null	null	null	null	334.0	335.0	334.0	336.0	334.0	338.0	334.0	339.0	334.0	336.0	336.0	
Tue Jun 06 08:55:00 UTC 2017	0.0	1.047281664E9	2493.380126953125	0.0	2.5731072E7	0.0	3.0	1.049985024E9	51.55219650268555	0.0	0.0	1.047130112E9	1.03856128E9	0.0	0.0	0.0742499977350235	0.04625000059604645	0.0494999997317791	0.9919999837875366	0.7860956788063049	0.0	244.0	371.0	0.0	0.0	0.0	0.0	0.0	0.0	null	null	null	null	null	null	null	null	337.0	335.0	336.0	331.0	338.0	333.0	334.0	333.0	336.0	333.0	335.0	
Tue Jun 06 08:54:00 UTC 2017	0.0	1.047281664E9	3150.62353515625	0.0	2.5731072E7	0.0	3.0	1.049894912E9	51.433841705322266	0.0	0.0	1.047130112E9	1.037533184E9	0.0	0.0	0.06949999928474426	0.051750000566244125	0.048250000923871994	0.9919999837875366	0.7860922813415527	0.0	244.0	371.0	0.0	0.0	0.0	0.0	0.0	0.0	null	null	null	null	null	null	null	null	337.0	335.0	333.0	338.0	333.0	332.0	335.0	334.0	336.0	340.0	336.0	
Tue Jun 06 08:53:00 UTC 2017	0.0	1.047281664E9	3358.529541015625	0.0	2.5731072E7	0.0	6.0	1.049894912E9	51.433841705322266	0.0	0.0	1.047130112E9	1.03856128E9	0.0	0.0	0.07625000178813934	0.05550000071525574	0.054749999195337296	0.9919999837875366	0.7860629558563232	0.0	244.0	371.0	0.0	0.0	0.0	0.0	0.0	0.0	null	null	null	null	null	null	null	null	333.0	338.0	337.0	336.0	337.0	335.0	339.0	333.0	333.0	333.0	335.0	
Tue Jun 06 08:52:00 UTC 2017	0.0	1.047281664E9	3358.529541015625	0.0	2.5731072E7	0.0	3.0	1.050140672E9	51.433841705322266	0.0	0.0	1.047130112E9	1.037533184E9	0.0	0.0	0.10625000298023224	0.04749999940395355	0.0442500002682209	0.9922500252723694	0.7883297204971313	0.0	244.0	371.0	0.0	0.0	0.0	0.0	0.0	0.0	null	null	null	null	null	null	null	null	337.0	336.0	335.0	335.0	334.0	336.0	334.0	338.0	338.0	340.0	333.0	
Tue Jun 06 08:51:00 UTC 2017	0.0	1.047281664E9	3358.529541015625	0.0	2.5731072E7	0.0	2.0	1.04968192E9	51.433841705322266	0.0	0.0	1.047130112E9	1.03856128E9	0.0	0.0	0.10074999928474426	0.054499998688697815	0.04625000059604645	0.9922500252723694	0.7860316038131714	0.0	244.0	371.0	0.0	0.0	0.0	0.0	0.0	0.0	null	null	null	null	null	null	null	null	338.0	335.0	335.0	335.0	338.0	335.0	335.0	335.0	334.0	333.0	336.0	
Tue Jun 06 08:50:00 UTC 2017	0.0	1.047281664E9	3358.529541015625	0.0	2.5731072E7	0.0	2.0	1.049772032E9	51.433841705322266	0.0	0.0	1.047130112E9	1.03856128E9	0.0	0.0	0.07000000029802322	0.04800000041723251	0.04800000041723251	0.9919999837875366	0.7860105633735657	0.0	244.0	371.0	0.0	0.0	0.0	0.0	0.0	0.0	null	null	null	null	null	null	null	null	337.0	334.0	331.0	335.0	332.0	334.0	335.0	332.0	338.0	338.0	334.0	
Tue Jun 06 08:49:00 UTC 2017	0.0	1.047281664E9	2661.770751953125	0.0	2.5731072E7	0.0	2.0	1.04968192E9	55.87770462036133	0.0	0.0	1.047130112E9	1.037533184E9	0.0	0.0	0.07975000143051147	0.054749999195337296	0.04924999922513962	0.9919999837875366	0.7870894074440002	0.0	244.0	371.0	0.0	0.0	0.0	0.0	0.0	0.0	null	null	null	null	null	null	null	null	334.0	333.0	336.0	335.0	337.0	336.0	335.0	336.0	334.0	335.0	333.0	
Tue Jun 06 08:48:00 UTC 2017	0.0	1.047281664E9	2297.07470703125	0.0	2.5731072E7	0.0	2.0	1.04968192E9	39.26466369628906	0.0	0.0	1.047130112E9	1.03856128E9	0.0	0.0	0.07074999809265137	0.048250000923871994	0.03849999979138374	0.9917500019073486	0.7871897220611572	0.0	244.0	371.0	0.0	0.0	0.0	0.0	0.0	0.0	null	null	null	null	null	null	null	null	335.0	337.0	337.0	332.0	338.0	333.0	337.0	334.0	335.0	331.0	336.0	
Tue Jun 06 08:47:00 UTC 2017	0.0	1.047281664E9	3057.948974609375	0.0	2.5731072E7	0.0	3.0	1.049468928E9	39.26466369628906	0.0	0.0	1.047130112E9	1.037533184E9	0.0	0.0	0.07999999821186066	0.05624999850988388	0.05000000074505806	0.9915000200271606	0.7859963774681091	0.0	244.0	371.0	0.0	0.0	0.0	0.0	0.0	0.0	null	null	null	null	null	null	null	null	336.0	335.0	333.0	333.0	335.0	337.0	334.0	338.0	332.0	339.0	334.0	
Tue Jun 06 08:46:00 UTC 2017	0.0	1.047281664E9	3057.948974609375	0.0	2.5731072E7	0.0	4.0	1.049468928E9	50.599857330322266	0.0	0.0	1.047130112E9	1.037533184E9	0.0	0.0	0.07325000315904617	0.04899999871850014	0.0442500002682209	0.9922500252723694	0.7859792709350586	0.0	244.0	371.0	0.0	0.0	0.0	0.0	0.0	0.0	null	null	null	null	null	null	null	null	337.0	334.0	335.0	336.0	336.0	339.0	333.0	332.0	337.0	335.0	334.0	
Tue Jun 06 08:45:00 UTC 2017	0.0	1.047281664E9	2716.14208984375	0.0	2.5731072E7	0.0	4.0	1.04955904E9	50.599857330322266	0.0	0.0	1.047130112E9	1.037533184E9	0.0	0.0	0.07975000143051147	0.0560000017285347	0.04675000160932541	0.9919999837875366	0.7879226207733154	0.0	244.0	371.0	0.0	0.0	0.0	0.0	0.0	0.0	null	null	null	null	null	null	null	null	335.0	333.0	337.0	335.0	339.0	334.0	336.0	336.0	335.0	334.0	336.0	
Tue Jun 06 08:44:00 UTC 2017	0.0	1.047281664E9	2716.14208984375	0.0	2.5731072E7	0.0	2.0	1.049468928E9	50.599857330322266	0.0	0.0	1.047130112E9	1.037533184E9	0.0	0.0	0.07325000315904617	0.0442500002682209	0.04399999976158142	0.9922500252723694	0.7882304191589355	0.0	244.0	371.0	0.0	0.0	0.0	0.0	0.0	0.0	null	null	null	null	null	null	null	null	336.0	336.0	338.0	334.0	333.0	333.0	336.0	334.0	338.0	331.0	335.0	
Tue Jun 06 08:43:00 UTC 2017	0.0	1.047281664E9	2550.90283203125	0.0	2.5731072E7	0.0	2.0	1.049468928E9	50.599857330322266	0.0	0.0	1.047130112E9	1.037533184E9	0.0	0.0	0.07750000059604645	0.05375000089406967	0.04475000128149986	0.9919999837875366	0.7882171869277954	0.0	244.0	371.0	0.0	0.0	0.0	0.0	0.0	0.0	null	null	null	null	null	null	null	null	335.0	335.0	334.0	333.0	339.0	336.0	333.0	335.0	337.0	333.0	336.0	
Tue Jun 06 08:42:00 UTC 2017	0.0	1.047281664E9	2550.90283203125	0.0	2.5731072E7	0.0	3.0	1.049718784E9	50.599857330322266	0.0	0.0	1.047130112E9	1.03856128E9	0.0	0.0	0.07450000196695328	0.0560000017285347	0.048500001430511475	0.9917500019073486	0.7859126925468445	0.0	244.0	371.0	0.0	0.0	0.0	0.0	0.0	0.0	null	null	null	null	null	null	null	null	338.0	338.0	336.0	333.0	332.0	338.0	336.0	332.0	333.0	335.0	339.0	
Tue Jun 06 08:41:00 UTC 2017	0.0	1.047281664E9	2550.90283203125	0.0	2.5731072E7	0.0	3.0	1.049260032E9	55.904544830322266	0.0	0.0	1.047130112E9	1.037533184E9	0.0	0.0	0.10199999809265137	0.05225000157952309	0.04774999991059303	0.9919999837875366	0.7859092950820923	0.0	244.0	371.0	0.0	0.0	0.0	0.0	0.0	0.0	null	null	null	null	null	null	null	null	333.0	334.0	336.0	336.0	338.0	333.0	335.0	335.0	334.0	335.0	333.0	
Tue Jun 06 08:40:00 UTC 2017	0.0	1.047281664E9	2704.6328125	0.0	2.5731072E7	0.0	3.0	1.049350144E9	46.54732131958008	0.0	0.0	1.047130112E9	1.037533184E9	0.0	null	0.06624999642372131	0.04625000059604645	0.04675000160932541	0.9922500252723694	0.788178026676178	0.0	244.0	371.0	0.0	0.0	0.0	0.0	0.0	0.0	null	null	null	null	null	null	null	null	335.0	335.0	335.0	335.0	333.0	336.0	334.0	336.0	336.0	336.0	336.0	
Tue Jun 06 08:39:00 UTC 2017	0.0	1.047281664E9	2704.6328125	0.0	2.5731072E7	0.0	5.0	1.049260032E9	51.211944580078125	0.0	0.0	1.047130112E9	1.03856128E9	0.0	0.0	0.0754999965429306	0.05350000038743019	0.05400000140070915	0.9922500252723694	0.7858583927154541	0.0	244.0	371.0	0.0	0.0	0.0	0.0	0.0	0.0	null	null	null	null	null	null	null	null	335.0	335.0	332.0	337.0	340.0	337.0	335.0	336.0	333.0	338.0	334.0	
Tue Jun 06 08:38:00 UTC 2017	0.0	1.047281664E9	2652.22119140625	0.0	2.5731072E7	0.0	3.0	1.049260032E9	51.211944580078125	0.0	0.0	1.047130112E9	1.037533184E9	0.0	0.0	0.07850000262260437	0.048250000923871994	0.03999999910593033	0.9922500252723694	0.7858554720878601	0.0	244.0	371.0	0.0	0.0	0.0	0.0	0.0	0.0	null	null	null	null	null	null	null	null	333.0	334.0	335.0	335.0	334.0	336.0	336.0	338.0	336.0	333.0	337.0	
Tue Jun 06 08:37:00 UTC 2017	0.0	1.047281664E9	2503.987060546875	0.0	2.5731072E7	0.0	2.0	1.04904704E9	41.555782318115234	0.0	0.0	1.047130112E9	1.03856128E9	0.0	0.0	0.08049999922513962	0.051750000566244125	0.05025000125169754	0.9922500252723694	0.7858383655548096	0.0	244.0	371.0	0.0	0.0	0.0	0.0	0.0	0.0	null	null	null	null	null	null	null	null	336.0	336.0	335.0	337.0	335.0	336.0	336.0	335.0	339.0	333.0	335.0	
Tue Jun 06 08:36:00 UTC 2017	0.0	1.047281664E9	2503.987060546875	0.0	2.5731072E7	0.0	2.0	1.049137152E9	36.03357696533203	0.0	0.0	1.047130112E9	1.03856128E9	0.0	0.0	0.06350000202655792	0.05324999988079071	0.04600000008940697	0.9919999837875366	0.7878903746604919	0.0	244.0	371.0	0.0	0.0	0.0	0.0	0.0	0.0	null	null	null	null	null	null	null	null	337.0	335.0	334.0	334.0	337.0	336.0	337.0	337.0	332.0	337.0	336.0	
Tue Jun 06 08:35:00 UTC 2017	0.0	1.047281664E9	2503.987060546875	0.0	2.5731072E7	0.0	2.0	1.049137152E9	36.03357696533203	0.0	0.0	1.047130112E9	1.03856128E9	0.0	0.0	0.0807500034570694	0.05050000175833702	0.0494999997317791	0.9917500019073486	0.785820722579956	0.0	244.0	371.0	0.0	0.0	0.0	0.0	0.0	0.0	null	null	null	null	null	null	null	null	335.0	334.0	336.0	334.0	335.0	336.0	335.0	331.0	337.0	333.0	334.0	
Tue Jun 06 08:34:00 UTC 2017	0.0	1.047281664E9	2892.030517578125	0.0	2.5731072E7	0.0	2.0	1.04904704E9	55.95884323120117	0.0	0.0	1.047130112E9	1.037533184E9	0.0	0.0	0.07175000011920929	0.05375000089406967	0.04399999976158142	0.9922500252723694	0.7858060598373413	0.0	244.0	371.0	0.0	0.0	0.0	0.0	0.0	0.0	null	null	null	null	null	null	null	null	338.0	335.0	336.0	336.0	331.0	336.0	336.0	337.0	335.0	336.0	336.0	
Tue Jun 06 08:33:00 UTC 2017	0.0	1.047281664E9	2467.686767578125	0.0	2.5731072E7	0.0	2.0	1.04904704E9	48.24518585205078	0.0	0.0	1.047130112E9	1.037533184E9	0.0	0.0	0.07199999690055847	0.04899999871850014	0.04475000128149986	0.9919999837875366	0.7857850193977356	0.0	244.0	371.0	0.0	0.0	0.0	0.0	0.0	0.0	null	null	null	null	null	null	null	null	330.0	333.0	333.0	337.0	335.0	337.0	336.0	335.0	339.0	334.0	334.0	
Tue Jun 06 08:32:00 UTC 2017	0.0	1.047281664E9	2467.686767578125	0.0	2.5731072E7	0.0	4.0	1.0492928E9	48.24518585205078	0.0	0.0	1.047130112E9	1.037533184E9	0.0	0.0	0.07699999958276749	0.05375000089406967	0.04874999821186066	0.9919999837875366	0.7857967615127563	0.0	244.0	371.0	0.0	0.0	0.0	0.0	0.0	0.0	null	null	null	null	null	null	null	null	336.0	334.0	337.0	336.0	333.0	336.0	338.0	335.0	336.0	334.0	335.0	
Tue Jun 06 08:31:00 UTC 2017	0.0	1.047281664E9	2467.686767578125	0.0	2.5731072E7	0.0	5.0	1.048829952E9	51.38928985595703	0.0	0.0	1.047130112E9	1.037533184E9	0.0	0.0	0.11424999684095383	0.0507499985396862	0.045499999076128006	0.9922500252723694	0.7857776880264282	0.0	244.0	371.0	0.0	0.0	0.0	0.0	0.0	0.0	null	null	null	null	null	null	null	null	337.0	335.0	335.0	334.0	336.0	335.0	338.0	335.0	336.0	337.0	336.0	
Tue Jun 06 08:30:00 UTC 2017	0.0	1.047281664E9	3088.767578125	0.0	2.5731072E7	0.0	4.0	1.048920064E9	40.50020217895508	0.0	0.0	1.047130112E9	1.03856128E9	0.0	0.0	0.06624999642372131	0.05050000175833702	0.05025000125169754	0.9919999837875366	0.7857610583305359	0.0	244.0	371.0	0.0	0.0	0.0	0.0	0.0	0.0	null	null	null	null	null	null	null	null	332.0	335.0	336.0	330.0	336.0	337.0	336.0	335.0	333.0	334.0	336.0	
Tue Jun 06 08:29:00 UTC 2017	0.0	1.047281664E9	2753.22998046875	0.0	2.5731072E7	0.0	2.0	1.048829952E9	40.50020217895508	0.0	0.0	1.047130112E9	1.03856128E9	0.0	0.0	0.08224999904632568	0.04600000008940697	0.039250001311302185	0.9922500252723694	0.7857620120048523	0.0	244.0	371.0	0.0	0.0	0.0	0.0	0.0	0.0	null	null	null	null	null	null	null	null	335.0	336.0	336.0	335.0	333.0	336.0	335.0	335.0	339.0	335.0	336.0	
Tue Jun 06 08:28:00 UTC 2017	0.0	1.047281664E9	2456.003662109375	0.0	2.5731072E7	0.0	2.0	1.048834048E9	40.50020217895508	0.0	0.0	1.047130112E9	1.037533184E9	0.0	0.0	0.06674999743700027	0.05624999850988388	0.04500000178813934	0.9922500252723694	0.7857478260993958	0.0	244.0	371.0	0.0	0.0	0.0	0.0	0.0	0.0	null	null	null	null	null	null	null	null	336.0	337.0	336.0	338.0	338.0	336.0	335.0	335.0	335.0	338.0	336.0	
Tue Jun 06 08:27:00 UTC 2017	0.0	1.047281664E9	2808.40380859375	0.0	2.5731072E7	0.0	3.0	1.049083904E9	40.50020217895508	0.0	0.0	1.047130112E9	1.037533184E9	0.0	0.0	0.08399999886751175	0.04724999889731407	0.04774999991059303	0.9925000071525574	0.78572678565979	0.0	244.0	371.0	0.0	0.0	0.0	0.0	0.0	0.0	null	null	null	null	null	null	null	null	333.0	335.0	332.0	335.0	337.0	332.0	335.0	336.0	335.0	335.0	334.0	
Tue Jun 06 08:26:00 UTC 2017	0.0	1.047281664E9	3003.5986328125	0.0	2.5731072E7	0.0	2.0	1.048625152E9	50.22235107421875	0.0	0.0	1.047130112E9	1.03856128E9	0.0	0.0	0.06975000351667404	0.05025000125169754	0.04724999889731407	0.9922500252723694	0.7857179641723633	0.0	244.0	371.0	0.0	0.0	0.0	0.0	0.0	0.0	null	null	null	null	null	null	null	null	338.0	335.0	341.0	334.0	335.0	336.0	336.0	337.0	336.0	337.0	336.0	
Tue Jun 06 08:25:00 UTC 2017	0.0	1.047281664E9	3003.5986328125	0.0	2.5731072E7	0.0	2.0	1.048711168E9	50.22235107421875	0.0	0.0	1.047130112E9	1.037533184E9	0.0	0.0	0.07349999994039536	0.05350000038743019	0.045249998569488525	0.9922500252723694	0.7856910824775696	0.0	244.0	371.0	0.0	0.0	0.0	0.0	0.0	0.0	null	null	null	null	null	null	null	null	334.0	335.0	334.0	336.0	334.0	336.0	333.0	335.0	334.0	334.0	333.0	
Tue Jun 06 08:24:00 UTC 2017	0.0	1.047281664E9	2506.415771484375	0.0	2.5731072E7	0.0	2.0	1.048621056E9	39.318363189697266	0.0	0.0	1.047130112E9	1.037533184E9	0.0	0.0	0.07900000363588333	0.05274999886751175	0.0442500002682209	0.9922500252723694	0.7856695652008057	0.0	244.0	371.0	0.0	0.0	0.0	0.0	0.0	0.0	null	null	null	null	null	null	null	null	334.0	340.0	334.0	339.0	336.0	333.0	337.0	332.0	336.0	338.0	335.0	
Tue Jun 06 08:23:00 UTC 2017	0.0	1.047281664E9	2506.415771484375	0.0	2.5731072E7	0.0	2.0	1.04880128E9	43.72065734863281	0.0	0.0	1.047130112E9	1.037533184E9	0.0	0.0	0.07249999791383743	0.04899999871850014	0.039000000804662704	0.9922500252723694	0.7856857180595398	0.0	244.0	371.0	0.0	0.0	0.0	0.0	0.0	0.0	null	null	null	null	null	null	null	null	337.0	335.0	336.0	335.0	333.0	338.0	333.0	337.0	335.0	333.0	335.0	
Tue Jun 06 08:22:00 UTC 2017	0.0	1.047281664E9	2852.157470703125	0.0	2.5731072E7	0.0	4.0	1.048870912E9	99.19796752929688	1.0	0.0	1.047130112E9	1.037533184E9	0.0	0.0	0.07599999755620956	0.05249999836087227	0.04899999871850014	0.9925000071525574	0.7856636643409729	0.0	244.0	371.0	0.0	0.0	0.0	0.0	0.0	0.0	null	null	null	null	null	null	null	null	334.0	335.0	336.0	334.0	335.0	335.0	337.0	336.0	334.0	340.0	332.0	
Tue Jun 06 08:21:00 UTC 2017	0.0	1.047281664E9	2852.157470703125	0.0	2.5731072E7	0.0	2.0	1.048383488E9	53.15612030029297	0.0	0.0	1.047130112E9	1.037533184E9	0.0	0.0	0.09724999964237213	0.05225000157952309	0.04800000041723251	0.9922500252723694	0.7879324555397034	0.0	244.0	371.0	0.0	0.0	0.0	0.0	0.0	0.0	null	null	null	null	null	null	null	null	337.0	336.0	333.0	338.0	336.0	336.0	334.0	333.0	336.0	335.0	337.0	
Tue Jun 06 08:20:00 UTC 2017	0.0	1.047281664E9	2659.1015625	0.0	2.5731072E7	0.0	3.0	1.0484736E9	53.15612030029297	0.0	0.0	1.047130112E9	1.037533184E9	0.0	0.0	0.06724999845027924	0.048250000923871994	0.045249998569488525	0.9922500252723694	0.7876217365264893	0.0	244.0	371.0	0.0	0.0	0.0	0.0	0.0	0.0	null	null	null	null	null	null	null	null	333.0	336.0	337.0	335.0	334.0	332.0	336.0	338.0	337.0	333.0	336.0	
Tue Jun 06 08:19:00 UTC 2017	0.0	1.047281664E9	2659.1015625	0.0	2.5731072E7	0.0	4.0	1.048383488E9	53.15612030029297	0.0	0.0	1.047130112E9	1.037533184E9	0.0	0.0	0.07824999839067459	0.04749999940395355	0.04699999839067459	0.9922500252723694	0.7879079580307007	0.0	244.0	371.0	0.0	0.0	0.0	0.0	0.0	0.0	null	null	null	null	null	null	null	null	335.0	337.0	333.0	337.0	336.0	337.0	333.0	336.0	332.0	335.0	333.0	
Tue Jun 06 08:18:00 UTC 2017	0.0	1.047281664E9	2659.1015625	0.0	2.5731072E7	0.0	3.0	1.048383488E9	53.15612030029297	0.0	0.0	1.047130112E9	1.03856128E9	0.0	0.0	0.07999999821186066	0.05225000157952309	0.042750000953674316	0.9922500252723694	0.7856020331382751	0.0	244.0	371.0	0.0	0.0	0.0	0.0	0.0	0.0	null	null	null	null	null	null	null	null	335.0	337.0	339.0	333.0	335.0	335.0	340.0	335.0	334.0	336.0	337.0	
Tue Jun 06 08:17:00 UTC 2017	0.0	1.047281664E9	2659.1015625	0.0	2.5731072E7	0.0	2.0	1.048170496E9	37.914703369140625	0.0	0.0	1.047130112E9	1.03856128E9	0.0	null	0.07100000232458115	0.05050000175833702	0.04475000128149986	0.9922500252723694	0.786913275718689	0.0	244.0	371.0	0.0	0.0	0.0	0.0	0.0	0.0	null	null	null	null	null	null	null	null	340.0	334.0	333.0	335.0	336.0	336.0	336.0	335.0	339.0	339.0	335.0	
Tue Jun 06 08:16:00 UTC 2017	0.0	1.047281664E9	2501.10546875	0.0	2.5731072E7	0.0	2.0	1.048260608E9	37.914703369140625	0.0	0.0	1.047130112E9	1.037533184E9	0.0	null	0.07999999821186066	0.05400000140070915	0.0494999997317791	0.9922500252723694	0.7855814695358276	0.0	244.0	371.0	0.0	0.0	0.0	0.0	0.0	0.0	null	null	null	null	null	null	null	null	333.0	337.0	334.0	340.0	334.0	334.0	336.0	336.0	335.0	336.0	335.0	
Tue Jun 06 08:15:00 UTC 2017	0.0	1.047281664E9	2534.693115234375	0.0	2.5731072E7	0.0	2.0	1.048260608E9	37.914703369140625	0.0	0.0	1.047130112E9	1.03856128E9	0.0	null	0.0689999982714653	0.051500000059604645	0.04349999874830246	0.9919999837875366	0.7855526208877563	0.0	244.0	371.0	0.0	0.0	0.0	0.0	0.0	0.0	null	null	null	null	null	null	null	null	333.0	334.0	335.0	336.0	334.0	335.0	334.0	334.0	334.0	331.0	334.0	
Tue Jun 06 08:14:00 UTC 2017	0.0	1.047281664E9	2534.693115234375	0.0	2.5731072E7	0.0	2.0	1.048170496E9	37.914703369140625	0.0	0.0	1.047130112E9	1.037533184E9	0.0	null	0.07325000315904617	0.051249999552965164	0.04874999821186066	0.9922500252723694	0.7855541110038757	0.0	244.0	371.0	0.0	0.0	0.0	0.0	0.0	0.0	null	null	null	null	null	null	null	null	338.0	339.0	339.0	332.0	334.0	334.0	337.0	338.0	339.0	338.0	333.0	
Tue Jun 06 08:13:00 UTC 2017	0.0	1.047281664E9	2721.148193359375	0.0	2.5731072E7	0.0	4.0	1.048170496E9	37.914703369140625	0.0	0.0	1.047130112E9	1.03856128E9	0.0	0.0	0.0794999971985817	0.05274999886751175	0.04675000160932541	0.9919999837875366	0.7878193855285645	0.0	244.0	371.0	0.0	0.0	0.0	0.0	0.0	0.0	null	null	null	null	null	null	null	null	337.0	338.0	334.0	336.0	331.0	335.0	339.0	333.0	336.0	332.0	336.0	
Tue Jun 06 08:12:00 UTC 2017	0.0	1.047281664E9	2721.148193359375	0.0	2.5731072E7	0.0	3.0	1.048416256E9	37.914703369140625	0.0	0.0	1.047130112E9	1.037533184E9	0.0	0.0	0.07124999910593033	0.052000001072883606	0.045249998569488525	0.9919999837875366	0.7854875326156616	0.0	244.0	371.0	0.0	0.0	0.0	0.0	0.0	0.0	null	null	null	null	null	null	null	null	335.0	336.0	332.0	336.0	334.0	335.0	333.0	339.0	336.0	337.0	332.0	
Tue Jun 06 08:11:00 UTC 2017	0.0	1.047281664E9	2526.052490234375	0.0	2.5731072E7	0.0	3.0	1.047957504E9	37.914703369140625	0.0	0.0	1.047130112E9	1.037533184E9	0.0	0.0	0.1107499971985817	0.05324999988079071	0.04600000008940697	0.9919999837875366	0.785486102104187	0.0	244.0	371.0	0.0	0.0	0.0	0.0	0.0	0.0	null	null	null	null	null	null	null	null	332.0	333.0	335.0	338.0	334.0	336.0	336.0	332.0	332.0	335.0	340.0	
Tue Jun 06 08:10:00 UTC 2017	0.0	1.047281664E9	2526.052490234375	0.0	2.5731072E7	0.0	5.0	1.04830976E9	34.12844467163086	0.0	0.0	1.047130112E9	1.037533184E9	0.0	0.0	0.07800000160932541	0.05025000125169754	0.04724999889731407	0.9922500252723694	0.7854816913604736	0.0	244.0	371.0	0.0	0.0	0.0	0.0	0.0	0.0	null	null	null	null	null	null	null	null	339.0	337.0	336.0	334.0	332.0	335.0	337.0	337.0	335.0	333.0	333.0	
Tue Jun 06 08:09:00 UTC 2017	0.0	1.047281664E9	2526.052490234375	0.0	2.5731072E7	0.0	2.0	1.04810496E9	34.12844467163086	0.0	0.0	1.047130112E9	1.037533184E9	0.0	0.0	0.07000000029802322	0.05400000140070915	0.09224999696016312	0.9919999837875366	0.7854743599891663	0.0	244.0	371.0	0.0	0.0	0.0	0.0	0.0	0.0	null	null	null	null	null	null	null	null	332.0	335.0	336.0	337.0	332.0	335.0	340.0	336.0	336.0	337.0	333.0	
Tue Jun 06 08:08:00 UTC 2017	0.0	1.047281664E9	3375.553466796875	0.0	2.5731072E7	0.0	6.0	1.04822784E9	34.12844467163086	0.0	0.0	1.047130112E9	1.03856128E9	0.0	null	0.07074999809265137	0.050999999046325684	0.04399999976158142	0.9922500252723694	0.7854576706886292	0.0	244.0	371.0	0.0	0.0	0.0	0.0	0.0	0.0	null	null	null	null	null	null	null	null	336.0	336.0	333.0	335.0	335.0	334.0	335.0	333.0	340.0	332.0	336.0	
Tue Jun 06 08:07:00 UTC 2017	0.0	1.047281664E9	3375.553466796875	0.0	2.5731072E7	0.0	2.0	1.0484736E9	49.32530975341797	0.0	0.0	1.047130112E9	1.03856128E9	0.0	null	0.07824999839067459	0.0507499985396862	0.04650000110268593	0.9919999837875366	0.7876843810081482	0.0	244.0	371.0	0.0	0.0	0.0	0.0	0.0	0.0	null	null	null	null	null	null	null	null	338.0	336.0	338.0	336.0	336.0	336.0	334.0	337.0	333.0	336.0	336.0	
Tue Jun 06 08:06:00 UTC 2017	0.0	1.047281664E9	3375.553466796875	0.0	2.5731072E7	0.0	2.0	1.048014848E9	49.32530975341797	0.0	0.0	1.047130112E9	1.037533184E9	0.0	null	0.07175000011920929	0.04924999922513962	0.04899999871850014	0.9922500252723694	0.7854205369949341	0.0	244.0	371.0	0.0	0.0	0.0	0.0	0.0	0.0	null	null	null	null	null	null	null	null	335.0	338.0	334.0	336.0	336.0	336.0	335.0	334.0	336.0	334.0	330.0	
Tue Jun 06 08:05:00 UTC 2017	0.0	1.047281664E9	3375.553466796875	0.0	2.5731072E7	0.0	2.0	1.04810496E9	49.32530975341797	0.0	0.0	1.047130112E9	1.03856128E9	0.0	0.0	0.08174999803304672	0.054499998688697815	0.0494999997317791	0.9922500252723694	0.7853705883026123	0.0	244.0	371.0	0.0	0.0	0.0	0.0	0.0	0.0	null	null	null	null	null	null	null	null	334.0	336.0	335.0	333.0	333.0	336.0	336.0	334.0	336.0	336.0	337.0	
Tue Jun 06 08:04:00 UTC 2017	0.0	1.047281664E9	3146.10498046875	0.0	2.5731072E7	0.0	5.0	1.048014848E9	49.32530975341797	0.0	0.0	1.047130112E9	1.037533184E9	0.0	null	0.07349999994039536	0.05025000125169754	0.04975000023841858	0.9922500252723694	0.7853534817695618	0.0	244.0	371.0	0.0	0.0	0.0	0.0	0.0	0.0	null	null	null	null	null	null	null	null	334.0	334.0	334.0	335.0	336.0	336.0	334.0	336.0	337.0	331.0	333.0	
Tue Jun 06 08:03:00 UTC 2017	0.0	1.047281664E9	3146.10498046875	0.0	2.5731072E7	0.0	5.0	1.048014848E9	41.9741325378418	0.0	0.0	1.047130112E9	1.037533184E9	0.0	null	0.06825000047683716	0.04650000110268593	0.05324999988079071	0.9919999837875366	0.785338819026947	0.0	244.0	371.0	0.0	0.0	0.0	0.0	0.0	0.0	null	null	null	null	null	null	null	null	334.0	336.0	335.0	336.0	330.0	336.0	336.0	335.0	337.0	335.0	336.0	
Tue Jun 06 08:02:00 UTC 2017	0.0	1.047281664E9	3146.10498046875	0.0	2.5731072E7	0.0	2.0	1.047805952E9	41.9741325378418	0.0	0.0	1.047130112E9	1.03856128E9	0.0	null	0.07249999791383743	0.05849999934434891	0.04399999976158142	0.9919999837875366	0.78538578748703	0.0	244.0	371.0	0.0	0.0	0.0	0.0	0.0	0.0	null	null	null	null	null	null	null	null	337.0	337.0	336.0	334.0	334.0	337.0	337.0	335.0	335.0	335.0	335.0	
Tue Jun 06 08:01:00 UTC 2017	0.0	1.047281664E9	2909.519287109375	0.0	2.5731072E7	0.0	2.0	1.047805952E9	95.60182189941406	0.0	0.0	1.047130112E9	1.037533184E9	0.0	0.0	0.10949999839067459	0.050999999046325684	0.04800000041723251	0.9922500252723694	0.7853676676750183	0.0	244.0	371.0	0.0	0.0	0.0	0.0	0.0	0.0	null	null	null	null	null	null	null	null	338.0	335.0	337.0	339.0	338.0	335.0	333.0	329.0	332.0	334.0	336.0	
Tue Jun 06 08:00:00 UTC 2017	0.0	1.047281664E9	2704.7421875	0.0	2.5731072E7	0.0	2.0	1.047896064E9	38.2238655090332	1.0	2.0	1.047130112E9	1.03856128E9	0.0	0.0	0.07175000011920929	0.05849999934434891	0.04874999821186066	0.9922500252723694	0.7853495478630066	0.0	244.0	371.0	0.0	0.0	0.0	0.0	0.0	0.0	null	null	null	null	null	null	null	null	336.0	336.0	334.0	335.0	337.0	330.0	335.0	336.0	335.0	336.0	335.0	
Tue Jun 06 07:59:00 UTC 2017	0.0	1.047281664E9	2558.424560546875	0.0	2.5731072E7	0.0	2.0	1.047805952E9	55.638736724853516	1.0	1.0	1.047130112E9	1.03856128E9	0.0	0.0	0.07975000143051147	0.04924999922513962	0.04600000008940697	0.9919999837875366	0.7853456735610962	0.0	244.0	371.0	0.0	0.0	0.0	0.0	0.0	0.0	null	null	null	null	null	null	null	null	330.0	335.0	336.0	331.0	331.0	337.0	334.0	336.0	335.0	337.0	335.0	
Tue Jun 06 07:58:00 UTC 2017	0.0	1.047281664E9	2558.424560546875	0.0	2.5731072E7	0.0	2.0	1.047805952E9	46.8331184387207	1.0	2.0	1.047130112E9	1.03856128E9	0.0	0.0	0.07175000011920929	0.0572500005364418	0.04924999922513962	0.9919999837875366	0.7853231430053711	0.0	244.0	371.0	0.0	0.0	0.0	0.0	0.0	0.0	null	null	null	null	null	null	null	null	337.0	333.0	332.0	335.0	338.0	334.0	336.0	339.0	338.0	334.0	338.0	
Tue Jun 06 07:57:00 UTC 2017	0.0	1.047281664E9	2558.424560546875	0.0	2.5731072E7	0.0	3.0	1.048051712E9	46.8331184387207	2.0	2.0	1.047130112E9	1.037533184E9	0.0	0.0	0.07975000143051147	0.05375000089406967	0.05000000074505806	0.9922500252723694	0.7853031158447266	0.0	244.0	371.0	0.0	0.0	0.0	0.0	0.0	0.0	null	null	null	null	null	null	null	null	339.0	335.0	338.0	336.0	333.0	336.0	334.0	335.0	335.0	336.0	332.0	
Tue Jun 06 07:56:00 UTC 2017	0.0	1.047281664E9	3004.837646484375	0.0	2.5731072E7	0.0	2.0	1.04759296E9	43.75975799560547	0.0	1.0	1.047130112E9	1.037533184E9	0.0	null	0.07050000131130219	0.0572500005364418	0.0442500002682209	0.9919999837875366	0.7853094339370728	0.0	244.0	371.0	0.0	0.0	0.0	0.0	0.0	0.0	null	null	null	null	null	null	null	null	334.0	335.0	335.0	338.0	337.0	329.0	334.0	340.0	334.0	336.0	337.0	
Tue Jun 06 07:55:00 UTC 2017	0.0	1.047281664E9	2413.447509765625	0.0	2.5731072E7	0.0	2.0	1.047683072E9	43.75975799560547	0.0	0.0	1.047130112E9	1.03856128E9	0.0	null	0.07800000160932541	0.05249999836087227	0.0507499985396862	0.9919999837875366	0.7853080034255981	0.0	244.0	371.0	0.0	0.0	0.0	0.0	0.0	0.0	null	null	null	null	null	null	null	null	332.0	334.0	337.0	334.0	335.0	337.0	336.0	335.0	333.0	333.0	336.0	
Tue Jun 06 07:54:00 UTC 2017	0.0	1.047281664E9	2765.15576171875	0.0	2.5731072E7	0.0	2.0	1.04759296E9	38.78800964355469	0.0	0.0	1.047130112E9	1.037533184E9	0.0	null	0.06750000268220901	0.0507499985396862	0.04675000160932541	0.9919999837875366	0.7852928042411804	0.0	244.0	371.0	0.0	0.0	0.0	0.0	0.0	0.0	null	null	null	null	null	null	null	null	337.0	337.0	335.0	335.0	335.0	336.0	336.0	335.0	336.0	336.0	335.0	
Tue Jun 06 07:53:00 UTC 2017	0.0	1.047281664E9	2395.658203125	0.0	2.5731072E7	0.0	2.0	1.04759296E9	37.85916519165039	0.0	0.0	1.047130112E9	1.037533184E9	0.0	null	0.08100000023841858	0.04699999839067459	0.04724999889731407	0.9922500252723694	0.7852903604507446	0.0	244.0	371.0	0.0	0.0	0.0	0.0	0.0	0.0	null	null	null	null	null	null	null	null	337.0	332.0	336.0	334.0	337.0	336.0	334.0	337.0	338.0	332.0	332.0	
Tue Jun 06 07:52:00 UTC 2017	0.0	1.047281664E9	2395.658203125	0.0	2.5731072E7	0.0	2.0	1.04783872E9	55.3265380859375	0.0	0.0	1.047130112E9	1.03856128E9	0.0	null	0.07225000113248825	0.05375000089406967	0.04399999976158142	0.9922500252723694	0.7852756977081299	0.0	244.0	371.0	0.0	0.0	0.0	0.0	0.0	0.0	null	null	null	null	null	null	null	null	332.0	338.0	335.0	336.0	338.0	338.0	335.0	336.0	336.0	338.0	336.0	
Tue Jun 06 07:51:00 UTC 2017	0.0	1.047281664E9	2395.658203125	0.0	2.5731072E7	0.0	5.0	1.047560192E9	50.3980712890625	0.0	0.0	1.047130112E9	1.037533184E9	0.0	0.0	0.09799999743700027	0.05225000157952309	0.04699999839067459	0.9919999837875366	0.7875415086746216	0.0	244.0	371.0	0.0	0.0	0.0	0.0	0.0	0.0	null	null	null	null	null	null	null	null	335.0	335.0	335.0	337.0	334.0	334.0	337.0	334.0	334.0	332.0	335.0	
Tue Jun 06 07:50:00 UTC 2017	0.0	1.047281664E9	2876.242919921875	0.0	2.5731072E7	0.0	2.0	1.04747008E9	62.97947692871094	0.0	0.0	1.047130112E9	1.03856128E9	0.0	0.0	0.07500000298023224	0.051750000566244125	0.04975000023841858	0.9915000200271606	0.7852566242218018	0.0	244.0	371.0	0.0	0.0	0.0	0.0	0.0	0.0	null	null	null	null	null	null	null	null	334.0	335.0	334.0	331.0	334.0	335.0	335.0	335.0	333.0	338.0	334.0	
Tue Jun 06 07:49:00 UTC 2017	0.0	1.047281664E9	2946.662841796875	0.0	2.5731072E7	0.0	2.0	1.047379968E9	62.97947692871094	0.0	0.0	1.047130112E9	1.03856128E9	0.0	0.0	0.07249999791383743	0.048500001430511475	0.04924999922513962	0.9919999837875366	0.7852375507354736	0.0	244.0	371.0	0.0	0.0	0.0	0.0	0.0	0.0	null	null	null	null	null	null	null	null	333.0	335.0	335.0	338.0	333.0	335.0	334.0	335.0	334.0	335.0	337.0	
Tue Jun 06 07:48:00 UTC 2017	0.0	1.047281664E9	2946.662841796875	0.0	2.5731072E7	0.0	2.0	1.047379968E9	62.97947692871094	0.0	0.0	1.047130112E9	1.037533184E9	0.0	0.0	0.07074999809265137	0.050999999046325684	0.0442500002682209	0.9915000200271606	0.7874607443809509	0.0	244.0	371.0	0.0	0.0	0.0	0.0	0.0	0.0	null	null	null	null	null	null	null	null	337.0	333.0	332.0	335.0	337.0	335.0	334.0	336.0	336.0	333.0	333.0	
Tue Jun 06 07:47:00 UTC 2017	0.0	1.047281664E9	2994.521728515625	0.0	2.5731072E7	0.0	4.0	1.047629824E9	62.97947692871094	1.0	1.0	1.047130112E9	1.037533184E9	0.0	0.0	0.07774999737739563	0.05674999952316284	0.05324999988079071	0.9917500019073486	0.7851514220237732	0.0	244.0	371.0	0.0	0.0	0.0	0.0	0.0	0.0	null	null	null	null	null	null	null	null	332.0	336.0	335.0	333.0	336.0	335.0	335.0	335.0	332.0	334.0	336.0	
Tue Jun 06 07:46:00 UTC 2017	0.0	1.047281664E9	2994.521728515625	0.0	2.5731072E7	0.0	2.0	1.047261184E9	62.97947692871094	1.0	0.0	1.047130112E9	1.037533184E9	0.0	0.0	0.07999999821186066	0.054999999701976776	0.042750000953674316	0.9917500019073486	0.7866681814193726	0.0	244.0	371.0	0.0	0.0	0.0	0.0	0.0	0.0	null	null	null	null	null	null	null	null	335.0	334.0	338.0	335.0	336.0	334.0	335.0	335.0	337.0	336.0	333.0	
Tue Jun 06 07:45:00 UTC 2017	0.0	1.047281664E9	2810.852783203125	0.0	2.5731072E7	0.0	2.0	1.047261184E9	62.97947692871094	2.0	1.0	1.047130112E9	1.03856128E9	0.0	0.0	0.0689999982714653	0.050999999046325684	0.051500000059604645	0.9912499785423279	0.7870204448699951	0.0	244.0	371.0	0.0	0.0	0.0	0.0	0.0	0.0	null	null	null	null	null	null	null	null	335.0	333.0	332.0	336.0	335.0	335.0	330.0	334.0	335.0	335.0	338.0	
Tue Jun 06 07:44:00 UTC 2017	0.0	1.047281664E9	2810.852783203125	0.0	2.5731072E7	0.0	2.0	1.047351296E9	62.97947692871094	1.0	0.0	1.047130112E9	1.03856128E9	0.0	0.0	0.0702499970793724	0.06400000303983688	0.04625000059604645	0.9919999837875366	0.785056471824646	0.0	244.0	371.0	0.0	0.0	0.0	0.0	0.0	0.0	null	null	null	null	null	null	null	null	334.0	336.0	334.0	336.0	336.0	337.0	336.0	333.0	333.0	336.0	335.0	
Tue Jun 06 07:43:00 UTC 2017	0.0	1.047281664E9	2810.852783203125	0.0	2.5731072E7	0.0	3.0	1.047171072E9	62.97947692871094	0.0	0.0	1.047130112E9	1.037533184E9	0.0	0.0	0.07999999821186066	0.048250000923871994	0.04625000059604645	0.9922500252723694	0.7873266935348511	0.0	244.0	371.0	0.0	0.0	0.0	0.0	0.0	0.0	null	null	null	null	null	null	null	null	340.0	337.0	334.0	334.0	333.0	336.0	339.0	336.0	335.0	333.0	335.0	
Tue Jun 06 07:42:00 UTC 2017	0.0	1.047281664E9	2843.671142578125	0.0	2.5731072E7	0.0	5.0	1.046953984E9	46.2056770324707	1.0	0.0	1.047130112E9	1.03856128E9	0.0	0.0	0.0742499977350235	0.05225000157952309	0.04924999922513962	0.9922500252723694	0.7850256562232971	0.0	244.0	371.0	0.0	0.0	0.0	0.0	0.0	0.0	null	null	null	null	null	null	null	null	335.0	336.0	336.0	334.0	338.0	336.0	333.0	334.0	334.0	339.0	333.0	
Tue Jun 06 07:41:00 UTC 2017	0.0	1.047281664E9	3246.010009765625	0.0	2.5731072E7	0.0	3.0	1.046953984E9	46.2056770324707	0.0	0.0	1.047130112E9	1.037533184E9	0.0	0.0	0.09799999743700027	0.05550000071525574	0.042750000953674316	0.9919999837875366	0.7850207686424255	0.0	244.0	371.0	0.0	0.0	0.0	0.0	0.0	0.0	null	null	null	null	null	null	null	null	337.0	334.0	335.0	334.0	337.0	331.0	337.0	339.0	334.0	336.0	337.0	
Tue Jun 06 07:40:00 UTC 2017	0.0	1.047281664E9	3246.010009765625	0.0	2.5731072E7	0.0	2.0	1.047044096E9	46.2056770324707	0.0	0.0	1.047130112E9	1.037533184E9	0.0	0.0	0.07649999856948853	0.04975000023841858	0.04924999922513962	0.9919999837875366	0.785003662109375	0.0	244.0	371.0	0.0	0.0	0.0	0.0	0.0	0.0	null	null	null	null	null	null	null	null	336.0	334.0	333.0	334.0	335.0	338.0	336.0	334.0	335.0	336.0	334.0	
Tue Jun 06 07:39:00 UTC 2017	0.0	1.047281664E9	2634.52783203125	0.0	2.5731072E7	0.0	3.0	1.046953984E9	47.87091827392578	1.0	0.0	1.047130112E9	1.03856128E9	0.0	0.0	0.0807500034570694	0.05350000038743019	0.05050000175833702	0.9915000200271606	0.7849845886230469	0.0	244.0	371.0	0.0	0.0	0.0	0.0	0.0	0.0	null	null	null	null	null	null	null	null	333.0	338.0	331.0	336.0	333.0	335.0	334.0	330.0	332.0	332.0	337.0	
Tue Jun 06 07:38:00 UTC 2017	0.0	1.047281664E9	2634.52783203125	0.0	2.5731072E7	0.0	4.0	1.046953984E9	47.87091827392578	0.0	0.0	1.047130112E9	1.037533184E9	0.0	0.0	0.0677499994635582	0.0494999997317791	0.04675000160932541	0.9917500019073486	0.7849797010421753	0.0	244.0	371.0	0.0	0.0	0.0	0.0	0.0	0.0	null	null	null	null	null	null	null	null	338.0	333.0	333.0	334.0	335.0	333.0	335.0	338.0	335.0	332.0	332.0	
Tue Jun 06 07:37:00 UTC 2017	0.0	1.047281664E9	2634.52783203125	0.0	2.5731072E7	0.0	4.0	1.046859776E9	47.87091827392578	0.0	0.0	1.047130112E9	1.037533184E9	0.0	0.0	0.08250000327825546	0.048500001430511475	0.04924999922513962	0.9917500019073486	0.7849586606025696	0.0	244.0	371.0	0.0	0.0	0.0	0.0	0.0	0.0	null	null	null	null	null	null	null	null	332.0	336.0	334.0	339.0	331.0	336.0	335.0	338.0	336.0	335.0	335.0	
Tue Jun 06 07:36:00 UTC 2017	0.0	1.047281664E9	2388.58251953125	0.0	2.5731072E7	0.0	2.0	1.04687616E9	47.87091827392578	0.0	0.0	1.047130112E9	1.037533184E9	0.0	0.0	0.07524999976158142	0.05400000140070915	0.04675000160932541	0.9915000200271606	0.7849562168121338	0.0	244.0	371.0	0.0	0.0	0.0	0.0	0.0	0.0	null	null	null	null	null	null	null	null	335.0	331.0	333.0	336.0	335.0	333.0	336.0	332.0	333.0	337.0	337.0	
Tue Jun 06 07:35:00 UTC 2017	0.0	1.047281664E9	3388.907958984375	0.0	2.5731072E7	0.0	3.0	1.047085056E9	61.975120544433594	1.0	1.0	1.047130112E9	1.037533184E9	0.0	0.0	0.07050000131130219	0.050999999046325684	0.04600000008940697	0.9917500019073486	0.7849547266960144	0.0	244.0	371.0	0.0	0.0	0.0	0.0	0.0	0.0	null	null	null	null	null	null	null	null	337.0	337.0	334.0	334.0	335.0	336.0	337.0	335.0	334.0	334.0	337.0	
Tue Jun 06 07:34:00 UTC 2017	0.0	1.047281664E9	2651.599853515625	0.0	2.5731072E7	0.0	2.0	1.046994944E9	61.975120544433594	1.0	1.0	1.047130112E9	1.037533184E9	0.0	0.0	0.0729999989271164	0.057750001549720764	0.045499999076128006	0.9917500019073486	0.7849376201629639	0.0	244.0	371.0	0.0	0.0	0.0	0.0	0.0	0.0	null	null	null	null	null	null	null	null	333.0	333.0	337.0	337.0	335.0	334.0	333.0	336.0	331.0	332.0	335.0	
Tue Jun 06 07:33:00 UTC 2017	0.0	1.047281664E9	2651.599853515625	0.0	2.5731072E7	0.0	3.0	1.046994944E9	54.65721893310547	1.0	1.0	1.047130112E9	1.03856128E9	0.0	0.0	0.0754999965429306	0.057500001043081284	0.04924999922513962	0.9917500019073486	0.7849224209785461	0.0	244.0	371.0	0.0	0.0	0.0	0.0	0.0	0.0	null	null	null	null	null	null	null	null	339.0	337.0	334.0	332.0	333.0	332.0	335.0	331.0	339.0	337.0	336.0	
Tue Jun 06 07:32:00 UTC 2017	0.0	1.047281664E9	2478.663818359375	0.0	2.5731072E7	0.0	2.0	1.046724608E9	49.32459259033203	0.0	0.0	1.047130112E9	1.03856128E9	0.0	0.0	0.0767500028014183	0.04800000041723251	0.04650000110268593	0.9922500252723694	0.7849038243293762	0.0	244.0	371.0	0.0	0.0	0.0	0.0	0.0	0.0	null	null	null	null	null	null	null	null	332.0	333.0	333.0	336.0	339.0	336.0	332.0	339.0	334.0	334.0	333.0	
Tue Jun 06 07:31:00 UTC 2017	0.0	1.047281664E9	2860.423828125	0.0	2.5731072E7	0.0	3.0	1.046724608E9	58.53063201904297	0.0	0.0	1.047130112E9	1.037533184E9	0.0	0.0	0.09974999725818634	0.05575000122189522	0.05000000074505806	0.9919999837875366	0.784903347492218	0.0	244.0	371.0	0.0	0.0	0.0	0.0	0.0	0.0	null	null	null	null	null	null	null	null	336.0	334.0	335.0	334.0	332.0	337.0	339.0	331.0	331.0	337.0	335.0	
Tue Jun 06 07:30:00 UTC 2017	0.0	1.047281664E9	2860.423828125	0.0	2.5731072E7	0.0	2.0	1.04681472E9	58.53063201904297	0.0	0.0	1.047130112E9	1.037533184E9	0.0	0.0	0.07699999958276749	0.04975000023841858	0.04675000160932541	0.9919999837875366	0.7871833443641663	0.0	244.0	371.0	0.0	0.0	0.0	0.0	0.0	0.0	null	null	null	null	null	null	null	null	338.0	337.0	333.0	338.0	335.0	334.0	332.0	335.0	333.0	336.0	341.0	
Tue Jun 06 07:29:00 UTC 2017	0.0	1.047281664E9	2737.384033203125	0.0	2.5731072E7	0.0	2.0	1.046724608E9	58.53063201904297	1.0	0.0	1.047130112E9	1.03856128E9	0.0	0.0	0.07100000232458115	0.051750000566244125	0.04450000077486038	0.9919999837875366	0.7848940491676331	0.0	244.0	371.0	0.0	0.0	0.0	0.0	0.0	0.0	null	null	null	null	null	null	null	null	335.0	338.0	335.0	333.0	337.0	334.0	336.0	333.0	338.0	333.0	333.0	
Tue Jun 06 07:28:00 UTC 2017	0.0	1.047281664E9	3187.656494140625	0.0	2.5731072E7	0.0	2.0	1.046724608E9	61.4582405090332	2.0	1.0	1.047130112E9	1.03856128E9	0.0	0.0	0.08150000125169754	0.05900000035762787	0.05000000074505806	0.9915000200271606	0.7848691344261169	0.0	244.0	371.0	0.0	0.0	0.0	0.0	0.0	0.0	null	null	null	null	null	null	null	null	336.0	330.0	338.0	332.0	333.0	337.0	335.0	335.0	332.0	334.0	337.0	
Tue Jun 06 07:27:00 UTC 2017	0.0	1.047281664E9	2616.476318359375	0.0	2.5731072E7	0.0	4.0	1.046724608E9	61.4582405090332	0.0	1.0	1.047130112E9	1.037533184E9	0.0	0.0	0.0742499977350235	0.051500000059604645	0.0494999997317791	0.9917500019073486	0.7848548889160156	0.0	244.0	371.0	0.0	0.0	0.0	0.0	0.0	0.0	null	null	null	null	null	null	null	null	334.0	338.0	333.0	335.0	337.0	336.0	334.0	338.0	333.0	337.0	333.0	
Tue Jun 06 07:26:00 UTC 2017	0.0	1.047281664E9	2626.4267578125	0.0	2.5731072E7	0.0	3.0	1.046511616E9	37.659549713134766	0.0	0.0	1.047130112E9	1.03856128E9	0.0	0.0	0.06750000268220901	0.04650000110268593	0.04399999976158142	0.9917500019073486	0.7848338484764099	0.0	244.0	371.0	0.0	0.0	0.0	0.0	0.0	0.0	null	null	null	null	null	null	null	null	336.0	330.0	334.0	335.0	335.0	335.0	333.0	333.0	334.0	332.0	336.0	
Tue Jun 06 07:25:00 UTC 2017	0.0	1.047281664E9	2626.4267578125	0.0	2.5731072E7	0.0	3.0	1.046601728E9	37.659549713134766	0.0	0.0	1.047130112E9	1.037533184E9	0.0	0.0	0.08174999803304672	0.05649999901652336	0.051249999552965164	0.9917500019073486	0.7848363518714905	0.0	244.0	371.0	0.0	0.0	0.0	0.0	0.0	0.0	null	null	null	null	null	null	null	null	336.0	335.0	332.0	335.0	335.0	336.0	336.0	336.0	333.0	335.0	337.0	
Tue Jun 06 07:24:00 UTC 2017	0.0	1.047281664E9	2626.4267578125	0.0	2.5731072E7	0.0	2.0	1.046511616E9	46.28831481933594	0.0	0.0	1.047130112E9	1.037533184E9	0.0	0.0	0.0689999982714653	0.04800000041723251	0.04349999874830246	0.9919999837875366	0.7853593826293945	0.0	244.0	371.0	0.0	0.0	0.0	0.0	0.0	0.0	null	null	null	null	null	null	null	null	337.0	337.0	335.0	337.0	335.0	333.0	336.0	336.0	336.0	335.0	333.0	
Tue Jun 06 07:23:00 UTC 2017	0.0	1.047281664E9	2626.4267578125	0.0	2.5731072E7	0.0	3.0	1.046511616E9	40.933841705322266	0.0	0.0	1.047130112E9	1.03856128E9	0.0	0.0	0.07150000333786011	0.05025000125169754	0.04899999871850014	0.9922500252723694	0.7847898602485657	0.0	244.0	371.0	0.0	0.0	0.0	0.0	0.0	0.0	null	null	null	null	null	null	null	null	333.0	333.0	334.0	335.0	338.0	335.0	336.0	331.0	335.0	336.0	337.0	
Tue Jun 06 07:22:00 UTC 2017	0.0	1.047281664E9	2626.4267578125	0.0	2.5731072E7	0.0	3.0	1.046511616E9	34.691978454589844	0.0	0.0	1.047130112E9	1.037533184E9	0.0	0.0	0.0807500034570694	0.0572500005364418	0.04924999922513962	0.9919999837875366	0.7864797711372375	0.0	244.0	371.0	0.0	0.0	0.0	0.0	0.0	0.0	null	null	null	null	null	null	null	null	337.0	337.0	335.0	337.0	335.0	340.0	328.0	337.0	334.0	338.0	337.0	
Tue Jun 06 07:21:00 UTC 2017	0.0	1.047281664E9	3091.356201171875	0.0	2.5731072E7	0.0	4.0	1.046388736E9	34.691978454589844	0.0	0.0	1.047130112E9	1.037533184E9	0.0	0.0	0.10275000333786011	0.045499999076128006	0.04625000059604645	0.9919999837875366	0.7854684591293335	0.0	244.0	371.0	0.0	0.0	0.0	0.0	0.0	0.0	null	null	null	null	null	null	null	null	332.0	336.0	337.0	337.0	334.0	333.0	337.0	337.0	336.0	336.0	332.0	
Tue Jun 06 07:20:00 UTC 2017	0.0	1.047281664E9	3091.356201171875	0.0	2.5731072E7	0.0	2.0	1.046388736E9	47.93357467651367	0.0	0.0	1.047130112E9	1.03856128E9	0.0	0.0	0.07374999672174454	0.051500000059604645	0.04650000110268593	0.9922500252723694	0.7850594520568848	0.0	244.0	371.0	0.0	0.0	0.0	0.0	0.0	0.0	null	null	null	null	null	null	null	null	336.0	335.0	333.0	333.0	336.0	336.0	334.0	334.0	336.0	337.0	336.0	
Tue Jun 06 07:19:00 UTC 2017	0.0	1.047281664E9	3091.356201171875	0.0	2.5731072E7	0.0	2.0	1.046298624E9	47.93357467651367	0.0	0.0	1.047130112E9	1.03856128E9	0.0	0.0	0.07500000298023224	0.054749999195337296	0.04924999922513962	0.9922500252723694	0.784753143787384	0.0	244.0	371.0	0.0	0.0	0.0	0.0	0.0	0.0	null	null	null	null	null	null	null	null	335.0	335.0	335.0	337.0	333.0	337.0	332.0	335.0	336.0	337.0	336.0	
Tue Jun 06 07:18:00 UTC 2017	0.0	1.047281664E9	3295.203369140625	0.0	2.5731072E7	0.0	2.0	1.046298624E9	49.017147064208984	0.0	0.0	1.047130112E9	1.03856128E9	0.0	0.0	0.0729999989271164	0.05400000140070915	0.04475000128149986	0.9922500252723694	0.7847325801849365	0.0	244.0	371.0	0.0	0.0	0.0	0.0	0.0	0.0	null	null	null	null	null	null	null	null	336.0	333.0	336.0	336.0	336.0	334.0	334.0	337.0	332.0	335.0	330.0	
Tue Jun 06 07:17:00 UTC 2017	0.0	1.047281664E9	2726.18359375	0.0	2.5731072E7	0.0	2.0	1.046298624E9	48.81719970703125	0.0	0.0	1.047130112E9	1.03856128E9	0.0	0.0	0.06475000083446503	0.04650000110268593	0.04874999821186066	0.9922500252723694	0.7847340703010559	0.0	244.0	371.0	0.0	0.0	0.0	0.0	0.0	0.0	null	null	null	null	null	null	null	null	336.0	336.0	338.0	335.0	334.0	336.0	336.0	333.0	339.0	334.0	336.0	
Tue Jun 06 07:16:00 UTC 2017	0.0	1.047281664E9	3232.19970703125	0.0	2.5731072E7	0.0	5.0	1.04617984E9	48.10441970825195	0.0	0.0	1.047130112E9	1.03856128E9	0.0	0.0	0.08224999904632568	0.05299999937415123	0.048500001430511475	0.9919999837875366	0.7847164273262024	0.0	244.0	371.0	0.0	0.0	0.0	0.0	0.0	0.0	null	null	null	null	null	null	null	null	335.0	335.0	332.0	337.0	334.0	338.0	337.0	338.0	335.0	338.0	337.0	
Tue Jun 06 07:15:00 UTC 2017	0.0	1.047281664E9	3232.19970703125	0.0	2.5731072E7	0.0	4.0	1.04617984E9	48.10441970825195	1.0	0.0	1.047130112E9	1.037533184E9	0.0	0.0	0.07699999958276749	0.051750000566244125	0.050999999046325684	0.9922500252723694	0.7846964001655579	0.0	244.0	371.0	0.0	0.0	0.0	0.0	0.0	0.0	null	null	null	null	null	null	null	null	334.0	335.0	336.0	334.0	337.0	339.0	334.0	335.0	334.0	335.0	336.0	
Tue Jun 06 07:14:00 UTC 2017	0.0	1.047281664E9	2992.822265625	0.0	2.5731072E7	0.0	2.0	1.046089728E9	48.10441970825195	0.0	0.0	1.047130112E9	1.037533184E9	0.0	0.0	0.0702499970793724	0.05025000125169754	0.0442500002682209	0.9922500252723694	0.7846817374229431	0.0	244.0	371.0	0.0	0.0	0.0	0.0	0.0	0.0	null	null	null	null	null	null	null	null	334.0	334.0	334.0	334.0	334.0	335.0	332.0	334.0	336.0	337.0	333.0	
Tue Jun 06 07:13:00 UTC 2017	0.0	1.047281664E9	2992.822265625	0.0	2.5731072E7	0.0	3.0	1.046089728E9	48.10441970825195	0.0	0.0	1.047130112E9	1.03856128E9	0.0	0.0	0.0754999965429306	0.05525000020861626	0.04699999839067459	0.9922500252723694	0.786953866481781	0.0	244.0	371.0	0.0	0.0	0.0	0.0	0.0	0.0	null	null	null	null	null	null	null	null	337.0	337.0	337.0	337.0	334.0	338.0	334.0	335.0	335.0	338.0	335.0	
Tue Jun 06 07:12:00 UTC 2017	0.0	1.047281664E9	2992.822265625	0.0	2.5731072E7	0.0	4.0	1.045876736E9	50.926918029785156	0.0	0.0	1.047130112E9	1.03856128E9	0.0	0.0	0.07649999856948853	0.05849999934434891	0.048250000923871994	0.9922500252723694	0.7846479415893555	0.0	244.0	371.0	0.0	0.0	0.0	0.0	0.0	0.0	null	null	null	null	null	null	null	null	335.0	331.0	334.0	336.0	336.0	338.0	335.0	338.0	336.0	334.0	336.0	
Tue Jun 06 07:11:00 UTC 2017	0.0	1.047281664E9	2459.94970703125	0.0	2.5731072E7	0.0	4.0	1.045876736E9	52.079776763916016	0.0	0.0	1.047130112E9	1.03856128E9	0.0	null	0.09574999660253525	0.05025000125169754	0.04774999991059303	0.9919999837875366	0.7869167327880859	0.0	244.0	371.0	0.0	0.0	0.0	0.0	0.0	0.0	null	null	null	null	null	null	null	null	336.0	340.0	334.0	334.0	336.0	336.0	335.0	334.0	333.0	335.0	336.0	
Tue Jun 06 07:10:00 UTC 2017	0.0	1.047281664E9	2459.94970703125	0.0	2.5731072E7	0.0	3.0	1.04595456E9	52.079776763916016	0.0	0.0	1.047130112E9	1.037533184E9	0.0	0.0	0.06949999928474426	0.050999999046325684	0.04774999991059303	0.9922500252723694	0.7846910357475281	0.0	244.0	371.0	0.0	0.0	0.0	0.0	0.0	0.0	null	null	null	null	null	null	null	null	336.0	335.0	332.0	334.0	335.0	335.0	334.0	339.0	338.0	341.0	335.0	
Tue Jun 06 07:09:00 UTC 2017	0.0	1.047281664E9	2459.94970703125	0.0	2.5731072E7	0.0	5.0	1.045860352E9	47.71282958984375	0.0	0.0	1.047130112E9	1.03856128E9	0.0	0.0	0.07724999636411667	0.050999999046325684	0.052000001072883606	0.9922500252723694	0.784674346446991	0.0	244.0	371.0	0.0	0.0	0.0	0.0	0.0	0.0	null	null	null	null	null	null	null	null	334.0	333.0	335.0	340.0	337.0	336.0	335.0	334.0	333.0	337.0	334.0	
Tue Jun 06 07:08:00 UTC 2017	0.0	1.047281664E9	2459.94970703125	0.0	2.5731072E7	0.0	3.0	1.045860352E9	47.71282958984375	0.0	0.0	1.047130112E9	1.03856128E9	0.0	0.0	0.07800000160932541	0.04749999940395355	0.04500000178813934	0.9922500252723694	0.7846587300300598	0.0	244.0	371.0	0.0	0.0	0.0	0.0	0.0	0.0	null	null	null	null	null	null	null	null	337.0	336.0	334.0	336.0	337.0	336.0	335.0	335.0	333.0	335.0	334.0	
Tue Jun 06 07:07:00 UTC 2017	0.0	1.047281664E9	2459.94970703125	0.0	2.5731072E7	0.0	2.0	1.045860352E9	47.71282958984375	0.0	0.0	1.047130112E9	1.03856128E9	0.0	0.0	0.07625000178813934	0.054249998182058334	0.05025000125169754	0.9922500252723694	0.7846308350563049	0.0	244.0	371.0	0.0	0.0	0.0	0.0	0.0	0.0	null	null	null	null	null	null	null	null	337.0	336.0	340.0	336.0	334.0	336.0	335.0	337.0	333.0	335.0	333.0	
Tue Jun 06 07:06:00 UTC 2017	0.0	1.047281664E9	2459.94970703125	0.0	2.5731072E7	0.0	2.0	1.04564736E9	47.71282958984375	0.0	0.0	1.047130112E9	1.03856128E9	0.0	0.0	0.07824999839067459	0.05299999937415123	0.04475000128149986	0.9922500252723694	0.786907434463501	0.0	244.0	371.0	0.0	0.0	0.0	0.0	0.0	0.0	null	null	null	null	null	null	null	null	334.0	336.0	333.0	333.0	339.0	333.0	337.0	335.0	339.0	339.0	337.0	
Tue Jun 06 07:05:00 UTC 2017	0.0	1.047281664E9	2459.94970703125	0.0	2.5731072E7	0.0	2.0	1.045737472E9	47.71282958984375	0.0	0.0	1.047130112E9	1.03856128E9	0.0	0.0	0.06875000149011612	0.0507499985396862	0.048500001430511475	0.9919999837875366	0.7847281694412231	0.0	244.0	371.0	0.0	0.0	0.0	0.0	0.0	0.0	null	null	null	null	null	null	null	null	334.0	338.0	334.0	335.0	333.0	336.0	337.0	334.0	337.0	335.0	336.0	
Tue Jun 06 07:04:00 UTC 2017	0.0	1.047281664E9	2304.627685546875	0.0	2.5731072E7	0.0	2.0	1.04564736E9	47.71282958984375	0.0	0.0	1.047130112E9	1.03856128E9	0.0	0.0	0.07925000041723251	0.05249999836087227	0.04749999940395355	0.9922500252723694	0.7845818996429443	0.0	244.0	371.0	0.0	0.0	0.0	0.0	0.0	0.0	null	null	null	null	null	null	null	null	336.0	333.0	336.0	334.0	335.0	332.0	337.0	335.0	337.0	334.0	340.0	
Tue Jun 06 07:03:00 UTC 2017	0.0	1.047281664E9	2304.627685546875	0.0	2.5731072E7	0.0	2.0	1.04564736E9	47.71282958984375	0.0	0.0	1.047130112E9	1.037533184E9	0.0	0.0	0.06975000351667404	0.04874999821186066	0.050999999046325684	0.9925000071525574	0.7845843434333801	0.0	244.0	371.0	0.0	0.0	0.0	0.0	0.0	0.0	null	null	null	null	null	null	null	null	335.0	332.0	335.0	335.0	337.0	338.0	336.0	335.0	333.0	337.0	334.0	
Tue Jun 06 07:02:00 UTC 2017	0.0	1.047281664E9	3136.131591796875	0.0	2.5731072E7	0.0	5.0	1.04564736E9	47.71282958984375	1.0	2.0	1.047130112E9	1.037533184E9	0.0	0.0	0.08150000125169754	0.051500000059604645	0.04675000160932541	0.9925000071525574	0.7845643162727356	0.0	244.0	371.0	0.0	0.0	0.0	0.0	0.0	0.0	null	null	null	null	null	null	null	null	337.0	337.0	336.0	339.0	339.0	335.0	337.0	340.0	334.0	335.0	334.0	
Tue Jun 06 07:01:00 UTC 2017	0.0	1.047281664E9	2522.018310546875	0.0	2.5731072E7	0.0	2.0	1.04552448E9	51.45294189453125	0.0	0.0	1.047130112E9	1.037533184E9	0.0	0.0	0.0872500017285347	0.05550000071525574	0.048250000923871994	0.9922500252723694	0.7867763042449951	0.0	244.0	371.0	0.0	0.0	0.0	0.0	0.0	0.0	null	null	null	null	null	null	null	null	339.0	334.0	336.0	331.0	336.0	336.0	331.0	331.0	340.0	336.0	336.0	
Tue Jun 06 07:00:00 UTC 2017	0.0	1.047281664E9	3257.447021484375	0.0	2.5731072E7	0.0	2.0	1.04552448E9	41.56622314453125	0.0	0.0	1.047130112E9	1.03856128E9	0.0	0.0	0.0807500034570694	0.051249999552965164	0.045249998569488525	0.9925000071525574	0.7845442295074463	0.0	244.0	371.0	0.0	0.0	0.0	0.0	0.0	0.0	null	null	null	null	null	null	null	null	334.0	336.0	334.0	337.0	333.0	342.0	337.0	338.0	333.0	338.0	342.0	
Tue Jun 06 06:59:00 UTC 2017	0.0	1.047281664E9	2726.93017578125	0.0	2.5731072E7	0.0	2.0	1.045434368E9	41.56622314453125	0.0	0.0	1.047130112E9	1.03856128E9	0.0	0.0	0.0794999971985817	0.052000001072883606	0.04924999922513962	0.9919999837875366	0.7854885458946228	0.0	244.0	371.0	0.0	0.0	0.0	0.0	0.0	0.0	null	null	null	null	null	null	null	null	335.0	338.0	331.0	330.0	335.0	333.0	335.0	331.0	334.0	338.0	336.0	
Tue Jun 06 06:58:00 UTC 2017	0.0	1.047281664E9	2726.93017578125	0.0	2.5731072E7	0.0	2.0	1.045434368E9	56.9068717956543	1.0	1.0	1.047130112E9	1.03856128E9	0.0	0.0	0.0677499994635582	0.05274999886751175	0.04574999958276749	0.9922500252723694	0.7845280766487122	0.0	244.0	371.0	0.0	0.0	0.0	0.0	0.0	0.0	null	null	null	null	null	null	null	null	340.0	332.0	339.0	334.0	335.0	337.0	335.0	333.0	337.0	337.0	335.0	
Tue Jun 06 06:57:00 UTC 2017	0.0	1.047281664E9	2427.260498046875	0.0	2.5731072E7	0.0	2.0	1.045209088E9	48.19628143310547	1.0	1.0	1.047130112E9	1.037533184E9	0.0	0.0	0.08749999850988388	0.0625	0.048500001430511475	0.9922500252723694	0.7845618724822998	0.0	244.0	371.0	0.0	0.0	0.0	0.0	0.0	0.0	null	null	null	null	null	null	null	null	333.0	340.0	335.0	334.0	335.0	335.0	338.0	337.0	337.0	335.0	337.0	
Tue Jun 06 06:56:00 UTC 2017	0.0	1.047281664E9	2766.4658203125	0.0	2.5731072E7	0.0	5.0	1.045209088E9	48.19628143310547	0.0	0.0	1.047130112E9	1.037533184E9	0.0	0.0	0.0689999982714653	0.04650000110268593	0.045499999076128006	0.9922500252723694	0.7867919206619263	0.0	244.0	371.0	0.0	0.0	0.0	0.0	0.0	0.0	null	null	null	null	null	null	null	null	337.0	333.0	333.0	337.0	337.0	335.0	337.0	335.0	334.0	340.0	336.0	
Tue Jun 06 06:55:00 UTC 2017	0.0	1.047281664E9	2766.4658203125	0.0	2.5731072E7	0.0	2.0	1.0452992E9	48.19628143310547	0.0	0.0	1.047130112E9	1.03856128E9	0.0	0.0	0.07975000143051147	0.05550000071525574	0.051249999552965164	0.9922500252723694	0.7844889163970947	0.0	244.0	371.0	0.0	0.0	0.0	0.0	0.0	0.0	null	null	null	null	null	null	null	null	336.0	338.0	336.0	332.0	336.0	339.0	334.0	333.0	336.0	333.0	335.0	
Tue Jun 06 06:54:00 UTC 2017	0.0	1.047281664E9	2766.4658203125	0.0	2.5731072E7	0.0	2.0	1.045209088E9	50.49836349487305	0.0	0.0	1.047130112E9	1.03856128E9	0.0	0.0	0.06400000303983688	0.048250000923871994	0.04450000077486038	0.9919999837875366	0.7844864726066589	0.0	244.0	371.0	0.0	0.0	0.0	0.0	0.0	0.0	null	null	null	null	null	null	null	null	333.0	336.0	336.0	334.0	335.0	334.0	337.0	336.0	333.0	332.0	336.0	
Tue Jun 06 06:53:00 UTC 2017	0.0	1.047281664E9	2766.4658203125	0.0	2.5731072E7	0.0	3.0	1.045209088E9	42.77279281616211	1.0	1.0	1.047130112E9	1.03856128E9	0.0	0.0	0.08375000208616257	0.05550000071525574	0.04800000041723251	0.9922500252723694	0.7854694128036499	0.0	244.0	371.0	0.0	0.0	0.0	0.0	0.0	0.0	null	null	null	null	null	null	null	null	335.0	336.0	336.0	336.0	335.0	333.0	334.0	335.0	339.0	335.0	337.0	
Tue Jun 06 06:52:00 UTC 2017	0.0	1.047281664E9	3008.200439453125	0.0	2.5731072E7	0.0	6.0	1.045209088E9	42.77279281616211	0.0	0.0	1.047130112E9	1.037533184E9	0.0	0.0	0.06700000166893005	0.04874999821186066	0.052000001072883606	0.9922500252723694	0.7854660153388977	0.0	244.0	371.0	0.0	0.0	0.0	0.0	0.0	0.0	null	null	null	null	null	null	null	null	336.0	336.0	336.0	339.0	338.0	337.0	337.0	336.0	333.0	336.0	333.0	
Tue Jun 06 06:51:00 UTC 2017	0.0	1.047281664E9	3008.200439453125	0.0	2.5731072E7	0.0	6.0	1.045086208E9	43.50066375732422	1.0	1.0	1.047130112E9	1.037533184E9	0.0	0.0	0.10275000333786011	0.0507499985396862	0.054499998688697815	0.9925000071525574	0.7854508757591248	0.0	244.0	371.0	0.0	0.0	0.0	0.0	0.0	0.0	null	null	null	null	null	null	null	null	335.0	335.0	335.0	332.0	332.0	335.0	336.0	334.0	338.0	339.0	336.0	
Tue Jun 06 06:50:00 UTC 2017	0.0	1.047281664E9	3008.200439453125	0.0	2.5731072E7	0.0	2.0	1.045086208E9	43.50066375732422	0.0	0.0	1.047130112E9	1.037533184E9	0.0	0.0	0.07649999856948853	0.05575000122189522	0.04600000008940697	0.9925000071525574	0.7854381203651428	0.0	244.0	371.0	0.0	0.0	0.0	0.0	0.0	0.0	null	null	null	null	null	null	null	null	335.0	338.0	335.0	337.0	337.0	335.0	333.0	333.0	330.0	336.0	336.0	
Tue Jun 06 06:49:00 UTC 2017	0.0	1.047281664E9	2665.457763671875	0.0	2.5731072E7	0.0	2.0	1.044996096E9	42.006046295166016	0.0	0.0	1.047130112E9	1.037533184E9	0.0	0.0	0.07850000262260437	0.04675000160932541	0.05000000074505806	0.9919999837875366	0.7854366302490234	0.0	244.0	371.0	0.0	0.0	0.0	0.0	0.0	0.0	null	null	null	null	null	null	null	null	335.0	333.0	335.0	333.0	335.0	332.0	335.0	337.0	336.0	335.0	335.0	
Tue Jun 06 06:48:00 UTC 2017	0.0	1.047281664E9	2231.162841796875	0.0	2.5731072E7	0.0	2.0	1.044996096E9	51.03704071044922	0.0	0.0	1.047130112E9	1.037533184E9	0.0	0.0	0.07575000077486038	0.054749999195337296	0.04450000077486038	0.9919999837875366	0.7926074266433716	0.0	244.0	371.0	0.0	0.0	0.0	0.0	0.0	0.0	null	null	null	null	null	null	null	null	335.0	336.0	334.0	333.0	335.0	332.0	337.0	335.0	336.0	338.0	335.0	
Tue Jun 06 06:47:00 UTC 2017	0.0	1.047281664E9	2231.162841796875	0.0	2.5731072E7	0.0	2.0	1.044783104E9	51.03704071044922	0.0	0.0	1.047130112E9	1.037533184E9	0.0	null	0.07199999690055847	0.054499998688697815	0.04749999940395355	0.9919999837875366	0.7853872179985046	0.0	244.0	371.0	0.0	0.0	0.0	0.0	0.0	0.0	null	null	null	null	null	null	null	null	335.0	337.0	335.0	332.0	334.0	333.0	337.0	336.0	336.0	334.0	336.0	
Tue Jun 06 06:46:00 UTC 2017	0.0	1.047281664E9	2231.162841796875	0.0	2.5731072E7	0.0	2.0	1.044873216E9	51.03704071044922	0.0	0.0	1.047130112E9	1.03856128E9	0.0	0.0	0.06724999845027924	0.04899999871850014	0.045249998569488525	0.9922500252723694	0.7853696346282959	0.0	244.0	371.0	0.0	0.0	0.0	0.0	0.0	0.0	null	null	null	null	null	null	null	null	333.0	335.0	336.0	337.0	335.0	337.0	336.0	335.0	336.0	336.0	335.0	
Tue Jun 06 06:45:00 UTC 2017	0.0	1.047281664E9	3251.79443359375	0.0	2.5731072E7	0.0	3.0	1.044873216E9	36.61748123168945	0.0	0.0	1.047130112E9	1.037533184E9	0.0	0.0	0.08574999868869781	0.050999999046325684	0.04625000059604645	0.9919999837875366	0.7853593826293945	0.0	244.0	371.0	0.0	0.0	0.0	0.0	0.0	0.0	null	null	null	null	null	null	null	null	338.0	338.0	334.0	337.0	335.0	336.0	333.0	333.0	332.0	335.0	335.0	
Tue Jun 06 06:44:00 UTC 2017	0.0	1.047281664E9	2796.753173828125	0.0	2.5731072E7	0.0	3.0	1.044783104E9	35.42692184448242	1.0	0.0	1.047130112E9	1.037533184E9	0.0	0.0	0.07500000298023224	0.05350000038743019	0.04924999922513962	0.9917500019073486	0.785335898399353	0.0	244.0	371.0	0.0	0.0	0.0	0.0	0.0	0.0	null	null	null	null	null	null	null	null	335.0	333.0	336.0	335.0	338.0	334.0	337.0	335.0	333.0	333.0	333.0	
Tue Jun 06 06:43:00 UTC 2017	0.0	1.047281664E9	2393.206787109375	0.0	2.5731072E7	0.0	2.0	1.044783104E9	35.42692184448242	0.0	0.0	1.047130112E9	1.037533184E9	0.0	0.0	0.06849999725818634	0.052000001072883606	0.04574999958276749	0.9925000071525574	0.7853344082832336	0.0	244.0	371.0	0.0	0.0	0.0	0.0	0.0	0.0	null	null	null	null	null	null	null	null	335.0	336.0	335.0	333.0	337.0	335.0	337.0	338.0	335.0	336.0	339.0	
Tue Jun 06 06:42:00 UTC 2017	0.0	1.047281664E9	2670.766357421875	0.0	2.5731072E7	0.0	3.0	1.044783104E9	44.89729309082031	0.0	0.0	1.047130112E9	1.037533184E9	0.0	0.0	0.07275000214576721	0.054749999195337296	0.05025000125169754	0.9922500252723694	0.7853148579597473	0.0	244.0	371.0	0.0	0.0	0.0	0.0	0.0	0.0	null	null	null	null	null	null	null	null	335.0	336.0	334.0	337.0	333.0	336.0	334.0	335.0	338.0	337.0	337.0	
Tue Jun 06 06:41:00 UTC 2017	0.0	1.047281664E9	2670.766357421875	0.0	2.5731072E7	0.0	2.0	1.044574208E9	62.36497497558594	0.0	0.0	1.047130112E9	1.037533184E9	0.0	0.0	0.10350000113248825	0.045499999076128006	0.04724999889731407	0.9922500252723694	0.7852786183357239	0.0	244.0	371.0	0.0	0.0	0.0	0.0	0.0	0.0	null	null	null	null	null	null	null	null	337.0	336.0	336.0	337.0	338.0	336.0	334.0	333.0	336.0	333.0	333.0	
Tue Jun 06 06:40:00 UTC 2017	0.0	1.047281664E9	2224.57861328125	0.0	2.5731072E7	0.0	2.0	1.044779008E9	41.37153244018555	0.0	0.0	1.047130112E9	1.03856128E9	0.0	0.0	0.07824999839067459	0.054749999195337296	0.04749999940395355	0.9922500252723694	0.7852790951728821	0.0	244.0	371.0	0.0	0.0	0.0	0.0	0.0	0.0	null	null	null	null	null	null	null	null	333.0	333.0	338.0	336.0	334.0	334.0	336.0	338.0	335.0	339.0	337.0	
Tue Jun 06 06:39:00 UTC 2017	0.0	1.047281664E9	1769.0955810546875	0.0	2.5731072E7	0.0	2.0	1.044574208E9	57.964473724365234	0.0	0.0	1.047130112E9	1.03856128E9	0.0	0.0	0.07100000232458115	0.04699999839067459	0.05000000074505806	0.9919999837875366	0.7852604985237122	0.0	244.0	371.0	0.0	0.0	0.0	0.0	0.0	0.0	null	null	null	null	null	null	null	null	333.0	337.0	332.0	335.0	336.0	334.0	330.0	337.0	338.0	337.0	336.0	
Tue Jun 06 06:38:00 UTC 2017	0.0	1.047281664E9	1769.0955810546875	0.0	2.5731072E7	0.0	2.0	1.044574208E9	41.19648742675781	0.0	0.0	1.047130112E9	1.037533184E9	0.0	0.0	0.07975000143051147	0.057500001043081284	0.042249999940395355	0.9919999837875366	0.785254180431366	0.0	244.0	371.0	0.0	0.0	0.0	0.0	0.0	0.0	null	null	null	null	null	null	null	null	338.0	337.0	335.0	332.0	338.0	337.0	336.0	331.0	331.0	332.0	335.0	
Tue Jun 06 06:37:00 UTC 2017	0.0	1.047281664E9	2692.349609375	0.0	2.5731072E7	0.0	2.0	1.044361216E9	38.67267608642578	0.0	0.0	1.047130112E9	1.037533184E9	0.0	0.0	0.07150000333786011	0.050999999046325684	0.05225000157952309	0.9919999837875366	0.7875351309776306	0.0	244.0	371.0	0.0	0.0	0.0	0.0	0.0	0.0	null	null	null	null	null	null	null	null	333.0	336.0	339.0	336.0	332.0	336.0	335.0	338.0	335.0	338.0	334.0	
Tue Jun 06 06:36:00 UTC 2017	0.0	1.047281664E9	2692.349609375	0.0	2.5731072E7	0.0	2.0	1.044361216E9	38.67267608642578	0.0	0.0	1.047130112E9	1.03856128E9	0.0	0.0	0.07225000113248825	0.04749999940395355	0.04324999824166298	0.9919999837875366	0.7851871252059937	0.0	244.0	371.0	0.0	0.0	0.0	0.0	0.0	0.0	null	null	null	null	null	null	null	null	340.0	334.0	334.0	338.0	338.0	336.0	334.0	334.0	334.0	335.0	335.0	
Tue Jun 06 06:35:00 UTC 2017	0.0	1.047281664E9	2692.349609375	0.0	2.5731072E7	0.0	3.0	1.044451328E9	58.53777313232422	0.0	1.0	1.047130112E9	1.03856128E9	0.0	0.0	0.0794999971985817	0.04874999821186066	0.05000000074505806	0.9922500252723694	0.787477433681488	0.0	244.0	371.0	0.0	0.0	0.0	0.0	0.0	0.0	null	null	null	null	null	null	null	null	332.0	337.0	335.0	333.0	337.0	333.0	336.0	337.0	336.0	333.0	337.0	
Tue Jun 06 06:34:00 UTC 2017	0.0	1.047281664E9	2680.563720703125	0.0	2.5731072E7	0.0	3.0	1.044361216E9	39.47144317626953	0.0	1.0	1.047130112E9	1.037533184E9	0.0	0.0	0.06925000250339508	0.054749999195337296	0.0494999997317791	0.9919999837875366	0.7851900458335876	0.0	244.0	371.0	0.0	0.0	0.0	0.0	0.0	0.0	null	null	null	null	null	null	null	null	335.0	334.0	338.0	338.0	335.0	334.0	331.0	332.0	334.0	339.0	334.0	
Tue Jun 06 06:33:00 UTC 2017	0.0	1.047281664E9	2680.563720703125	0.0	2.5731072E7	0.0	2.0	1.044361216E9	62.133182525634766	0.0	1.0	1.047130112E9	1.037533184E9	0.0	0.0	0.07450000196695328	0.054999999701976776	0.04475000128149986	0.9922500252723694	0.7851709723472595	0.0	244.0	371.0	0.0	0.0	0.0	0.0	0.0	0.0	null	null	null	null	null	null	null	null	339.0	335.0	336.0	337.0	335.0	339.0	335.0	340.0	335.0	332.0	334.0	
Tue Jun 06 06:32:00 UTC 2017	0.0	1.047281664E9	2680.563720703125	0.0	2.5731072E7	0.0	2.0	1.044361216E9	43.2164421081543	1.0	1.0	1.047130112E9	1.03856128E9	0.0	0.0	0.07925000041723251	0.060499999672174454	0.051249999552965164	0.9922500252723694	0.7851543426513672	0.0	244.0	371.0	0.0	0.0	0.0	0.0	0.0	0.0	null	null	null	null	null	null	null	null	336.0	336.0	336.0	337.0	334.0	335.0	337.0	335.0	338.0	336.0	336.0	
Tue Jun 06 06:31:00 UTC 2017	0.0	1.047281664E9	2680.563720703125	0.0	2.5731072E7	0.0	4.0	1.044148224E9	44.43199157714844	0.0	0.0	1.047130112E9	1.03856128E9	0.0	0.0	0.10100000351667404	0.04899999871850014	0.0494999997317791	0.9919999837875366	0.7868222594261169	0.0	244.0	371.0	0.0	0.0	0.0	0.0	0.0	0.0	null	null	null	null	null	null	null	null	335.0	338.0	336.0	333.0	334.0	336.0	334.0	335.0	332.0	334.0	336.0	
Tue Jun 06 06:30:00 UTC 2017	0.0	1.047281664E9	2680.563720703125	0.0	2.5731072E7	0.0	2.0	1.044238336E9	44.43199157714844	1.0	1.0	1.047130112E9	1.037533184E9	0.0	null	0.0702499970793724	0.05400000140070915	0.0442500002682209	0.9922500252723694	0.7851337790489197	0.0	244.0	371.0	0.0	0.0	0.0	0.0	0.0	0.0	null	null	null	null	null	null	null	null	333.0	333.0	333.0	340.0	337.0	332.0	337.0	333.0	337.0	336.0	337.0	
Tue Jun 06 06:29:00 UTC 2017	0.0	1.047281664E9	2680.563720703125	0.0	2.5731072E7	0.0	2.0	1.044148224E9	42.06966018676758	1.0	1.0	1.047130112E9	1.037533184E9	0.0	null	0.07575000077486038	0.051249999552965164	0.04625000059604645	0.9922500252723694	0.7851181626319885	0.0	244.0	371.0	0.0	0.0	0.0	0.0	0.0	0.0	null	null	null	null	null	null	null	null	338.0	334.0	338.0	331.0	335.0	339.0	336.0	334.0	339.0	339.0	332.0	
Tue Jun 06 06:28:00 UTC 2017	0.0	1.047281664E9	2680.563720703125	0.0	2.5731072E7	0.0	4.0	1.044148224E9	42.06966018676758	0.0	0.0	1.047130112E9	1.03856128E9	0.0	null	0.07500000298023224	0.05350000038743019	0.04675000160932541	0.9922500252723694	0.7874040007591248	0.0	244.0	371.0	0.0	0.0	0.0	0.0	0.0	0.0	null	null	null	null	null	null	null	null	333.0	335.0	334.0	337.0	337.0	333.0	334.0	338.0	333.0	335.0	334.0	
Tue Jun 06 06:27:00 UTC 2017	0.0	1.047281664E9	3120.110107421875	0.0	2.5731072E7	0.0	2.0	1.043935232E9	42.118900299072266	0.0	0.0	1.047130112E9	1.037533184E9	0.0	0.0	0.07800000160932541	0.05700000002980232	0.05050000175833702	0.9922500252723694	0.7851773500442505	0.0	244.0	371.0	0.0	0.0	0.0	0.0	0.0	0.0	null	null	null	null	null	null	null	null	336.0	334.0	335.0	332.0	337.0	336.0	337.0	337.0	336.0	334.0	335.0	
Tue Jun 06 06:26:00 UTC 2017	0.0	1.047281664E9	3120.110107421875	0.0	2.5731072E7	0.0	2.0	1.043935232E9	38.94462966918945	2.0	2.0	1.047130112E9	1.03856128E9	0.0	0.0	0.07450000196695328	0.05550000071525574	0.0507499985396862	0.9919999837875366	0.7873712182044983	0.0	244.0	371.0	0.0	0.0	0.0	0.0	0.0	0.0	null	null	null	null	null	null	null	null	337.0	335.0	337.0	336.0	336.0	338.0	334.0	334.0	336.0	336.0	335.0	
Tue Jun 06 06:25:00 UTC 2017	0.0	1.047281664E9	2982.459716796875	0.0	2.5731072E7	0.0	2.0	1.044025344E9	48.315364837646484	1.0	2.0	1.047130112E9	1.03856128E9	0.0	0.0	0.0702499970793724	0.0494999997317791	0.045499999076128006	0.9919999837875366	0.7850799560546875	0.0	244.0	371.0	0.0	0.0	0.0	0.0	0.0	0.0	null	null	null	null	null	null	null	null	334.0	337.0	333.0	339.0	337.0	334.0	335.0	338.0	336.0	335.0	337.0	
Tue Jun 06 06:24:00 UTC 2017	0.0	1.047281664E9	2982.459716796875	0.0	2.5731072E7	0.0	2.0	1.043935232E9	44.86625289916992	0.0	0.0	1.047130112E9	1.037533184E9	0.0	0.0	0.06875000149011612	0.05274999886751175	0.04924999922513962	0.9919999837875366	0.7865678668022156	0.0	244.0	371.0	0.0	0.0	0.0	0.0	0.0	0.0	null	null	null	null	null	null	null	null	335.0	333.0	337.0	337.0	334.0	336.0	334.0	334.0	334.0	338.0	335.0	
Tue Jun 06 06:23:00 UTC 2017	0.0	1.047281664E9	2982.459716796875	0.0	2.5731072E7	0.0	2.0	1.043935232E9	40.76559066772461	0.0	0.0	1.047130112E9	1.037533184E9	0.0	0.0	0.08375000208616257	0.048500001430511475	0.04500000178813934	0.9922500252723694	0.7850359678268433	0.0	244.0	371.0	0.0	0.0	0.0	0.0	0.0	0.0	null	null	null	null	null	null	null	null	336.0	335.0	335.0	335.0	338.0	335.0	335.0	336.0	337.0	335.0	337.0	
Tue Jun 06 06:22:00 UTC 2017	0.0	1.047281664E9	2943.28466796875	0.0	2.5731072E7	0.0	3.0	1.043935232E9	51.15484619140625	0.0	0.0	1.047130112E9	1.03856128E9	0.0	0.0	0.07374999672174454	0.052000001072883606	0.04800000041723251	0.9922500252723694	0.785038411617279	0.0	244.0	371.0	0.0	0.0	0.0	0.0	0.0	0.0	null	null	null	null	null	null	null	null	337.0	336.0	333.0	336.0	339.0	335.0	335.0	336.0	335.0	337.0	334.0	
Tue Jun 06 06:21:00 UTC 2017	0.0	1.047281664E9	2943.28466796875	0.0	2.5731072E7	0.0	2.0	1.043816448E9	51.15484619140625	0.0	0.0	1.047130112E9	1.03856128E9	0.0	0.0	0.09149999916553497	0.05575000122189522	0.04924999922513962	0.9919999837875366	0.7864959239959717	0.0	244.0	371.0	0.0	0.0	0.0	0.0	0.0	0.0	null	null	null	null	null	null	null	null	336.0	336.0	334.0	335.0	336.0	334.0	332.0	335.0	337.0	338.0	336.0	
Tue Jun 06 06:20:00 UTC 2017	0.0	1.047281664E9	2824.389892578125	0.0	2.5731072E7	0.0	2.0	1.043816448E9	34.72513961791992	0.0	0.0	1.047130112E9	1.037533184E9	0.0	0.0	0.07925000041723251	0.04699999839067459	0.045249998569488525	0.9919999837875366	0.785015881061554	0.0	244.0	371.0	0.0	0.0	0.0	0.0	0.0	0.0	null	null	null	null	null	null	null	null	331.0	333.0	334.0	336.0	336.0	339.0	336.0	332.0	336.0	334.0	339.0	
Tue Jun 06 06:19:00 UTC 2017	0.0	1.047281664E9	2824.389892578125	0.0	2.5731072E7	0.0	7.0	1.04390656E9	49.13166809082031	0.0	0.0	1.047130112E9	1.037533184E9	0.0	null	0.08174999803304672	0.05299999937415123	0.045249998569488525	0.9922500252723694	0.78501296043396	0.0	244.0	371.0	0.0	0.0	0.0	0.0	0.0	0.0	null	null	null	null	null	null	null	null	337.0	336.0	335.0	337.0	336.0	334.0	336.0	338.0	337.0	335.0	332.0	
Tue Jun 06 06:18:00 UTC 2017	0.0	1.047281664E9	2824.389892578125	0.0	2.5731072E7	0.0	7.0	1.043726336E9	49.13166809082031	0.0	0.0	1.047130112E9	1.03856128E9	0.0	null	0.061500001698732376	0.048500001430511475	0.04975000023841858	0.9922500252723694	0.7849953174591064	0.0	244.0	371.0	0.0	0.0	0.0	0.0	0.0	0.0	null	null	null	null	null	null	null	null	335.0	336.0	337.0	336.0	335.0	337.0	331.0	335.0	337.0	335.0	338.0	
Tue Jun 06 06:17:00 UTC 2017	0.0	1.047281664E9	2995.511474609375	0.0	2.5731072E7	0.0	2.0	1.043726336E9	42.213008880615234	0.0	0.0	1.047130112E9	1.037533184E9	0.0	0.0	0.08550000190734863	0.051249999552965164	0.04349999874830246	0.9919999837875366	0.7849772572517395	0.0	244.0	371.0	0.0	0.0	0.0	0.0	0.0	0.0	null	null	null	null	null	null	null	null	339.0	336.0	336.0	334.0	335.0	332.0	337.0	334.0	336.0	336.0	332.0	
Tue Jun 06 06:16:00 UTC 2017	0.0	1.047281664E9	2626.625244140625	0.0	2.5731072E7	0.0	2.0	1.043513344E9	53.591087341308594	0.0	0.0	1.047130112E9	1.03856128E9	0.0	0.0	0.07275000214576721	0.05624999850988388	0.05025000125169754	0.9919999837875366	0.7849757671356201	0.0	244.0	371.0	0.0	0.0	0.0	0.0	0.0	0.0	null	null	null	null	null	null	null	null	333.0	335.0	336.0	332.0	339.0	334.0	335.0	339.0	334.0	333.0	340.0	
Tue Jun 06 06:15:00 UTC 2017	0.0	1.047281664E9	2626.625244140625	0.0	2.5731072E7	0.0	2.0	1.043603456E9	40.26866149902344	0.0	1.0	1.047130112E9	1.03856128E9	0.0	0.0	0.0767500028014183	0.051249999552965164	0.04574999958276749	0.9922500252723694	0.7849586606025696	0.0	244.0	371.0	0.0	0.0	0.0	0.0	0.0	0.0	null	null	null	null	null	null	null	null	338.0	339.0	334.0	337.0	333.0	339.0	336.0	333.0	336.0	337.0	337.0	
Tue Jun 06 06:14:00 UTC 2017	0.0	1.047281664E9	2626.625244140625	0.0	2.5731072E7	0.0	2.0	1.043513344E9	40.26866149902344	0.0	0.0	1.047130112E9	1.03856128E9	0.0	0.0	0.06324999779462814	0.05000000074505806	0.05324999988079071	0.9922500252723694	0.7849439382553101	0.0	244.0	371.0	0.0	0.0	0.0	0.0	0.0	0.0	null	null	null	null	null	null	null	null	335.0	334.0	333.0	336.0	339.0	334.0	337.0	338.0	338.0	333.0	333.0	
Tue Jun 06 06:13:00 UTC 2017	0.0	1.047281664E9	2626.625244140625	0.0	2.5731072E7	0.0	2.0	1.043513344E9	40.26866149902344	0.0	1.0	1.047130112E9	1.03856128E9	0.0	0.0	0.07975000143051147	0.05050000175833702	0.04349999874830246	0.9922500252723694	0.7849410176277161	0.0	244.0	371.0	0.0	0.0	0.0	0.0	0.0	0.0	null	null	null	null	null	null	null	null	338.0	335.0	338.0	331.0	336.0	337.0	335.0	334.0	334.0	337.0	336.0	
Tue Jun 06 06:12:00 UTC 2017	0.0	1.047281664E9	2626.625244140625	0.0	2.5731072E7	0.0	4.0	1.043693568E9	40.514713287353516	0.0	0.0	1.047130112E9	1.03856128E9	0.0	0.0	0.0832500010728836	0.05299999937415123	0.051750000566244125	0.9925000071525574	0.7849092483520508	0.0	244.0	371.0	0.0	0.0	0.0	0.0	0.0	0.0	null	null	null	null	null	null	null	null	335.0	336.0	335.0	336.0	341.0	337.0	331.0	335.0	339.0	335.0	334.0	
Tue Jun 06 06:11:00 UTC 2017	0.0	1.047281664E9	2626.625244140625	0.0	2.5731072E7	0.0	3.0	1.043300352E9	40.514713287353516	0.0	0.0	1.047130112E9	1.037533184E9	0.0	0.0	0.08775000274181366	0.05000000074505806	0.04500000178813934	0.9922500252723694	0.7848857641220093	0.0	244.0	371.0	0.0	0.0	0.0	0.0	0.0	0.0	null	null	null	null	null	null	null	null	332.0	331.0	341.0	336.0	339.0	339.0	333.0	338.0	335.0	336.0	335.0	
Tue Jun 06 06:10:00 UTC 2017	0.0	1.047281664E9	2375.291748046875	0.0	2.5731072E7	0.0	3.0	1.043652608E9	40.514713287353516	0.0	1.0	1.047130112E9	1.037533184E9	0.0	0.0	0.07074999809265137	0.05550000071525574	0.045499999076128006	0.9922500252723694	0.7848882079124451	0.0	244.0	371.0	0.0	0.0	0.0	0.0	0.0	0.0	null	null	null	null	null	null	null	null	334.0	337.0	333.0	335.0	335.0	336.0	335.0	337.0	336.0	336.0	335.0	
Tue Jun 06 06:09:00 UTC 2017	0.0	1.047281664E9	2669.1689453125	0.0	2.5731072E7	0.0	2.0	1.043140608E9	40.514713287353516	0.0	0.0	1.047130112E9	1.03856128E9	0.0	0.0	0.07575000077486038	0.04699999839067459	0.04924999922513962	0.9922500252723694	0.7848696112632751	0.0	244.0	371.0	0.0	0.0	0.0	0.0	0.0	0.0	null	null	null	null	null	null	null	null	338.0	334.0	336.0	332.0	336.0	334.0	336.0	335.0	336.0	335.0	339.0	
Tue Jun 06 06:08:00 UTC 2017	0.0	1.047281664E9	2669.1689453125	0.0	2.5731072E7	0.0	2.0	1.043140608E9	40.514713287353516	0.0	0.0	1.047130112E9	1.03856128E9	0.0	0.0	0.0794999971985817	0.05700000002980232	0.048500001430511475	0.9922500252723694	0.7858036160469055	0.0	244.0	371.0	0.0	0.0	0.0	0.0	0.0	0.0	null	null	null	null	null	null	null	null	334.0	335.0	335.0	336.0	336.0	340.0	332.0	336.0	334.0	336.0	335.0	
Tue Jun 06 06:07:00 UTC 2017	0.0	1.047281664E9	2669.1689453125	0.0	2.5731072E7	0.0	3.0	1.043140608E9	40.514713287353516	0.0	0.0	1.047130112E9	1.03856128E9	0.0	0.0	0.07474999874830246	0.04975000023841858	0.04874999821186066	0.9925000071525574	0.7848691344261169	0.0	244.0	371.0	0.0	0.0	0.0	0.0	0.0	0.0	null	null	null	null	null	null	null	null	335.0	335.0	334.0	336.0	334.0	337.0	334.0	336.0	334.0	337.0	334.0	
Tue Jun 06 06:06:00 UTC 2017	0.0	1.047281664E9	2669.1689453125	0.0	2.5731072E7	0.0	3.0	1.042931712E9	40.514713287353516	0.0	0.0	1.047130112E9	1.03856128E9	0.0	0.0	0.0689999982714653	0.05674999952316284	0.04600000008940697	0.9922500252723694	0.7847448587417603	0.0	244.0	371.0	0.0	0.0	0.0	0.0	0.0	0.0	null	null	null	null	null	null	null	null	337.0	341.0	338.0	334.0	334.0	335.0	339.0	335.0	340.0	334.0	342.0	
Tue Jun 06 06:05:00 UTC 2017	0.0	1.047281664E9	2599.8017578125	0.0	2.5731072E7	0.0	3.0	1.043021824E9	72.24581909179688	0.0	0.0	1.047130112E9	1.03856128E9	0.0	0.0	0.07599999755620956	0.05375000089406967	0.05025000125169754	0.9922500252723694	0.787013590335846	0.0	244.0	371.0	0.0	0.0	0.0	0.0	0.0	0.0	null	null	null	null	null	null	null	null	336.0	336.0	332.0	333.0	333.0	332.0	333.0	332.0	335.0	334.0	336.0	
Tue Jun 06 06:04:00 UTC 2017	0.0	1.047281664E9	2664.9697265625	0.0	2.5731072E7	0.0	2.0	1.042931712E9	72.24581909179688	0.0	0.0	1.047130112E9	1.03856128E9	0.0	0.0	0.07575000077486038	0.04650000110268593	0.0494999997317791	0.9919999837875366	0.7847252488136292	0.0	244.0	371.0	0.0	0.0	0.0	0.0	0.0	0.0	null	null	null	null	null	null	null	null	333.0	334.0	336.0	331.0	336.0	336.0	337.0	334.0	336.0	336.0	337.0	
Tue Jun 06 06:03:00 UTC 2017	0.0	1.047281664E9	2870.0478515625	0.0	2.5731072E7	0.0	3.0	1.042931712E9	47.433677673339844	0.0	0.0	1.047130112E9	1.03856128E9	0.0	0.0	0.07575000077486038	0.051500000059604645	0.0430000014603138	0.9919999837875366	0.7847046852111816	0.0	244.0	371.0	0.0	0.0	0.0	0.0	0.0	0.0	null	null	null	null	null	null	null	null	337.0	339.0	336.0	334.0	335.0	337.0	333.0	335.0	337.0	336.0	332.0	
Tue Jun 06 06:02:00 UTC 2017	0.0	1.047281664E9	2870.0478515625	0.0	2.5731072E7	0.0	2.0	1.042931712E9	47.433677673339844	0.0	0.0	1.047130112E9	1.03856128E9	0.0	0.0	0.07824999839067459	0.04899999871850014	0.04874999821186066	0.9922500252723694	0.7846846580505371	0.0	244.0	371.0	0.0	0.0	0.0	0.0	0.0	0.0	null	null	null	null	null	null	null	null	334.0	333.0	340.0	339.0	336.0	339.0	333.0	336.0	338.0	337.0	336.0	
Tue Jun 06 06:01:00 UTC 2017	0.0	1.047281664E9	2960.74755859375	0.0	2.5731072E7	0.0	3.0	1.042714624E9	54.263790130615234	0.0	0.0	1.047130112E9	1.03856128E9	0.0	0.0	0.10450000315904617	0.05225000157952309	0.04450000077486038	0.9922500252723694	0.784665584564209	0.0	244.0	371.0	0.0	0.0	0.0	0.0	0.0	0.0	null	null	null	null	null	null	null	null	336.0	339.0	333.0	334.0	334.0	332.0	334.0	336.0	332.0	335.0	336.0	
Tue Jun 06 06:00:00 UTC 2017	0.0	1.047281664E9	2960.74755859375	0.0	2.5731072E7	0.0	2.0	1.042804736E9	40.30034637451172	0.0	0.0	1.047130112E9	1.03856128E9	0.0	0.0	0.07225000113248825	0.05324999988079071	0.04975000023841858	0.9922500252723694	0.78685063123703	0.0	244.0	371.0	0.0	0.0	0.0	0.0	0.0	0.0	null	null	null	null	null	null	null	null	338.0	337.0	337.0	336.0	333.0	337.0	335.0	339.0	336.0	337.0	335.0	
Tue Jun 06 05:59:00 UTC 2017	0.0	1.047281664E9	2541.805419921875	0.0	2.5731072E7	0.0	2.0	1.042714624E9	52.775856018066406	0.0	0.0	1.047130112E9	1.03856128E9	0.0	0.0	0.07349999994039536	0.0507499985396862	0.04800000041723251	0.9917500019073486	0.7846484184265137	0.0	244.0	371.0	0.0	0.0	0.0	0.0	0.0	0.0	null	null	null	null	null	null	null	null	333.0	332.0	339.0	337.0	335.0	337.0	336.0	337.0	335.0	337.0	336.0	
Tue Jun 06 05:58:00 UTC 2017	0.0	1.047281664E9	3374.636474609375	0.0	2.5731072E7	0.0	2.0	1.042714624E9	52.775856018066406	0.0	0.0	1.047130112E9	1.03856128E9	0.0	0.0	0.07774999737739563	0.0507499985396862	0.04324999824166298	0.9925000071525574	0.7862282991409302	0.0	244.0	371.0	0.0	0.0	0.0	0.0	0.0	0.0	null	null	null	null	null	null	null	null	333.0	336.0	333.0	336.0	335.0	332.0	338.0	334.0	337.0	334.0	333.0	
Tue Jun 06 05:57:00 UTC 2017	0.0	1.047281664E9	3374.636474609375	0.0	2.5731072E7	0.0	2.0	1.042714624E9	54.30376434326172	0.0	0.0	1.047130112E9	1.03856128E9	0.0	0.0	0.07349999994039536	0.04650000110268593	0.04899999871850014	0.9922500252723694	0.7869196534156799	0.0	244.0	371.0	0.0	0.0	0.0	0.0	0.0	0.0	null	null	null	null	null	null	null	null	337.0	331.0	338.0	332.0	336.0	337.0	336.0	336.0	338.0	337.0	333.0	
Tue Jun 06 05:56:00 UTC 2017	0.0	1.047281664E9	3374.636474609375	0.0	2.5731072E7	0.0	2.0	1.042501632E9	54.30376434326172	0.0	0.0	1.047130112E9	1.037533184E9	0.0	0.0	0.07750000059604645	0.051249999552965164	0.04924999922513962	0.9922500252723694	0.78626549243927	0.0	244.0	371.0	0.0	0.0	0.0	0.0	0.0	0.0	null	null	null	null	null	null	null	null	334.0	337.0	334.0	335.0	335.0	338.0	337.0	335.0	333.0	335.0	336.0	
Tue Jun 06 05:55:00 UTC 2017	0.0	1.047281664E9	2701.015625	0.0	2.5731072E7	0.0	2.0	1.042591744E9	54.30376434326172	0.0	0.0	1.047130112E9	1.037533184E9	0.0	0.0	0.07175000011920929	0.05050000175833702	0.05025000125169754	0.9922500252723694	0.7846014499664307	0.0	244.0	371.0	0.0	0.0	0.0	0.0	0.0	0.0	null	null	null	null	null	null	null	null	337.0	335.0	337.0	335.0	334.0	336.0	338.0	338.0	336.0	338.0	337.0	
Tue Jun 06 05:54:00 UTC 2017	0.0	1.047281664E9	2528.202880859375	0.0	2.5731072E7	0.0	4.0	1.042501632E9	54.30376434326172	0.0	0.0	1.047130112E9	1.03856128E9	0.0	0.0	0.07874999940395355	0.05225000157952309	0.04699999839067459	0.9922500252723694	0.7845965623855591	0.0	244.0	371.0	0.0	0.0	0.0	0.0	0.0	0.0	null	null	null	null	null	null	null	null	338.0	334.0	336.0	334.0	336.0	336.0	333.0	332.0	336.0	333.0	334.0	
Tue Jun 06 05:53:00 UTC 2017	0.0	1.047281664E9	2647.045654296875	0.0	2.5731072E7	0.0	2.0	1.042501632E9	50.816043853759766	0.0	0.0	1.047130112E9	1.03856128E9	0.0	0.0	0.07150000333786011	0.05575000122189522	0.048250000923871994	0.9922500252723694	0.7845765352249146	0.0	244.0	371.0	0.0	0.0	0.0	0.0	0.0	0.0	null	null	null	null	null	null	null	null	333.0	334.0	335.0	339.0	334.0	337.0	338.0	336.0	335.0	334.0	334.0	
Tue Jun 06 05:52:00 UTC 2017	0.0	1.047281664E9	2647.045654296875	0.0	2.5731072E7	0.0	2.0	1.042501632E9	50.816043853759766	0.0	0.0	1.047130112E9	1.037533184E9	0.0	null	0.07275000214576721	0.04749999940395355	0.04399999976158142	0.9922500252723694	0.7845593690872192	0.0	244.0	371.0	0.0	0.0	0.0	0.0	0.0	0.0	null	null	null	null	null	null	null	null	336.0	335.0	337.0	335.0	335.0	337.0	335.0	332.0	336.0	337.0	335.0	
Tue Jun 06 05:51:00 UTC 2017	0.0	1.047281664E9	2351.312255859375	0.0	2.5731072E7	0.0	2.0	1.042292736E9	46.961429595947266	1.0	2.0	1.047130112E9	1.037533184E9	0.0	null	0.10175000131130219	0.051750000566244125	0.05299999937415123	0.9922500252723694	0.7846332788467407	0.0	244.0	371.0	0.0	0.0	0.0	0.0	0.0	0.0	null	null	null	null	null	null	null	null	334.0	337.0	337.0	333.0	334.0	336.0	336.0	339.0	337.0	335.0	336.0	
Tue Jun 06 05:50:00 UTC 2017	0.0	1.047281664E9	3340.42724609375	0.0	2.5731072E7	0.0	4.0	1.042382848E9	46.961429595947266	0.0	1.0	1.047130112E9	1.03856128E9	0.0	null	0.07175000011920929	0.05649999901652336	0.04650000110268593	0.9922500252723694	0.7845300436019897	0.0	244.0	371.0	0.0	0.0	0.0	0.0	0.0	0.0	null	null	null	null	null	null	null	null	336.0	334.0	335.0	335.0	335.0	334.0	338.0	337.0	334.0	331.0	336.0	
Tue Jun 06 05:49:00 UTC 2017	0.0	1.047281664E9	2501.69921875	0.0	2.5731072E7	0.0	2.0	1.042292736E9	49.68605422973633	1.0	1.0	1.047130112E9	1.037533184E9	0.0	0.0	0.0754999965429306	0.048250000923871994	0.04899999871850014	0.9922500252723694	0.7845085263252258	0.0	244.0	371.0	0.0	0.0	0.0	0.0	0.0	0.0	null	null	null	null	null	null	null	null	334.0	333.0	337.0	336.0	336.0	336.0	333.0	335.0	336.0	335.0	339.0	
Tue Jun 06 05:48:00 UTC 2017	0.0	1.047281664E9	2582.58544921875	0.0	2.5731072E7	0.0	2.0	1.042292736E9	49.68605422973633	1.0	1.0	1.047130112E9	1.03856128E9	0.0	0.0	0.08100000023841858	0.057999998331069946	0.04500000178813934	0.9925000071525574	0.7845026254653931	0.0	244.0	371.0	0.0	0.0	0.0	0.0	0.0	0.0	null	null	null	null	null	null	null	null	338.0	338.0	335.0	336.0	335.0	337.0	332.0	333.0	338.0	335.0	335.0	
Tue Jun 06 05:47:00 UTC 2017	0.0	1.047281664E9	2241.534912109375	0.0	2.5731072E7	0.0	3.0	1.04247296E9	57.09149932861328	0.0	0.0	1.047130112E9	1.03856128E9	0.0	0.0	0.06925000250339508	0.048250000923871994	0.04625000059604645	0.9925000071525574	0.7844855189323425	0.0	244.0	371.0	0.0	0.0	0.0	0.0	0.0	0.0	null	null	null	null	null	null	null	null	334.0	335.0	336.0	337.0	340.0	335.0	337.0	336.0	336.0	336.0	334.0	
Tue Jun 06 05:46:00 UTC 2017	0.0	1.047281664E9	2241.534912109375	0.0	2.5731072E7	0.0	2.0	1.042079744E9	57.09149932861328	0.0	0.0	1.047130112E9	1.03856128E9	0.0	0.0	0.07900000363588333	0.05400000140070915	0.051249999552965164	0.9922500252723694	0.7847242951393127	0.0	244.0	371.0	0.0	0.0	0.0	0.0	0.0	0.0	null	null	null	null	null	null	null	null	335.0	334.0	336.0	336.0	328.0	337.0	336.0	338.0	337.0	334.0	339.0	
Tue Jun 06 05:45:00 UTC 2017	0.0	1.047281664E9	2667.5537109375	0.0	2.5731072E7	0.0	2.0	1.042169856E9	53.416831970214844	1.0	0.0	1.047130112E9	1.037533184E9	0.0	0.0	0.07999999821186066	0.04924999922513962	0.04675000160932541	0.9922500252723694	0.7844625115394592	0.0	244.0	371.0	0.0	0.0	0.0	0.0	0.0	0.0	null	null	null	null	null	null	null	null	337.0	334.0	335.0	337.0	339.0	336.0	336.0	334.0	336.0	335.0	334.0	
Tue Jun 06 05:44:00 UTC 2017	0.0	1.047281664E9	3316.32177734375	0.0	2.5731072E7	0.0	2.0	1.042079744E9	44.69972229003906	1.0	0.0	1.047130112E9	1.037533184E9	0.0	null	0.0754999965429306	0.05025000125169754	0.041749998927116394	0.9919999837875366	0.7843945026397705	0.0	244.0	371.0	0.0	0.0	0.0	0.0	0.0	0.0	null	null	null	null	null	null	null	null	333.0	335.0	336.0	332.0	335.0	332.0	336.0	336.0	336.0	337.0	337.0	
Tue Jun 06 05:43:00 UTC 2017	0.0	1.047281664E9	2746.71044921875	0.0	2.5731072E7	0.0	2.0	1.042079744E9	44.69972229003906	0.0	0.0	1.047130112E9	1.037533184E9	0.0	null	0.06825000047683716	0.0507499985396862	0.0494999997317791	0.9922500252723694	0.7843822836875916	0.0	244.0	371.0	0.0	0.0	0.0	0.0	0.0	0.0	null	null	null	null	null	null	null	null	338.0	337.0	334.0	337.0	335.0	336.0	334.0	336.0	332.0	334.0	334.0	
Tue Jun 06 05:42:00 UTC 2017	0.0	1.047281664E9	3028.978515625	0.0	2.5731072E7	0.0	3.0	1.042079744E9	44.69972229003906	0.0	0.0	1.047130112E9	1.03856128E9	0.0	null	0.08624999970197678	0.04924999922513962	0.05000000074505806	0.9925000071525574	0.7843822836875916	0.0	244.0	371.0	0.0	0.0	0.0	0.0	0.0	0.0	null	null	null	null	null	null	null	null	336.0	333.0	334.0	336.0	333.0	336.0	335.0	337.0	337.0	334.0	338.0	
Tue Jun 06 05:41:00 UTC 2017	0.0	1.047281664E9	3028.978515625	0.0	2.5731072E7	0.0	3.0	1.041866752E9	44.69972229003906	0.0	0.0	1.047130112E9	1.03856128E9	0.0	null	0.09149999916553497	0.054499998688697815	0.04600000008940697	0.9925000071525574	0.7867127060890198	0.0	244.0	371.0	0.0	0.0	0.0	0.0	0.0	0.0	null	null	null	null	null	null	null	null	336.0	339.0	337.0	334.0	338.0	335.0	336.0	332.0	335.0	338.0	335.0	
Tue Jun 06 05:40:00 UTC 2017	0.0	1.047281664E9	3028.978515625	0.0	2.5731072E7	0.0	2.0	1.041956864E9	55.146812438964844	0.0	0.0	1.047130112E9	1.037533184E9	0.0	0.0	0.08025000244379044	0.04924999922513962	0.04625000059604645	0.9922500252723694	0.7843573093414307	0.0	244.0	371.0	0.0	0.0	0.0	0.0	0.0	0.0	null	null	null	null	null	null	null	null	333.0	335.0	333.0	336.0	338.0	338.0	335.0	336.0	338.0	332.0	333.0	
Tue Jun 06 05:39:00 UTC 2017	0.0	1.047281664E9	3002.51318359375	0.0	2.5731072E7	0.0	2.0	1.041866752E9	51.911460876464844	0.0	0.0	1.047130112E9	1.03856128E9	0.0	0.0	0.07225000113248825	0.05025000125169754	0.04874999821186066	0.9925000071525574	0.7843548655509949	0.0	244.0	371.0	0.0	0.0	0.0	0.0	0.0	0.0	null	null	null	null	null	null	null	null	337.0	332.0	335.0	337.0	336.0	335.0	335.0	333.0	336.0	336.0	335.0	
Tue Jun 06 05:38:00 UTC 2017	0.0	1.047281664E9	2719.609619140625	0.0	2.5731072E7	0.0	4.0	1.041866752E9	44.41933059692383	0.0	0.0	1.047130112E9	1.03856128E9	0.0	0.0	0.07524999976158142	0.05525000020861626	0.04774999991059303	0.9922500252723694	0.7843382358551025	0.0	244.0	371.0	0.0	0.0	0.0	0.0	0.0	0.0	null	null	null	null	null	null	null	null	335.0	336.0	337.0	337.0	334.0	333.0	335.0	335.0	336.0	335.0	337.0	
Tue Jun 06 05:37:00 UTC 2017	0.0	1.047281664E9	2368.072509765625	0.0	2.5731072E7	0.0	3.0	1.041866752E9	60.05580139160156	0.0	0.0	1.047130112E9	1.037533184E9	0.0	0.0	0.07750000059604645	0.05324999988079071	0.04724999889731407	0.9922500252723694	0.7843348383903503	0.0	244.0	371.0	0.0	0.0	0.0	0.0	0.0	0.0	null	null	null	null	null	null	null	null	336.0	337.0	337.0	335.0	334.0	337.0	339.0	339.0	335.0	335.0	336.0	
Tue Jun 06 05:36:00 UTC 2017	0.0	1.047281664E9	2711.076904296875	0.0	2.5731072E7	0.0	2.0	1.041657856E9	45.27500915527344	1.0	1.0	1.047130112E9	1.03856128E9	0.0	0.0	0.07000000029802322	0.05324999988079071	0.048250000923871994	0.9925000071525574	0.7843206524848938	0.0	244.0	371.0	0.0	0.0	0.0	0.0	0.0	0.0	null	null	null	null	null	null	null	null	336.0	336.0	335.0	336.0	339.0	337.0	337.0	335.0	335.0	335.0	337.0	
Tue Jun 06 05:35:00 UTC 2017	0.0	1.047281664E9	3794.351806640625	0.0	2.5731072E7	0.0	2.0	1.041743872E9	50.26704406738281	1.0	0.0	1.047130112E9	1.03856128E9	0.0	0.0	0.08124999701976776	0.04924999922513962	0.04724999889731407	0.9919999837875366	0.7844141125679016	0.0	244.0	371.0	0.0	0.0	0.0	0.0	0.0	0.0	null	null	null	null	null	null	null	null	338.0	337.0	336.0	338.0	333.0	333.0	333.0	336.0	336.0	336.0	333.0	
Tue Jun 06 05:34:00 UTC 2017	0.0	1.047281664E9	3794.351806640625	0.0	2.5731072E7	0.0	2.0	1.04165376E9	57.406864166259766	0.0	0.0	1.047130112E9	1.03856128E9	0.0	null	0.0742499977350235	0.05674999952316284	0.05274999886751175	0.9919999837875366	0.7842628955841064	0.0	244.0	371.0	0.0	0.0	0.0	0.0	0.0	0.0	null	null	null	null	null	null	null	null	333.0	332.0	336.0	335.0	334.0	334.0	336.0	334.0	335.0	334.0	337.0	
Tue Jun 06 05:33:00 UTC 2017	0.0	1.047281664E9	3794.351806640625	0.0	2.5731072E7	0.0	4.0	1.04165376E9	57.406864166259766	0.0	1.0	1.047130112E9	1.037533184E9	0.0	0.0	0.06849999725818634	0.048250000923871994	0.04475000128149986	0.9922500252723694	0.7842477560043335	0.0	244.0	371.0	0.0	0.0	0.0	0.0	0.0	0.0	null	null	null	null	null	null	null	null	338.0	335.0	335.0	336.0	334.0	339.0	336.0	335.0	337.0	334.0	333.0	
Tue Jun 06 05:32:00 UTC 2017	0.0	1.047281664E9	3794.351806640625	0.0	2.5731072E7	0.0	5.0	1.041444864E9	57.406864166259766	0.0	0.0	1.047130112E9	1.03856128E9	0.0	0.0	0.08174999803304672	0.054999999701976776	0.045499999076128006	0.9925000071525574	0.7855085730552673	0.0	244.0	371.0	0.0	0.0	0.0	0.0	0.0	0.0	null	null	null	null	null	null	null	null	333.0	338.0	336.0	336.0	339.0	336.0	336.0	335.0	334.0	339.0	338.0	
Tue Jun 06 05:31:00 UTC 2017	0.0	1.047281664E9	3794.351806640625	0.0	2.5731072E7	0.0	4.0	1.041534976E9	57.406864166259766	0.0	0.0	1.047130112E9	1.03856128E9	0.0	0.0	0.09350000321865082	0.05299999937415123	0.04749999940395355	0.9922500252723694	0.7842296361923218	0.0	244.0	371.0	0.0	0.0	0.0	0.0	0.0	0.0	null	null	null	null	null	null	null	null	337.0	335.0	333.0	336.0	332.0	332.0	336.0	334.0	336.0	336.0	335.0	
Tue Jun 06 05:30:00 UTC 2017	0.0	1.047281664E9	2638.634521484375	0.0	2.5731072E7	0.0	4.0	1.041534976E9	32.711490631103516	0.0	0.0	1.047130112E9	1.037533184E9	0.0	0.0	0.08100000023841858	0.048250000923871994	0.05000000074505806	0.9919999837875366	0.7864988446235657	0.0	244.0	371.0	0.0	0.0	0.0	0.0	0.0	0.0	null	null	null	null	null	null	null	null	338.0	337.0	339.0	333.0	339.0	340.0	336.0	338.0	337.0	337.0	339.0	
Tue Jun 06 05:29:00 UTC 2017	0.0	1.047281664E9	2638.634521484375	0.0	2.5731072E7	0.0	2.0	1.041444864E9	45.848838806152344	0.0	0.0	1.047130112E9	1.037533184E9	0.0	0.0	0.07249999791383743	0.05299999937415123	0.048250000923871994	0.9922500252723694	0.7842110395431519	0.0	244.0	371.0	0.0	0.0	0.0	0.0	0.0	0.0	null	null	null	null	null	null	null	null	334.0	334.0	335.0	341.0	337.0	334.0	336.0	335.0	334.0	335.0	334.0	
Tue Jun 06 05:28:00 UTC 2017	0.0	1.047281664E9	2638.634521484375	0.0	2.5731072E7	0.0	2.0	1.041444864E9	49.14414596557617	0.0	0.0	1.047130112E9	1.03856128E9	0.0	0.0	0.07050000131130219	0.04874999821186066	0.04874999821186066	0.9925000071525574	0.7842075824737549	0.0	244.0	371.0	0.0	0.0	0.0	0.0	0.0	0.0	null	null	null	null	null	null	null	null	333.0	334.0	335.0	336.0	332.0	333.0	334.0	335.0	335.0	332.0	340.0	
Tue Jun 06 05:27:00 UTC 2017	0.0	1.047281664E9	2638.634521484375	0.0	2.5731072E7	0.0	2.0	1.041444864E9	49.14414596557617	0.0	0.0	1.047130112E9	1.03856128E9	0.0	null	0.0742499977350235	0.05324999988079071	0.0442500002682209	0.9922500252723694	0.7864797711372375	0.0	244.0	371.0	0.0	0.0	0.0	0.0	0.0	0.0	null	null	null	null	null	null	null	null	339.0	339.0	335.0	335.0	338.0	336.0	336.0	339.0	339.0	333.0	337.0	
Tue Jun 06 05:26:00 UTC 2017	0.0	1.047281664E9	2691.70849609375	0.0	2.5731072E7	0.0	2.0	1.041321984E9	49.14414596557617	0.0	0.0	1.047130112E9	1.037533184E9	0.0	null	0.07575000077486038	0.052000001072883606	0.05025000125169754	0.9922500252723694	0.784183144569397	0.0	244.0	371.0	0.0	0.0	0.0	0.0	0.0	0.0	null	null	null	null	null	null	null	null	334.0	332.0	335.0	340.0	335.0	335.0	334.0	336.0	340.0	337.0	333.0	
Tue Jun 06 05:25:00 UTC 2017	0.0	1.047281664E9	2691.70849609375	0.0	2.5731072E7	0.0	3.0	1.041321984E9	49.14414596557617	0.0	1.0	1.047130112E9	1.03856128E9	0.0	null	0.08349999785423279	0.05249999836087227	0.04924999922513962	0.9919999837875366	0.7842159271240234	0.0	244.0	371.0	0.0	0.0	0.0	0.0	0.0	0.0	null	null	null	null	null	null	null	null	339.0	335.0	333.0	333.0	335.0	338.0	334.0	336.0	335.0	334.0	334.0	
Tue Jun 06 05:24:00 UTC 2017	0.0	1.047281664E9	2691.70849609375	0.0	2.5731072E7	0.0	2.0	1.041231872E9	40.369869232177734	1.0	0.0	1.047130112E9	1.037533184E9	0.0	null	0.06825000047683716	0.050999999046325684	0.048250000923871994	0.9919999837875366	0.7841983437538147	0.0	244.0	371.0	0.0	0.0	0.0	0.0	0.0	0.0	null	null	null	null	null	null	null	null	332.0	336.0	337.0	338.0	333.0	335.0	335.0	332.0	334.0	335.0	339.0	
Tue Jun 06 05:23:00 UTC 2017	0.0	1.047281664E9	2620.6650390625	0.0	2.5731072E7	0.0	2.0	1.041231872E9	40.369869232177734	2.0	3.0	1.047130112E9	1.03856128E9	0.0	null	0.07724999636411667	0.05900000035762787	0.04600000008940697	0.9917500019073486	0.7841992974281311	0.0	244.0	371.0	0.0	0.0	0.0	0.0	0.0	0.0	null	null	null	null	null	null	null	null	336.0	335.0	336.0	332.0	336.0	333.0	336.0	335.0	335.0	334.0	334.0	
Tue Jun 06 05:22:00 UTC 2017	0.0	1.047281664E9	2310.86572265625	0.0	2.5731072E7	0.0	4.0	1.041231872E9	48.73678970336914	1.0	2.0	1.047130112E9	1.037533184E9	0.0	0.0	0.0872500017285347	0.05299999937415123	0.04724999889731407	0.9919999837875366	0.784176766872406	0.0	244.0	371.0	0.0	0.0	0.0	0.0	0.0	0.0	null	null	null	null	null	null	null	null	339.0	339.0	333.0	334.0	333.0	336.0	338.0	337.0	333.0	341.0	334.0	
Tue Jun 06 05:21:00 UTC 2017	0.0	1.047281664E9	2310.86572265625	0.0	2.5731072E7	0.0	4.0	1.04101888E9	48.73678970336914	1.0	1.0	1.047130112E9	1.03856128E9	0.0	0.0	0.09449999779462814	0.05974999815225601	0.04724999889731407	0.9922500252723694	0.7841611504554749	0.0	244.0	371.0	0.0	0.0	0.0	0.0	0.0	0.0	null	null	null	null	null	null	null	null	335.0	333.0	337.0	337.0	334.0	333.0	332.0	336.0	338.0	334.0	335.0	
Tue Jun 06 05:20:00 UTC 2017	0.0	1.047281664E9	3217.8544921875	0.0	2.5731072E7	0.0	5.0	1.041108992E9	48.73678970336914	0.0	0.0	1.047130112E9	1.037533184E9	0.0	0.0	0.07374999672174454	0.045249998569488525	0.052000001072883606	0.9917500019073486	0.7841576933860779	0.0	244.0	371.0	0.0	0.0	0.0	0.0	0.0	0.0	null	null	null	null	null	null	null	null	333.0	337.0	335.0	335.0	336.0	336.0	336.0	336.0	334.0	335.0	335.0	
Tue Jun 06 05:19:00 UTC 2017	0.0	1.047281664E9	2692.717041015625	0.0	2.5731072E7	0.0	4.0	1.04101888E9	48.73678970336914	0.0	0.0	1.047130112E9	1.03856128E9	0.0	0.0	0.07649999856948853	0.05974999815225601	0.04749999940395355	0.9922500252723694	0.7840446829795837	0.0	244.0	371.0	0.0	0.0	0.0	0.0	0.0	0.0	null	null	null	null	null	null	null	null	337.0	335.0	333.0	334.0	336.0	337.0	335.0	333.0	335.0	336.0	336.0	
Tue Jun 06 05:18:00 UTC 2017	0.0	1.047281664E9	2709.3056640625	0.0	2.5731072E7	0.0	2.0	1.04101888E9	41.50391387939453	1.0	1.0	1.047130112E9	1.03856128E9	0.0	0.0	0.0677499994635582	0.04475000128149986	0.045499999076128006	0.9919999837875366	0.7840304970741272	0.0	244.0	371.0	0.0	0.0	0.0	0.0	0.0	0.0	null	null	null	null	null	null	null	null	335.0	334.0	338.0	332.0	335.0	334.0	337.0	332.0	332.0	336.0	332.0	
Tue Jun 06 05:17:00 UTC 2017	0.0	1.047281664E9	3012.031005859375	0.0	2.5731072E7	0.0	2.0	1.04101888E9	45.5346794128418	0.0	0.0	1.047130112E9	1.037533184E9	0.0	0.0	0.08375000208616257	0.05350000038743019	0.050999999046325684	0.9919999837875366	0.7840260863304138	0.0	244.0	371.0	0.0	0.0	0.0	0.0	0.0	0.0	null	null	null	null	null	null	null	null	336.0	335.0	332.0	337.0	337.0	337.0	333.0	339.0	335.0	332.0	335.0	
Tue Jun 06 05:16:00 UTC 2017	0.0	1.047281664E9	3012.031005859375	0.0	2.5731072E7	0.0	5.0	1.040900096E9	45.5346794128418	1.0	1.0	1.047130112E9	1.037533184E9	0.0	0.0	0.06674999743700027	0.050999999046325684	0.04650000110268593	0.9922500252723694	0.7849228978157043	0.0	244.0	371.0	0.0	0.0	0.0	0.0	0.0	0.0	null	null	null	null	null	null	null	null	338.0	335.0	337.0	337.0	332.0	333.0	337.0	335.0	335.0	337.0	336.0	
Tue Jun 06 05:15:00 UTC 2017	0.0	1.047281664E9	2545.880615234375	0.0	2.5731072E7	0.0	2.0	1.040900096E9	45.5346794128418	1.0	1.0	1.047130112E9	1.03856128E9	0.0	0.0	0.07500000298023224	0.061250001192092896	0.045249998569488525	0.9919999837875366	0.7861558794975281	0.0	244.0	371.0	0.0	0.0	0.0	0.0	0.0	0.0	null	null	null	null	null	null	null	null	332.0	334.0	336.0	334.0	338.0	334.0	332.0	332.0	337.0	336.0	334.0	
Tue Jun 06 05:14:00 UTC 2017	0.0	1.047281664E9	2545.880615234375	0.0	2.5731072E7	0.0	2.0	1.040809984E9	45.5346794128418	0.0	0.0	1.047130112E9	1.03856128E9	0.0	0.0	0.07824999839067459	0.04650000110268593	0.04874999821186066	0.9919999837875366	0.7841606140136719	0.0	244.0	371.0	0.0	0.0	0.0	0.0	0.0	0.0	null	null	null	null	null	null	null	null	338.0	336.0	335.0	336.0	334.0	337.0	335.0	338.0	334.0	333.0	336.0	
Tue Jun 06 05:13:00 UTC 2017	0.0	1.047281664E9	2545.880615234375	0.0	2.5731072E7	0.0	2.0	1.040809984E9	41.54468536376953	0.0	0.0	1.047130112E9	1.037533184E9	0.0	0.0	0.0794999971985817	0.05225000157952309	0.048500001430511475	0.9922500252723694	0.7841014266014099	0.0	244.0	371.0	0.0	0.0	0.0	0.0	0.0	0.0	null	null	null	null	null	null	null	null	335.0	337.0	336.0	336.0	335.0	334.0	336.0	336.0	336.0	334.0	335.0	
Tue Jun 06 05:12:00 UTC 2017	0.0	1.047281664E9	2545.880615234375	0.0	2.5731072E7	0.0	3.0	1.040809984E9	54.88557434082031	0.0	0.0	1.047130112E9	1.037533184E9	0.0	null	0.07100000232458115	0.05550000071525574	0.04774999991059303	0.9919999837875366	0.785065770149231	0.0	244.0	371.0	0.0	0.0	0.0	0.0	0.0	0.0	null	null	null	null	null	null	null	null	335.0	332.0	335.0	336.0	336.0	333.0	337.0	333.0	334.0	337.0	335.0	
Tue Jun 06 05:11:00 UTC 2017	0.0	1.047281664E9	3087.1767578125	0.0	2.5731072E7	0.0	2.0	1.040592896E9	53.062320709228516	0.0	0.0	1.047130112E9	1.037533184E9	0.0	null	0.10125000029802322	0.04625000059604645	0.048250000923871994	0.9922500252723694	0.7840789556503296	0.0	244.0	371.0	0.0	0.0	0.0	0.0	0.0	0.0	null	null	null	null	null	null	null	null	338.0	336.0	335.0	335.0	338.0	336.0	332.0	336.0	336.0	335.0	337.0	
Tue Jun 06 05:10:00 UTC 2017	0.0	1.047281664E9	3087.1767578125	0.0	2.5731072E7	0.0	4.0	1.040945152E9	53.062320709228516	0.0	1.0	1.047130112E9	1.03856128E9	0.0	null	0.07050000131130219	0.05400000140070915	0.05050000175833702	0.9922500252723694	0.7845633029937744	0.0	244.0	371.0	0.0	0.0	0.0	0.0	0.0	0.0	null	null	null	null	null	null	null	null	334.0	335.0	332.0	334.0	333.0	334.0	338.0	334.0	335.0	335.0	337.0	
Tue Jun 06 05:09:00 UTC 2017	0.0	1.047281664E9	3087.1767578125	0.0	2.5731072E7	0.0	2.0	1.040654336E9	55.1037483215332	0.0	0.0	1.047130112E9	1.037533184E9	0.0	0.0	0.08399999886751175	0.05299999937415123	0.04650000110268593	0.9922500252723694	0.7840368747711182	0.0	244.0	371.0	0.0	0.0	0.0	0.0	0.0	0.0	null	null	null	null	null	null	null	null	335.0	336.0	334.0	338.0	337.0	332.0	336.0	334.0	337.0	338.0	335.0	
Tue Jun 06 05:08:00 UTC 2017	0.0	1.047281664E9	2771.20849609375	0.0	2.5731072E7	0.0	3.0	1.040654336E9	82.49907684326172	2.0	2.0	1.047130112E9	1.03856128E9	0.0	0.0	0.06650000065565109	0.05375000089406967	0.04899999871850014	0.9922500252723694	0.7840167880058289	0.0	244.0	371.0	0.0	0.0	0.0	0.0	0.0	0.0	null	null	null	null	null	null	null	null	336.0	337.0	334.0	333.0	335.0	337.0	336.0	335.0	335.0	335.0	334.0	
Tue Jun 06 05:07:00 UTC 2017	0.0	1.047281664E9	2776.498291015625	0.0	2.5731072E7	0.0	3.0	1.040441344E9	46.245059967041016	2.0	2.0	1.047130112E9	1.037533184E9	0.0	0.0	0.0860000029206276	0.054999999701976776	0.04874999821186066	0.9919999837875366	0.7849454283714294	0.0	244.0	371.0	0.0	0.0	0.0	0.0	0.0	0.0	null	null	null	null	null	null	null	null	335.0	334.0	337.0	337.0	335.0	335.0	329.0	336.0	334.0	337.0	338.0	
Tue Jun 06 05:06:00 UTC 2017	0.0	1.047281664E9	2776.498291015625	0.0	2.5731072E7	0.0	2.0	1.040441344E9	66.52491760253906	0.0	0.0	1.047130112E9	1.037533184E9	0.0	0.0	0.0677499994635582	0.05974999815225601	0.05050000175833702	0.9919999837875366	0.7839609980583191	0.0	244.0	371.0	0.0	0.0	0.0	0.0	0.0	0.0	null	null	null	null	null	null	null	null	333.0	338.0	338.0	336.0	334.0	332.0	337.0	337.0	338.0	335.0	335.0	
Tue Jun 06 05:05:00 UTC 2017	0.0	1.047281664E9	2776.498291015625	0.0	2.5731072E7	0.0	2.0	1.040531456E9	76.19664001464844	0.0	0.0	1.047130112E9	1.037533184E9	0.0	0.0	0.07199999690055847	0.04399999976158142	0.04675000160932541	0.9922500252723694	0.7839443683624268	0.0	244.0	371.0	0.0	0.0	0.0	0.0	0.0	0.0	null	null	null	null	null	null	null	null	338.0	334.0	335.0	336.0	334.0	334.0	335.0	335.0	336.0	331.0	334.0	
Tue Jun 06 05:04:00 UTC 2017	0.0	1.047281664E9	2632.102783203125	0.0	2.5731072E7	0.0	3.0	1.040441344E9	56.724308013916016	0.0	0.0	1.047130112E9	1.03856128E9	0.0	0.0	0.08224999904632568	0.051500000059604645	0.05025000125169754	0.9922500252723694	0.7839438915252686	0.0	244.0	371.0	0.0	0.0	0.0	0.0	0.0	0.0	null	null	null	null	null	null	null	null	337.0	334.0	336.0	335.0	336.0	333.0	335.0	334.0	337.0	336.0	333.0	
Tue Jun 06 05:03:00 UTC 2017	0.0	1.047281664E9	2489.600830078125	0.0	2.5731072E7	0.0	4.0	1.040441344E9	51.485595703125	0.0	0.0	1.047130112E9	1.037533184E9	0.0	0.0	0.06875000149011612	0.0560000017285347	0.04675000160932541	0.9922500252723694	0.7839257717132568	0.0	244.0	371.0	0.0	0.0	0.0	0.0	0.0	0.0	null	null	null	null	null	null	null	null	334.0	337.0	336.0	336.0	336.0	337.0	334.0	335.0	334.0	336.0	336.0	
Tue Jun 06 05:02:00 UTC 2017	0.0	1.047281664E9	3074.380615234375	0.0	2.5731072E7	0.0	2.0	1.040228352E9	51.485595703125	0.0	0.0	1.047130112E9	1.037533184E9	0.0	0.0	0.07900000363588333	0.052000001072883606	0.05249999836087227	0.9919999837875366	0.7839115858078003	0.0	244.0	371.0	0.0	0.0	0.0	0.0	0.0	0.0	null	null	null	null	null	null	null	null	337.0	338.0	335.0	336.0	335.0	338.0	335.0	332.0	337.0	336.0	334.0	
Tue Jun 06 05:01:00 UTC 2017	0.0	1.047281664E9	3063.7177734375	0.0	2.5731072E7	0.0	2.0	1.040228352E9	57.567047119140625	0.0	0.0	1.047130112E9	1.037533184E9	0.0	0.0	0.10999999940395355	0.05274999886751175	0.04699999839067459	0.9919999837875366	0.7839077115058899	0.0	244.0	371.0	0.0	0.0	0.0	0.0	0.0	0.0	null	null	null	null	null	null	null	null	332.0	335.0	334.0	332.0	335.0	332.0	337.0	339.0	333.0	338.0	336.0	
Tue Jun 06 05:00:00 UTC 2017	0.0	1.047281664E9	3063.7177734375	0.0	2.5731072E7	0.0	2.0	1.040318464E9	53.8760986328125	1.0	1.0	1.047130112E9	1.037533184E9	0.0	0.0	0.07175000011920929	0.057500001043081284	0.04874999821186066	0.9919999837875366	0.785050630569458	0.0	244.0	371.0	0.0	0.0	0.0	0.0	0.0	0.0	null	null	null	null	null	null	null	null	338.0	335.0	337.0	337.0	338.0	336.0	336.0	335.0	334.0	336.0	335.0	
Tue Jun 06 04:59:00 UTC 2017	0.0	1.047281664E9	3063.7177734375	0.0	2.5731072E7	0.0	2.0	1.040228352E9	40.88371658325195	1.0	2.0	1.047130112E9	1.037533184E9	0.0	null	0.07000000029802322	0.052000001072883606	0.04699999839067459	0.9922500252723694	0.7838871479034424	0.0	244.0	371.0	0.0	0.0	0.0	0.0	0.0	0.0	null	null	null	null	null	null	null	null	337.0	334.0	333.0	332.0	335.0	337.0	332.0	337.0	339.0	333.0	336.0	
Tue Jun 06 04:58:00 UTC 2017	0.0	1.047281664E9	2370.7265625	0.0	2.5731072E7	0.0	2.0	1.040228352E9	36.765865325927734	1.0	1.0	1.047130112E9	1.03856128E9	0.0	null	0.07150000333786011	0.051249999552965164	0.0494999997317791	0.9917500019073486	0.7838724851608276	0.0	244.0	371.0	0.0	0.0	0.0	0.0	0.0	0.0	null	null	null	null	null	null	null	null	335.0	335.0	336.0	338.0	333.0	337.0	338.0	335.0	336.0	337.0	334.0	
Tue Jun 06 04:57:00 UTC 2017	0.0	1.047281664E9	2370.7265625	0.0	2.5731072E7	0.0	3.0	1.040228352E9	62.40261459350586	0.0	0.0	1.047130112E9	1.037533184E9	0.0	0.0	0.08275000005960464	0.054999999701976776	0.04349999874830246	0.9922500252723694	0.7838572859764099	0.0	244.0	371.0	0.0	0.0	0.0	0.0	0.0	0.0	null	null	null	null	null	null	null	null	336.0	335.0	332.0	337.0	338.0	338.0	333.0	334.0	336.0	332.0	338.0	
Tue Jun 06 04:56:00 UTC 2017	0.0	1.047281664E9	2370.7265625	0.0	2.5731072E7	0.0	2.0	1.040019456E9	45.35750198364258	0.0	0.0	1.047130112E9	1.03856128E9	0.0	0.0	0.0729999989271164	0.052000001072883606	0.0507499985396862	0.9917500019073486	0.7838372588157654	0.0	244.0	371.0	0.0	0.0	0.0	0.0	0.0	0.0	null	null	null	null	null	null	null	null	333.0	334.0	337.0	336.0	335.0	338.0	332.0	336.0	335.0	339.0	333.0	
Tue Jun 06 04:55:00 UTC 2017	0.0	1.047281664E9	2729.580810546875	0.0	2.5731072E7	0.0	3.0	1.040109568E9	45.35750198364258	0.0	0.0	1.047130112E9	1.03856128E9	0.0	0.0	0.07625000178813934	0.048250000923871994	0.04574999958276749	0.9919999837875366	0.7838298678398132	0.0	244.0	371.0	0.0	0.0	0.0	0.0	0.0	0.0	null	null	null	null	null	null	null	null	336.0	333.0	335.0	337.0	335.0	334.0	335.0	335.0	333.0	335.0	340.0	
Tue Jun 06 04:54:00 UTC 2017	0.0	1.047281664E9	2729.580810546875	0.0	2.5731072E7	0.0	2.0	1.040019456E9	45.35750198364258	0.0	0.0	1.047130112E9	1.03856128E9	0.0	0.0	0.07824999839067459	0.05350000038743019	0.051249999552965164	0.9922500252723694	0.7838078737258911	0.0	244.0	371.0	0.0	0.0	0.0	0.0	0.0	0.0	null	null	null	null	null	null	null	null	337.0	338.0	332.0	335.0	333.0	335.0	336.0	334.0	335.0	336.0	335.0	
Tue Jun 06 04:53:00 UTC 2017	0.0	1.047281664E9	2729.580810546875	0.0	2.5731072E7	0.0	2.0	1.040019456E9	45.35750198364258	0.0	0.0	1.047130112E9	1.03856128E9	0.0	0.0	0.06700000166893005	0.05249999836087227	0.04975000023841858	0.9922500252723694	0.783785879611969	0.0	244.0	371.0	0.0	0.0	0.0	0.0	0.0	0.0	null	null	null	null	null	null	null	null	336.0	336.0	338.0	337.0	340.0	333.0	335.0	337.0	337.0	334.0	331.0	
Tue Jun 06 04:52:00 UTC 2017	0.0	1.047281664E9	2729.580810546875	0.0	2.5731072E7	0.0	2.0	1.040019456E9	44.6811408996582	0.0	0.0	1.047130112E9	1.037533184E9	0.0	0.0	0.07474999874830246	0.04475000128149986	0.045499999076128006	0.9922500252723694	0.7837687134742737	0.0	244.0	371.0	0.0	0.0	0.0	0.0	0.0	0.0	null	null	null	null	null	null	null	null	333.0	334.0	335.0	337.0	335.0	333.0	335.0	335.0	334.0	336.0	338.0	
Tue Jun 06 04:51:00 UTC 2017	0.0	1.047281664E9	2729.580810546875	0.0	2.5731072E7	0.0	2.0	1.039896576E9	55.18729019165039	2.0	2.0	1.047130112E9	1.037533184E9	0.0	0.0	0.10350000113248825	0.05999999865889549	0.04724999889731407	0.9922500252723694	0.7837609052658081	0.0	244.0	371.0	0.0	0.0	0.0	0.0	0.0	0.0	null	null	null	null	null	null	null	null	337.0	339.0	335.0	335.0	333.0	338.0	338.0	332.0	334.0	339.0	333.0	
Tue Jun 06 04:50:00 UTC 2017	0.0	1.047281664E9	3116.9755859375	0.0	2.5731072E7	0.0	4.0	1.039896576E9	42.41416549682617	0.0	0.0	1.047130112E9	1.037533184E9	0.0	0.0	0.07649999856948853	0.048500001430511475	0.04774999991059303	0.9922500252723694	0.7837530970573425	0.0	244.0	371.0	0.0	0.0	0.0	0.0	0.0	0.0	null	null	null	null	null	null	null	null	336.0	337.0	334.0	338.0	335.0	337.0	332.0	335.0	334.0	335.0	336.0	
Tue Jun 06 04:49:00 UTC 2017	0.0	1.047281664E9	3116.9755859375	0.0	2.5731072E7	0.0	3.0	1.039806464E9	70.73100280761719	0.0	0.0	1.047130112E9	1.03856128E9	0.0	0.0	0.07175000011920929	0.05225000157952309	0.04399999976158142	0.9922500252723694	0.7846381664276123	0.0	244.0	371.0	0.0	0.0	0.0	0.0	0.0	0.0	null	null	null	null	null	null	null	null	335.0	337.0	333.0	335.0	337.0	332.0	336.0	335.0	334.0	335.0	337.0	
Tue Jun 06 04:48:00 UTC 2017	0.0	1.047281664E9	3116.9755859375	0.0	2.5731072E7	0.0	5.0	1.039806464E9	70.73100280761719	0.0	0.0	1.047130112E9	1.03856128E9	0.0	0.0	0.08025000244379044	0.05225000157952309	0.04874999821186066	0.9922500252723694	0.7837026715278625	0.0	244.0	371.0	0.0	0.0	0.0	0.0	0.0	0.0	null	null	null	null	null	null	null	null	332.0	332.0	336.0	333.0	336.0	341.0	333.0	338.0	337.0	339.0	335.0	
Tue Jun 06 04:47:00 UTC 2017	0.0	1.047281664E9	2374.854736328125	0.0	2.5731072E7	0.0	3.0	1.040052224E9	70.73100280761719	1.0	0.0	1.047130112E9	1.037533184E9	0.0	0.0	0.07599999755620956	0.05700000002980232	0.051500000059604645	0.9922500252723694	0.7837124466896057	0.0	244.0	371.0	0.0	0.0	0.0	0.0	0.0	0.0	null	null	null	null	null	null	null	null	338.0	336.0	333.0	338.0	333.0	335.0	332.0	334.0	337.0	335.0	337.0	
Tue Jun 06 04:46:00 UTC 2017	0.0	1.047281664E9	2681.63818359375	0.0	2.5731072E7	0.0	2.0	1.039593472E9	57.30609893798828	1.0	1.0	1.047130112E9	1.037533184E9	0.0	null	0.06800000369548798	0.05050000175833702	0.04675000160932541	0.9925000071525574	0.7843607664108276	0.0	244.0	371.0	0.0	0.0	0.0	0.0	0.0	0.0	null	null	null	null	null	null	null	null	334.0	339.0	334.0	335.0	335.0	332.0	337.0	338.0	334.0	335.0	339.0	
Tue Jun 06 04:45:00 UTC 2017	0.0	1.047281664E9	2681.63818359375	0.0	2.5731072E7	0.0	2.0	1.039683584E9	50.5244255065918	1.0	1.0	1.047130112E9	1.03856128E9	0.0	null	0.08025000244379044	0.05525000020861626	0.04899999871850014	0.9922500252723694	0.7837090492248535	0.0	244.0	371.0	0.0	0.0	0.0	0.0	0.0	0.0	null	null	null	null	null	null	null	null	337.0	333.0	338.0	337.0	336.0	336.0	341.0	335.0	336.0	337.0	333.0	
Tue Jun 06 04:44:00 UTC 2017	0.0	1.047281664E9	2616.71923828125	0.0	2.5731072E7	0.0	2.0	1.039593472E9	55.466251373291016	0.0	0.0	1.047130112E9	1.037533184E9	0.0	null	0.07400000095367432	0.05249999836087227	0.04450000077486038	0.9922500252723694	0.7836928963661194	0.0	244.0	371.0	0.0	0.0	0.0	0.0	0.0	0.0	null	null	null	null	null	null	null	null	334.0	337.0	332.0	332.0	337.0	333.0	334.0	337.0	340.0	336.0	337.0	
Tue Jun 06 04:43:00 UTC 2017	0.0	1.047281664E9	2616.71923828125	0.0	2.5731072E7	0.0	2.0	1.039593472E9	55.466251373291016	0.0	0.0	1.047130112E9	1.03856128E9	0.0	null	0.07750000059604645	0.05324999988079071	0.04800000041723251	0.9922500252723694	0.7859739065170288	0.0	244.0	371.0	0.0	0.0	0.0	0.0	0.0	0.0	null	null	null	null	null	null	null	null	337.0	335.0	335.0	336.0	334.0	336.0	339.0	337.0	334.0	334.0	336.0	
Tue Jun 06 04:42:00 UTC 2017	0.0	1.047281664E9	3129.69580078125	0.0	2.5731072E7	0.0	3.0	1.039843328E9	46.14121627807617	0.0	0.0	1.047130112E9	1.037533184E9	0.0	0.0	0.06750000268220901	0.048500001430511475	0.0442500002682209	0.9922500252723694	0.7836753129959106	0.0	244.0	371.0	0.0	0.0	0.0	0.0	0.0	0.0	null	null	null	null	null	null	null	null	334.0	339.0	338.0	335.0	335.0	337.0	335.0	334.0	335.0	332.0	333.0	
Tue Jun 06 04:41:00 UTC 2017	0.0	1.047281664E9	3129.69580078125	0.0	2.5731072E7	0.0	2.0	1.03948288E9	41.72407150268555	0.0	0.0	1.047130112E9	1.03856128E9	0.0	0.0	0.10324999690055847	0.054249998182058334	0.04874999821186066	0.9922500252723694	0.7844977378845215	0.0	244.0	371.0	0.0	0.0	0.0	0.0	0.0	0.0	null	null	null	null	null	null	null	null	337.0	335.0	336.0	337.0	337.0	337.0	335.0	336.0	334.0	336.0	333.0	
Tue Jun 06 04:40:00 UTC 2017	0.0	1.047281664E9	2674.453369140625	0.0	2.5731072E7	0.0	2.0	1.03948288E9	42.91796112060547	1.0	0.0	1.047130112E9	1.03856128E9	0.0	0.0	0.07175000011920929	0.04625000059604645	0.048250000923871994	0.9922500252723694	0.7835867404937744	0.0	244.0	371.0	0.0	0.0	0.0	0.0	0.0	0.0	null	null	null	null	null	null	null	null	332.0	334.0	334.0	334.0	336.0	331.0	335.0	339.0	336.0	337.0	335.0	
Tue Jun 06 04:39:00 UTC 2017	0.0	1.047281664E9	2690.352294921875	0.0	2.5731072E7	0.0	2.0	1.039392768E9	42.47621536254883	0.0	1.0	1.047130112E9	1.037533184E9	0.0	0.0	0.0860000029206276	0.057999998331069946	0.0442500002682209	0.9922500252723694	0.7835612893104553	0.0	244.0	371.0	0.0	0.0	0.0	0.0	0.0	0.0	null	null	null	null	null	null	null	null	339.0	338.0	337.0	336.0	334.0	336.0	336.0	335.0	334.0	334.0	337.0	
Tue Jun 06 04:38:00 UTC 2017	0.0	1.047281664E9	2690.352294921875	0.0	2.5731072E7	0.0	2.0	1.039392768E9	42.47621536254883	0.0	0.0	1.047130112E9	1.03856128E9	0.0	0.0	0.07150000333786011	0.04975000023841858	0.04475000128149986	0.9922500252723694	0.7835441827774048	0.0	244.0	371.0	0.0	0.0	0.0	0.0	0.0	0.0	null	null	null	null	null	null	null	null	331.0	337.0	330.0	336.0	336.0	335.0	338.0	337.0	337.0	334.0	333.0	
Tue Jun 06 04:37:00 UTC 2017	0.0	1.047281664E9	2690.352294921875	0.0	2.5731072E7	0.0	5.0	1.039392768E9	42.47621536254883	1.0	1.0	1.047130112E9	1.03856128E9	0.0	0.0	0.07400000095367432	0.05249999836087227	0.05000000074505806	0.9919999837875366	0.7835275530815125	0.0	244.0	371.0	0.0	0.0	0.0	0.0	0.0	0.0	null	null	null	null	null	null	null	null	337.0	338.0	335.0	334.0	335.0	337.0	333.0	334.0	335.0	332.0	336.0	
Tue Jun 06 04:36:00 UTC 2017	0.0	1.047281664E9	2690.352294921875	0.0	2.5731072E7	0.0	2.0	1.039269888E9	41.86330795288086	0.0	0.0	1.047130112E9	1.03856128E9	0.0	null	0.07800000160932541	0.0507499985396862	0.05050000175833702	0.9919999837875366	0.7835108637809753	0.0	244.0	371.0	0.0	0.0	0.0	0.0	0.0	0.0	null	null	null	null	null	null	null	null	334.0	335.0	333.0	334.0	338.0	332.0	337.0	334.0	330.0	337.0	334.0	
Tue Jun 06 04:35:00 UTC 2017	0.0	1.047281664E9	2690.352294921875	0.0	2.5731072E7	0.0	4.0	1.039269888E9	62.79322052001953	0.0	0.0	1.047130112E9	1.037533184E9	0.0	0.0	0.07599999755620956	0.051750000566244125	0.04625000059604645	0.9922500252723694	0.7835597991943359	0.0	244.0	371.0	0.0	0.0	0.0	0.0	0.0	0.0	null	null	null	null	null	null	null	null	333.0	337.0	337.0	337.0	334.0	336.0	338.0	339.0	335.0	335.0	337.0	
Tue Jun 06 04:34:00 UTC 2017	0.0	1.047281664E9	2851.574951171875	0.0	2.5731072E7	0.0	4.0	1.039179776E9	62.79322052001953	0.0	0.0	1.047130112E9	1.03856128E9	0.0	0.0	0.0689999982714653	0.051500000059604645	0.05225000157952309	0.9919999837875366	0.7835637331008911	0.0	244.0	371.0	0.0	0.0	0.0	0.0	0.0	0.0	null	null	null	null	null	null	null	null	338.0	336.0	332.0	335.0	336.0	338.0	335.0	333.0	336.0	336.0	333.0	
Tue Jun 06 04:33:00 UTC 2017	0.0	1.047281664E9	2443.90380859375	0.0	2.5731072E7	0.0	4.0	1.039179776E9	62.79322052001953	2.0	1.0	1.047130112E9	1.03856128E9	0.0	0.0	0.07474999874830246	0.0625	0.05000000074505806	0.9919999837875366	0.7835480570793152	0.0	244.0	371.0	0.0	0.0	0.0	0.0	0.0	0.0	null	null	null	null	null	null	null	null	333.0	335.0	337.0	332.0	337.0	334.0	333.0	339.0	335.0	339.0	334.0	
Tue Jun 06 04:32:00 UTC 2017	0.0	1.047281664E9	2746.91943359375	0.0	2.5731072E7	0.0	3.0	1.039179776E9	62.79322052001953	1.0	0.0	1.047130112E9	1.037533184E9	0.0	0.0	0.07625000178813934	0.05000000074505806	0.04349999874830246	0.9919999837875366	0.783532440662384	0.0	244.0	371.0	0.0	0.0	0.0	0.0	0.0	0.0	null	null	null	null	null	null	null	null	336.0	335.0	335.0	335.0	336.0	336.0	336.0	335.0	333.0	335.0	335.0	
Tue Jun 06 04:31:00 UTC 2017	0.0	1.047281664E9	2746.91943359375	0.0	2.5731072E7	0.0	2.0	1.038966784E9	62.79322052001953	0.0	0.0	1.047130112E9	1.03856128E9	0.0	0.0	0.09849999845027924	0.05225000157952309	0.04699999839067459	0.9922500252723694	0.7835285067558289	0.0	244.0	371.0	0.0	0.0	0.0	0.0	0.0	0.0	null	null	null	null	null	null	null	null	338.0	336.0	334.0	337.0	336.0	336.0	337.0	335.0	334.0	335.0	335.0	
Tue Jun 06 04:30:00 UTC 2017	0.0	1.047281664E9	2393.697998046875	0.0	2.5731072E7	0.0	3.0	1.039056896E9	62.79322052001953	0.0	0.0	1.047130112E9	1.03856128E9	0.0	null	0.08025000244379044	0.050999999046325684	0.04699999839067459	0.9922500252723694	0.7835143208503723	0.0	244.0	371.0	0.0	0.0	0.0	0.0	0.0	0.0	null	null	null	null	null	null	null	null	336.0	338.0	336.0	336.0	334.0	333.0	335.0	338.0	338.0	333.0	335.0	
Tue Jun 06 04:29:00 UTC 2017	0.0	1.047281664E9	2393.697998046875	0.0	2.5731072E7	0.0	2.0	1.038966784E9	47.7425537109375	0.0	0.0	1.047130112E9	1.037533184E9	0.0	null	0.07325000315904617	0.04975000023841858	0.05000000074505806	0.9922500252723694	0.7857639789581299	0.0	244.0	371.0	0.0	0.0	0.0	0.0	0.0	0.0	null	null	null	null	null	null	null	null	336.0	331.0	336.0	334.0	332.0	334.0	337.0	337.0	336.0	337.0	336.0	
Tue Jun 06 04:28:00 UTC 2017	0.0	1.047281664E9	2742.079345703125	0.0	2.5731072E7	0.0	3.0	1.038966784E9	37.81159591674805	0.0	0.0	1.047130112E9	1.03856128E9	0.0	0.0	0.07500000298023224	0.05025000125169754	0.048250000923871994	0.9919999837875366	0.783391535282135	0.0	244.0	371.0	0.0	0.0	0.0	0.0	0.0	0.0	null	null	null	null	null	null	null	null	335.0	334.0	335.0	335.0	336.0	335.0	334.0	335.0	336.0	336.0	335.0	
Tue Jun 06 04:27:00 UTC 2017	0.0	1.047281664E9	2742.079345703125	0.0	2.5731072E7	0.0	3.0	1.03921664E9	37.81159591674805	0.0	0.0	1.047130112E9	1.037533184E9	0.0	0.0	0.07275000214576721	0.052000001072883606	0.04500000178813934	0.9919999837875366	0.7833450436592102	0.0	244.0	371.0	0.0	0.0	0.0	0.0	0.0	0.0	null	null	null	null	null	null	null	null	334.0	339.0	336.0	335.0	339.0	334.0	336.0	336.0	334.0	334.0	333.0	
Tue Jun 06 04:26:00 UTC 2017	0.0	1.047281664E9	2742.079345703125	0.0	2.5731072E7	0.0	2.0	1.038757888E9	37.81159591674805	0.0	1.0	1.047130112E9	1.037533184E9	0.0	0.0	0.07850000262260437	0.05674999952316284	0.04874999821186066	0.9919999837875366	0.7845569252967834	0.0	244.0	371.0	0.0	0.0	0.0	0.0	0.0	0.0	null	null	null	null	null	null	null	null	338.0	335.0	334.0	336.0	335.0	335.0	336.0	333.0	333.0	338.0	339.0	
Tue Jun 06 04:25:00 UTC 2017	0.0	1.047281664E9	2961.978759765625	0.0	2.5731072E7	0.0	2.0	1.038848E9	47.81826400756836	0.0	0.0	1.047130112E9	1.037533184E9	0.0	0.0	0.06975000351667404	0.04924999922513962	0.051750000566244125	0.9922500252723694	0.783297061920166	0.0	244.0	371.0	0.0	0.0	0.0	0.0	0.0	0.0	null	null	null	null	null	null	null	null	339.0	333.0	333.0	340.0	334.0	338.0	336.0	339.0	337.0	336.0	333.0	
Tue Jun 06 04:24:00 UTC 2017	0.0	1.047281664E9	2961.978759765625	0.0	2.5731072E7	0.0	2.0	1.038757888E9	47.81826400756836	0.0	0.0	1.047130112E9	1.037533184E9	0.0	0.0	0.08150000125169754	0.048500001430511475	0.04075000062584877	0.9925000071525574	0.7832887768745422	0.0	244.0	371.0	0.0	0.0	0.0	0.0	0.0	0.0	null	null	null	null	null	null	null	null	332.0	334.0	337.0	336.0	337.0	337.0	334.0	333.0	333.0	335.0	334.0	
Tue Jun 06 04:23:00 UTC 2017	0.0	1.047281664E9	2485.935791015625	0.0	2.5731072E7	0.0	3.0	1.038757888E9	47.81826400756836	0.0	0.0	1.047130112E9	1.037533184E9	0.0	0.0	0.07225000113248825	0.05624999850988388	0.051500000059604645	0.9922500252723694	0.7832701802253723	0.0	244.0	371.0	0.0	0.0	0.0	0.0	0.0	0.0	null	null	null	null	null	null	null	null	335.0	336.0	336.0	334.0	337.0	338.0	334.0	335.0	334.0	336.0	339.0	
Tue Jun 06 04:22:00 UTC 2017	0.0	1.047281664E9	2485.935791015625	0.0	2.5731072E7	0.0	2.0	1.0385408E9	62.37257385253906	0.0	0.0	1.047130112E9	1.037533184E9	0.0	0.0	0.06949999928474426	0.05025000125169754	0.04650000110268593	0.9922500252723694	0.7832672595977783	0.0	244.0	371.0	0.0	0.0	0.0	0.0	0.0	0.0	null	null	null	null	null	null	null	null	337.0	338.0	335.0	336.0	335.0	337.0	334.0	337.0	335.0	334.0	335.0	
Tue Jun 06 04:21:00 UTC 2017	0.0	1.047281664E9	2485.935791015625	0.0	2.5731072E7	0.0	5.0	1.0385408E9	46.19966506958008	1.0	1.0	1.047130112E9	1.037533184E9	0.0	0.0	0.0989999994635582	0.051750000566244125	0.045249998569488525	0.9922500252723694	0.7832569479942322	0.0	244.0	371.0	0.0	0.0	0.0	0.0	0.0	0.0	null	null	null	null	null	null	null	null	338.0	335.0	333.0	340.0	339.0	336.0	335.0	336.0	338.0	333.0	334.0	
Tue Jun 06 04:20:00 UTC 2017	0.0	1.047281664E9	3154.918701171875	0.0	2.5731072E7	0.0	2.0	1.038630912E9	46.041046142578125	1.0	0.0	1.047130112E9	1.037533184E9	0.0	0.0	0.07500000298023224	0.05624999850988388	0.04699999839067459	0.9922500252723694	0.783197283744812	0.0	244.0	371.0	0.0	0.0	0.0	0.0	0.0	0.0	null	null	null	null	null	null	null	null	333.0	333.0	336.0	335.0	332.0	331.0	337.0	340.0	336.0	336.0	333.0	
Tue Jun 06 04:19:00 UTC 2017	0.0	1.047281664E9	3154.918701171875	0.0	2.5731072E7	0.0	3.0	1.0385408E9	46.041046142578125	0.0	0.0	1.047130112E9	1.037533184E9	0.0	0.0	0.07724999636411667	0.04749999940395355	0.054749999195337296	0.9922500252723694	0.7831968069076538	0.0	244.0	371.0	0.0	0.0	0.0	0.0	0.0	0.0	null	null	null	null	null	null	null	null	336.0	334.0	337.0	338.0	340.0	338.0	332.0	336.0	336.0	335.0	336.0	
Tue Jun 06 04:18:00 UTC 2017	0.0	1.047281664E9	3154.918701171875	0.0	2.5731072E7	0.0	2.0	1.0385408E9	46.041046142578125	0.0	0.0	1.047130112E9	1.037533184E9	0.0	null	0.07474999874830246	0.05674999952316284	0.042249999940395355	0.9922500252723694	0.7831732630729675	0.0	244.0	371.0	0.0	0.0	0.0	0.0	0.0	0.0	null	null	null	null	null	null	null	null	333.0	336.0	331.0	332.0	332.0	334.0	337.0	332.0	337.0	336.0	338.0	
Tue Jun 06 04:17:00 UTC 2017	0.0	1.047281664E9	3154.918701171875	0.0	2.5731072E7	0.0	2.0	1.0385408E9	64.28650665283203	0.0	0.0	1.047130112E9	1.03856128E9	0.0	0.0	0.06499999761581421	0.04675000160932541	0.05000000074505806	0.9922500252723694	0.7854591608047485	0.0	244.0	371.0	0.0	0.0	0.0	0.0	0.0	0.0	null	null	null	null	null	null	null	null	339.0	339.0	338.0	335.0	337.0	336.0	337.0	338.0	333.0	338.0	336.0	
Tue Jun 06 04:16:00 UTC 2017	0.0	1.047281664E9	3154.918701171875	0.0	2.5731072E7	0.0	3.0	1.038327808E9	64.28650665283203	0.0	0.0	1.047130112E9	1.037533184E9	0.0	0.0	0.08299999684095383	0.04975000023841858	0.04749999940395355	0.9919999837875366	0.7831556797027588	0.0	244.0	371.0	0.0	0.0	0.0	0.0	0.0	0.0	null	null	null	null	null	null	null	null	332.0	334.0	337.0	338.0	337.0	335.0	335.0	338.0	335.0	336.0	333.0	
Tue Jun 06 04:15:00 UTC 2017	0.0	1.047281664E9	2887.18359375	0.0	2.5731072E7	0.0	3.0	1.03841792E9	64.28650665283203	0.0	0.0	1.047130112E9	1.037533184E9	0.0	0.0	0.07175000011920929	0.0507499985396862	0.04774999991059303	0.9919999837875366	0.7831361293792725	0.0	244.0	371.0	0.0	0.0	0.0	0.0	0.0	0.0	null	null	null	null	null	null	null	null	337.0	337.0	336.0	335.0	333.0	334.0	337.0	335.0	336.0	335.0	339.0	
Tue Jun 06 04:14:00 UTC 2017	0.0	1.047281664E9	2887.18359375	0.0	2.5731072E7	0.0	2.0	1.038327808E9	39.69322204589844	0.0	0.0	1.047130112E9	1.03856128E9	0.0	0.0	0.06849999725818634	0.054249998182058334	0.04924999922513962	0.9925000071525574	0.7838935256004333	0.0	244.0	371.0	0.0	0.0	0.0	0.0	0.0	0.0	null	null	null	null	null	null	null	null	337.0	336.0	329.0	336.0	335.0	337.0	333.0	334.0	336.0	338.0	335.0	
Tue Jun 06 04:13:00 UTC 2017	0.0	1.047281664E9	2887.18359375	0.0	2.5731072E7	0.0	3.0	1.038327808E9	84.72730255126953	0.0	0.0	1.047130112E9	1.03856128E9	0.0	0.0	0.07374999672174454	0.05025000125169754	0.04650000110268593	0.9925000071525574	0.7831566333770752	0.0	244.0	371.0	0.0	0.0	0.0	0.0	0.0	0.0	null	null	null	null	null	null	null	null	335.0	335.0	335.0	334.0	336.0	334.0	334.0	335.0	337.0	333.0	337.0	
Tue Jun 06 04:12:00 UTC 2017	0.0	1.047281664E9	2640.59912109375	0.0	2.5731072E7	0.0	2.0	1.038114816E9	84.72730255126953	0.0	0.0	1.047130112E9	1.037533184E9	0.0	0.0	0.07474999874830246	0.04899999871850014	0.04600000008940697	0.9922500252723694	0.7854112386703491	0.0	244.0	371.0	0.0	0.0	0.0	0.0	0.0	0.0	null	null	null	null	null	null	null	null	336.0	334.0	336.0	335.0	336.0	336.0	339.0	338.0	334.0	336.0	335.0	
Tue Jun 06 04:11:00 UTC 2017	0.0	1.047281664E9	3116.149169921875	0.0	2.5731072E7	0.0	2.0	1.038114816E9	84.72730255126953	0.0	0.0	1.047130112E9	1.037533184E9	0.0	0.0	0.10700000077486038	0.05700000002980232	0.05274999886751175	0.9925000071525574	0.7830314040184021	0.0	244.0	371.0	0.0	0.0	0.0	0.0	0.0	0.0	null	null	null	null	null	null	null	null	337.0	337.0	335.0	337.0	338.0	333.0	335.0	332.0	335.0	338.0	335.0	
Tue Jun 06 04:10:00 UTC 2017	0.0	1.047281664E9	2693.7412109375	0.0	2.5731072E7	0.0	3.0	1.038467072E9	84.72730255126953	0.0	0.0	1.047130112E9	1.037533184E9	0.0	null	0.07850000262260437	0.051750000566244125	0.04349999874830246	0.9922500252723694	0.7844155430793762	0.0	244.0	371.0	0.0	0.0	0.0	0.0	0.0	0.0	null	null	null	null	null	null	null	null	335.0	335.0	336.0	337.0	334.0	336.0	334.0	336.0	335.0	335.0	340.0	
Tue Jun 06 04:09:00 UTC 2017	0.0	1.047281664E9	2250.48046875	0.0	2.5731072E7	0.0	2.0	1.03811072E9	57.519813537597656	0.0	0.0	1.047130112E9	1.03856128E9	0.0	0.0	0.0677499994635582	0.05550000071525574	0.0494999997317791	0.9922500252723694	0.7829952239990234	0.0	244.0	371.0	0.0	0.0	0.0	0.0	0.0	0.0	null	null	null	null	null	null	null	null	337.0	336.0	332.0	339.0	335.0	334.0	338.0	336.0	338.0	334.0	335.0	
Tue Jun 06 04:08:00 UTC 2017	0.0	1.047281664E9	2250.48046875	0.0	2.5731072E7	0.0	3.0	1.03811072E9	39.87605667114258	0.0	1.0	1.047130112E9	1.037533184E9	0.0	0.0	0.07699999958276749	0.051750000566244125	0.04924999922513962	0.9925000071525574	0.7852556109428406	0.0	244.0	371.0	0.0	0.0	0.0	0.0	0.0	0.0	null	null	null	null	null	null	null	null	333.0	335.0	338.0	333.0	335.0	337.0	333.0	335.0	333.0	336.0	337.0	
Tue Jun 06 04:07:00 UTC 2017	0.0	1.047281664E9	2829.353515625	0.0	2.5731072E7	0.0	2.0	1.037901824E9	43.040245056152344	0.0	0.0	1.047130112E9	1.037533184E9	0.0	0.0	0.07175000011920929	0.04774999991059303	0.04724999889731407	0.9925000071525574	0.7829203605651855	0.0	244.0	371.0	0.0	0.0	0.0	0.0	0.0	0.0	null	null	null	null	null	null	null	null	336.0	333.0	335.0	336.0	336.0	335.0	337.0	337.0	336.0	336.0	335.0	
Tue Jun 06 04:06:00 UTC 2017	0.0	1.047281664E9	2829.353515625	0.0	2.5731072E7	0.0	5.0	1.037991936E9	51.195106506347656	0.0	0.0	1.047130112E9	1.03856128E9	0.0	0.0	0.08224999904632568	0.051249999552965164	0.04774999991059303	0.9925000071525574	0.7838382124900818	0.0	244.0	371.0	0.0	0.0	0.0	0.0	0.0	0.0	null	null	null	null	null	null	null	null	336.0	335.0	335.0	336.0	338.0	335.0	336.0	336.0	335.0	335.0	336.0	
Tue Jun 06 04:05:00 UTC 2017	0.0	1.047281664E9	2349.918212890625	0.0	2.5731072E7	0.0	2.0	1.037991936E9	41.5169563293457	0.0	0.0	1.047130112E9	1.03856128E9	0.0	0.0	0.07050000131130219	0.05249999836087227	0.04749999940395355	0.9922500252723694	0.7828542590141296	0.0	244.0	371.0	0.0	0.0	0.0	0.0	0.0	0.0	null	null	null	null	null	null	null	null	338.0	336.0	338.0	340.0	335.0	335.0	337.0	336.0	337.0	337.0	333.0	
Tue Jun 06 04:04:00 UTC 2017	0.0	1.047281664E9	2349.918212890625	0.0	2.5731072E7	0.0	3.0	1.037901824E9	41.5169563293457	0.0	0.0	1.047130112E9	1.037533184E9	0.0	0.0	0.07349999994039536	0.051249999552965164	0.0507499985396862	0.9925000071525574	0.7828381657600403	0.0	244.0	371.0	0.0	0.0	0.0	0.0	0.0	0.0	null	null	null	null	null	null	null	null	333.0	337.0	334.0	330.0	337.0	334.0	338.0	335.0	334.0	335.0	336.0	
Tue Jun 06 04:03:00 UTC 2017	0.0	1.047281664E9	2156.662353515625	0.0	2.5731072E7	0.0	2.0	1.037901824E9	58.4815559387207	0.0	0.0	1.047130112E9	1.037533184E9	0.0	0.0	0.07050000131130219	0.054499998688697815	0.045499999076128006	0.9922500252723694	0.7828366756439209	0.0	244.0	371.0	0.0	0.0	0.0	0.0	0.0	0.0	null	null	null	null	null	null	null	null	339.0	333.0	336.0	336.0	336.0	337.0	332.0	332.0	335.0	331.0	336.0	
Tue Jun 06 04:02:00 UTC 2017	0.0	1.047281664E9	2156.662353515625	0.0	2.5731072E7	0.0	2.0	1.037901824E9	39.019500732421875	0.0	0.0	1.047130112E9	1.037533184E9	0.0	0.0	0.0832500010728836	0.04724999889731407	0.04924999922513962	0.9922500252723694	0.7828146815299988	0.0	244.0	371.0	0.0	0.0	0.0	0.0	0.0	0.0	null	null	null	null	null	null	null	null	334.0	335.0	335.0	337.0	338.0	336.0	336.0	336.0	334.0	336.0	334.0	
Tue Jun 06 04:01:00 UTC 2017	0.0	1.047281664E9	3137.724609375	0.0	2.5731072E7	0.0	2.0	1.037688832E9	39.019500732421875	0.0	0.0	1.047130112E9	1.037533184E9	0.0	0.0	0.09549999982118607	0.050999999046325684	0.048500001430511475	0.9922500252723694	0.782799482345581	0.0	244.0	371.0	0.0	0.0	0.0	0.0	0.0	0.0	null	null	null	null	null	null	null	null	336.0	337.0	337.0	335.0	336.0	336.0	335.0	338.0	338.0	338.0	335.0	
Tue Jun 06 04:00:00 UTC 2017	0.0	1.047281664E9	3137.724609375	0.0	2.5731072E7	0.0	2.0	1.037778944E9	39.019500732421875	0.0	0.0	1.047130112E9	1.03856128E9	0.0	0.0	0.07175000011920929	0.0494999997317791	0.0442500002682209	0.9925000071525574	0.7827931046485901	0.0	244.0	371.0	0.0	0.0	0.0	0.0	0.0	0.0	null	null	null	null	null	null	null	null	336.0	337.0	337.0	338.0	335.0	336.0	336.0	334.0	337.0	334.0	338.0	
Tue Jun 06 03:59:00 UTC 2017	0.0	1.047281664E9	2285.734619140625	0.0	2.5731072E7	0.0	3.0	1.037688832E9	39.019500732421875	0.0	0.0	1.047130112E9	1.03856128E9	0.0	0.0	0.07000000029802322	0.052000001072883606	0.04749999940395355	0.9922500252723694	0.7827755212783813	0.0	244.0	371.0	0.0	0.0	0.0	0.0	0.0	0.0	null	null	null	null	null	null	null	null	335.0	337.0	334.0	332.0	336.0	334.0	336.0	335.0	336.0	336.0	334.0	
Tue Jun 06 03:58:00 UTC 2017	0.0	1.047281664E9	2285.734619140625	0.0	2.5731072E7	0.0	3.0	1.037688832E9	39.019500732421875	0.0	0.0	1.047130112E9	1.037533184E9	0.0	0.0	0.08399999886751175	0.050999999046325684	0.04975000023841858	0.9919999837875366	0.7827735543251038	0.0	244.0	371.0	0.0	0.0	0.0	0.0	0.0	0.0	null	null	null	null	null	null	null	null	335.0	332.0	337.0	336.0	333.0	336.0	335.0	335.0	335.0	336.0	337.0	
Tue Jun 06 03:57:00 UTC 2017	0.0	1.047281664E9	2285.734619140625	0.0	2.5731072E7	0.0	2.0	1.038000128E9	39.019500732421875	0.0	0.0	1.047130112E9	1.037533184E9	0.0	null	0.0689999982714653	0.04975000023841858	0.04800000041723251	0.9922500252723694	0.7827569246292114	0.0	244.0	371.0	0.0	0.0	0.0	0.0	0.0	0.0	null	null	null	null	null	null	null	null	336.0	339.0	334.0	337.0	339.0	335.0	336.0	334.0	336.0	336.0	336.0	
Tue Jun 06 03:56:00 UTC 2017	0.0	1.047281664E9	2285.734619140625	0.0	2.5731072E7	0.0	2.0	1.03747584E9	39.019500732421875	0.0	0.0	1.047130112E9	1.03856128E9	0.0	0.0	0.07599999755620956	0.052000001072883606	0.04374999925494194	0.9922500252723694	0.7850354313850403	0.0	244.0	371.0	0.0	0.0	0.0	0.0	0.0	0.0	null	null	null	null	null	null	null	null	334.0	332.0	340.0	333.0	336.0	336.0	334.0	332.0	332.0	333.0	336.0	
Tue Jun 06 03:55:00 UTC 2017	0.0	1.047281664E9	2718.8955078125	0.0	2.5731072E7	0.0	3.0	1.037565952E9	42.38045883178711	0.0	0.0	1.047130112E9	1.037533184E9	0.0	0.0	0.07724999636411667	0.05225000157952309	0.048250000923871994	0.9922500252723694	0.7839952707290649	0.0	244.0	371.0	0.0	0.0	0.0	0.0	0.0	0.0	null	null	null	null	null	null	null	null	338.0	339.0	335.0	339.0	334.0	336.0	335.0	340.0	339.0	336.0	335.0	
Tue Jun 06 03:54:00 UTC 2017	0.0	1.047281664E9	2718.8955078125	0.0	2.5731072E7	0.0	3.0	1.03747584E9	42.38045883178711	0.0	0.0	1.047130112E9	1.037533184E9	0.0	null	0.07199999690055847	0.05324999988079071	0.04899999871850014	0.9922500252723694	0.7850149273872375	0.0	244.0	371.0	0.0	0.0	0.0	0.0	0.0	0.0	null	null	null	null	null	null	null	null	335.0	333.0	334.0	334.0	334.0	333.0	333.0	336.0	333.0	337.0	334.0	
Tue Jun 06 03:53:00 UTC 2017	0.0	1.047281664E9	2718.8955078125	0.0	2.5731072E7	0.0	2.0	1.03747584E9	42.38045883178711	0.0	0.0	1.047130112E9	1.03856128E9	0.0	0.0	0.07874999940395355	0.04625000059604645	0.04600000008940697	0.9922500252723694	0.782709002494812	0.0	244.0	371.0	0.0	0.0	0.0	0.0	0.0	0.0	null	null	null	null	null	null	null	null	336.0	335.0	335.0	334.0	334.0	340.0	340.0	334.0	338.0	336.0	340.0	
Tue Jun 06 03:52:00 UTC 2017	0.0	1.047281664E9	2718.8955078125	0.0	2.5731072E7	0.0	2.0	1.03747584E9	42.38045883178711	0.0	0.0	1.047130112E9	1.037533184E9	0.0	0.0	0.06875000149011612	0.05350000038743019	0.04975000023841858	0.9925000071525574	0.7842286229133606	0.0	244.0	371.0	0.0	0.0	0.0	0.0	0.0	0.0	null	null	null	null	null	null	null	null	336.0	337.0	337.0	336.0	334.0	336.0	334.0	333.0	336.0	333.0	336.0	
Tue Jun 06 03:51:00 UTC 2017	0.0	1.047281664E9	2718.8955078125	0.0	2.5731072E7	0.0	2.0	1.037262848E9	42.38045883178711	0.0	0.0	1.047130112E9	1.037533184E9	0.0	0.0	0.10875000059604645	0.05400000140070915	0.04450000077486038	0.9922500252723694	0.7826952934265137	0.0	244.0	371.0	0.0	0.0	0.0	0.0	0.0	0.0	null	null	null	null	null	null	null	null	333.0	340.0	339.0	336.0	335.0	336.0	334.0	335.0	336.0	335.0	337.0	
Tue Jun 06 03:50:00 UTC 2017	0.0	1.047281664E9	2950.4990234375	0.0	2.5731072E7	0.0	2.0	1.03735296E9	58.46028137207031	0.0	0.0	1.047130112E9	1.03856128E9	0.0	0.0	0.07925000041723251	0.048250000923871994	0.051750000566244125	0.9922500252723694	0.7849600911140442	0.0	244.0	371.0	0.0	0.0	0.0	0.0	0.0	0.0	null	null	null	null	null	null	null	null	340.0	333.0	332.0	334.0	336.0	332.0	339.0	336.0	335.0	339.0	334.0	
Tue Jun 06 03:49:00 UTC 2017	0.0	1.047281664E9	2950.4990234375	0.0	2.5731072E7	0.0	2.0	1.037262848E9	41.30120086669922	0.0	0.0	1.047130112E9	1.037533184E9	0.0	0.0	0.06475000083446503	0.04899999871850014	0.04625000059604645	0.9922500252723694	0.7826566100120544	0.0	244.0	371.0	0.0	0.0	0.0	0.0	0.0	0.0	null	null	null	null	null	null	null	null	335.0	337.0	337.0	335.0	336.0	336.0	331.0	334.0	333.0	333.0	334.0	
Tue Jun 06 03:48:00 UTC 2017	0.0	1.047281664E9	2759.192626953125	0.0	2.5731072E7	0.0	2.0	1.037262848E9	41.30120086669922	0.0	0.0	1.047130112E9	1.037533184E9	0.0	0.0	0.07599999755620956	0.054249998182058334	0.04399999976158142	0.9922500252723694	0.782652735710144	0.0	244.0	371.0	0.0	0.0	0.0	0.0	0.0	0.0	null	null	null	null	null	null	null	null	334.0	337.0	336.0	332.0	336.0	337.0	339.0	339.0	335.0	333.0	337.0	
Tue Jun 06 03:47:00 UTC 2017	0.0	1.047281664E9	2759.192626953125	0.0	2.5731072E7	0.0	2.0	1.037053952E9	41.30120086669922	0.0	0.0	1.047130112E9	1.037533184E9	0.0	0.0	0.07374999672174454	0.05025000125169754	0.05025000125169754	0.9925000071525574	0.7826375365257263	0.0	244.0	371.0	0.0	0.0	0.0	0.0	0.0	0.0	null	null	null	null	null	null	null	null	334.0	335.0	335.0	337.0	335.0	335.0	335.0	334.0	341.0	339.0	338.0	
Tue Jun 06 03:46:00 UTC 2017	0.0	1.047281664E9	2898.968994140625	0.0	2.5731072E7	0.0	3.0	1.037053952E9	37.99186706542969	0.0	0.0	1.047130112E9	1.03856128E9	0.0	0.0	0.07450000196695328	0.05375000089406967	0.04450000077486038	0.9922500252723694	0.7826287150382996	0.0	244.0	371.0	0.0	0.0	0.0	0.0	0.0	0.0	null	null	null	null	null	null	null	null	334.0	333.0	335.0	337.0	338.0	334.0	332.0	337.0	332.0	331.0	332.0	
Tue Jun 06 03:45:00 UTC 2017	0.0	1.047281664E9	2898.968994140625	0.0	2.5731072E7	0.0	2.0	1.037144064E9	37.99186706542969	0.0	0.0	1.047130112E9	1.037533184E9	0.0	0.0	0.07575000077486038	0.04500000178813934	0.048500001430511475	0.9922500252723694	0.7826228737831116	0.0	244.0	371.0	0.0	0.0	0.0	0.0	0.0	0.0	null	null	null	null	null	null	null	null	335.0	337.0	335.0	333.0	337.0	338.0	335.0	332.0	336.0	335.0	334.0	
Tue Jun 06 03:44:00 UTC 2017	0.0	1.047281664E9	2561.509521484375	0.0	2.5731072E7	0.0	2.0	1.037053952E9	37.99186706542969	0.0	0.0	1.047130112E9	1.037533184E9	0.0	null	0.07325000315904617	0.05649999901652336	0.0494999997317791	0.9919999837875366	0.7848930954933167	0.0	244.0	371.0	0.0	0.0	0.0	0.0	0.0	0.0	null	null	null	null	null	null	null	null	337.0	335.0	336.0	336.0	332.0	334.0	332.0	333.0	333.0	336.0	336.0	
Tue Jun 06 03:43:00 UTC 2017	0.0	1.047281664E9	2762.208740234375	0.0	2.5731072E7	0.0	2.0	1.037053952E9	41.57535934448242	0.0	0.0	1.047130112E9	1.037533184E9	0.0	null	0.07649999856948853	0.04625000059604645	0.04600000008940697	0.9925000071525574	0.7826023101806641	0.0	244.0	371.0	0.0	0.0	0.0	0.0	0.0	0.0	null	null	null	null	null	null	null	null	336.0	337.0	335.0	339.0	338.0	335.0	338.0	335.0	337.0	335.0	338.0	
Tue Jun 06 03:42:00 UTC 2017	0.0	1.047281664E9	2908.689697265625	0.0	2.5731072E7	0.0	2.0	1.037053952E9	41.57535934448242	0.0	0.0	1.047130112E9	1.03856128E9	0.0	null	0.07774999737739563	0.05050000175833702	0.04749999940395355	0.9922500252723694	0.7837266325950623	0.0	244.0	371.0	0.0	0.0	0.0	0.0	0.0	0.0	null	null	null	null	null	null	null	null	336.0	335.0	337.0	335.0	333.0	336.0	333.0	337.0	334.0	334.0	337.0	
Tue Jun 06 03:41:00 UTC 2017	0.0	1.047281664E9	2583.14306640625	0.0	2.5731072E7	0.0	2.0	1.03684096E9	41.57535934448242	0.0	0.0	1.047130112E9	1.037533184E9	0.0	null	0.1042499989271164	0.05249999836087227	0.048500001430511475	0.9919999837875366	0.7825250029563904	0.0	244.0	371.0	0.0	0.0	0.0	0.0	0.0	0.0	null	null	null	null	null	null	null	null	338.0	336.0	335.0	338.0	335.0	337.0	335.0	335.0	336.0	336.0	335.0	
Tue Jun 06 03:40:00 UTC 2017	0.0	1.047281664E9	3121.643798828125	0.0	2.5731072E7	0.0	3.0	1.036931072E9	43.81418228149414	0.0	0.0	1.047130112E9	1.03856128E9	0.0	0.0	0.07100000232458115	0.04975000023841858	0.04625000059604645	0.9925000071525574	0.782508373260498	0.0	244.0	371.0	0.0	0.0	0.0	0.0	0.0	0.0	null	null	null	null	null	null	null	null	333.0	337.0	335.0	334.0	338.0	332.0	336.0	338.0	335.0	335.0	335.0	
Tue Jun 06 03:39:00 UTC 2017	0.0	1.047281664E9	3121.643798828125	0.0	2.5731072E7	0.0	2.0	1.03684096E9	43.81418228149414	0.0	0.0	1.047130112E9	1.037533184E9	0.0	0.0	0.08174999803304672	0.051249999552965164	0.04774999991059303	0.9925000071525574	0.7825068831443787	0.0	244.0	371.0	0.0	0.0	0.0	0.0	0.0	0.0	null	null	null	null	null	null	null	null	336.0	336.0	334.0	337.0	334.0	336.0	335.0	332.0	336.0	336.0	336.0	
Tue Jun 06 03:38:00 UTC 2017	0.0	1.047281664E9	3121.643798828125	0.0	2.5731072E7	0.0	2.0	1.03684096E9	43.81418228149414	0.0	0.0	1.047130112E9	1.037533184E9	0.0	0.0	0.07474999874830246	0.0494999997317791	0.05225000157952309	0.9925000071525574	0.7824833989143372	0.0	244.0	371.0	0.0	0.0	0.0	0.0	0.0	0.0	null	null	null	null	null	null	null	null	336.0	334.0	334.0	338.0	336.0	333.0	337.0	337.0	339.0	333.0	338.0	
Tue Jun 06 03:37:00 UTC 2017	0.0	1.047281664E9	3077.762451171875	0.0	2.5731072E7	0.0	2.0	1.036627968E9	47.3174934387207	0.0	0.0	1.047130112E9	1.037533184E9	0.0	null	0.06624999642372131	0.05674999952316284	0.04349999874830246	0.9922500252723694	0.7824662923812866	0.0	244.0	371.0	0.0	0.0	0.0	0.0	0.0	0.0	null	null	null	null	null	null	null	null	336.0	336.0	337.0	335.0	335.0	335.0	335.0	332.0	333.0	336.0	334.0	
Tue Jun 06 03:36:00 UTC 2017	0.0	1.047281664E9	2939.019287109375	0.0	2.5731072E7	0.0	5.0	1.036627968E9	55.944618225097656	0.0	0.0	1.047130112E9	1.03856128E9	0.0	0.0	0.08224999904632568	0.05299999937415123	0.05000000074505806	0.9922500252723694	0.7824804782867432	0.0	244.0	371.0	0.0	0.0	0.0	0.0	0.0	0.0	null	null	null	null	null	null	null	null	335.0	334.0	336.0	333.0	336.0	337.0	338.0	336.0	337.0	334.0	335.0	
Tue Jun 06 03:35:00 UTC 2017	0.0	1.047281664E9	2939.019287109375	0.0	2.5731072E7	0.0	2.0	1.03671808E9	55.944618225097656	0.0	0.0	1.047130112E9	1.037533184E9	0.0	0.0	0.07374999672174454	0.045499999076128006	0.05025000125169754	0.9925000071525574	0.7824633717536926	0.0	244.0	371.0	0.0	0.0	0.0	0.0	0.0	0.0	null	null	null	null	null	null	null	null	338.0	336.0	336.0	338.0	336.0	336.0	335.0	337.0	337.0	336.0	336.0	
Tue Jun 06 03:34:00 UTC 2017	0.0	1.047281664E9	2312.829833984375	0.0	2.5731072E7	0.0	2.0	1.036627968E9	41.14946746826172	0.0	0.0	1.047130112E9	1.03856128E9	0.0	0.0	0.0754999965429306	0.05375000089406967	0.04475000128149986	0.9922500252723694	0.7824457287788391	0.0	244.0	371.0	0.0	0.0	0.0	0.0	0.0	0.0	null	null	null	null	null	null	null	null	334.0	336.0	337.0	333.0	335.0	332.0	336.0	335.0	331.0	337.0	335.0	
Tue Jun 06 03:33:00 UTC 2017	0.0	1.047281664E9	2312.829833984375	0.0	2.5731072E7	0.0	2.0	1.036627968E9	41.14946746826172	0.0	0.0	1.047130112E9	1.03856128E9	0.0	0.0	0.06575000286102295	0.04899999871850014	0.045499999076128006	0.9922500252723694	0.782458484172821	0.0	244.0	371.0	0.0	0.0	0.0	0.0	0.0	0.0	null	null	null	null	null	null	null	null	337.0	335.0	334.0	336.0	336.0	339.0	334.0	334.0	337.0	338.0	338.0	
Tue Jun 06 03:32:00 UTC 2017	0.0	1.047281664E9	2312.829833984375	0.0	2.5731072E7	0.0	2.0	1.036627968E9	41.14946746826172	0.0	0.0	1.047130112E9	1.03856128E9	0.0	0.0	0.08275000005960464	0.052000001072883606	0.051249999552965164	0.9925000071525574	0.7824379205703735	0.0	244.0	371.0	0.0	0.0	0.0	0.0	0.0	0.0	null	null	null	null	null	null	null	null	337.0	336.0	337.0	337.0	337.0	335.0	335.0	334.0	335.0	334.0	336.0	
Tue Jun 06 03:31:00 UTC 2017	0.0	1.047281664E9	2312.829833984375	0.0	2.5731072E7	0.0	2.0	1.036505088E9	41.14946746826172	1.0	0.0	1.047130112E9	1.037533184E9	0.0	0.0	0.10199999809265137	0.050999999046325684	0.042750000953674316	0.9922500252723694	0.7824261784553528	0.0	244.0	371.0	0.0	0.0	0.0	0.0	0.0	0.0	null	null	null	null	null	null	null	null	336.0	334.0	336.0	337.0	335.0	336.0	337.0	337.0	335.0	338.0	334.0	
Tue Jun 06 03:30:00 UTC 2017	0.0	1.047281664E9	3107.7626953125	0.0	2.5731072E7	0.0	4.0	1.036505088E9	53.36339569091797	1.0	1.0	1.047130112E9	1.037533184E9	0.0	0.0	0.06975000351667404	0.05925000086426735	0.048250000923871994	0.9925000071525574	0.7824286222457886	0.0	244.0	371.0	0.0	0.0	0.0	0.0	0.0	0.0	null	null	null	null	null	null	null	null	334.0	334.0	338.0	336.0	335.0	336.0	336.0	336.0	336.0	334.0	335.0	
Tue Jun 06 03:29:00 UTC 2017	0.0	1.047281664E9	3107.7626953125	0.0	2.5731072E7	0.0	2.0	1.036414976E9	54.09909439086914	0.0	0.0	1.047130112E9	1.03856128E9	0.0	null	0.0794999971985817	0.04975000023841858	0.054749999195337296	0.9919999837875366	0.7835441827774048	0.0	244.0	371.0	0.0	0.0	0.0	0.0	0.0	0.0	null	null	null	null	null	null	null	null	336.0	337.0	332.0	334.0	334.0	335.0	334.0	339.0	334.0	337.0	336.0	
Tue Jun 06 03:28:00 UTC 2017	0.0	1.047281664E9	3107.7626953125	0.0	2.5731072E7	0.0	6.0	1.036414976E9	49.37519836425781	0.0	0.0	1.047130112E9	1.03856128E9	0.0	null	0.0689999982714653	0.04650000110268593	0.04475000128149986	0.9922500252723694	0.7823899984359741	0.0	244.0	371.0	0.0	0.0	0.0	0.0	0.0	0.0	null	null	null	null	null	null	null	null	334.0	336.0	336.0	337.0	337.0	338.0	334.0	336.0	335.0	332.0	335.0	
Tue Jun 06 03:27:00 UTC 2017	0.0	1.047281664E9	3107.7626953125	0.0	2.5731072E7	0.0	2.0	1.036201984E9	49.37519836425781	0.0	0.0	1.047130112E9	1.03856128E9	0.0	null	0.08349999785423279	0.05649999901652336	0.0494999997317791	0.9925000071525574	0.7846283912658691	0.0	244.0	371.0	0.0	0.0	0.0	0.0	0.0	0.0	null	null	null	null	null	null	null	null	337.0	336.0	333.0	336.0	334.0	336.0	337.0	333.0	336.0	334.0	337.0	
Tue Jun 06 03:26:00 UTC 2017	0.0	1.047281664E9	2956.99072265625	0.0	2.5731072E7	0.0	2.0	1.036292096E9	40.23032760620117	0.0	0.0	1.047130112E9	1.037533184E9	0.0	null	0.07325000315904617	0.04724999889731407	0.045499999076128006	0.9922500252723694	0.7823889851570129	0.0	244.0	371.0	0.0	0.0	0.0	0.0	0.0	0.0	null	null	null	null	null	null	null	null	335.0	337.0	338.0	337.0	337.0	340.0	338.0	334.0	336.0	335.0	338.0	
Tue Jun 06 03:25:00 UTC 2017	0.0	1.047281664E9	2956.99072265625	0.0	2.5731072E7	0.0	2.0	1.036292096E9	40.23032760620117	0.0	0.0	1.047130112E9	1.03856128E9	0.0	null	0.07699999958276749	0.0507499985396862	0.04724999889731407	0.9922500252723694	0.7835378050804138	0.0	244.0	371.0	0.0	0.0	0.0	0.0	0.0	0.0	null	null	null	null	null	null	null	null	334.0	337.0	337.0	334.0	335.0	334.0	336.0	335.0	334.0	334.0	335.0	
Tue Jun 06 03:24:00 UTC 2017	0.0	1.047281664E9	2956.99072265625	0.0	2.5731072E7	0.0	2.0	1.036201984E9	40.23032760620117	0.0	0.0	1.047130112E9	1.037533184E9	0.0	null	0.0689999982714653	0.04899999871850014	0.04874999821186066	0.9922500252723694	0.7823610901832581	0.0	244.0	371.0	0.0	0.0	0.0	0.0	0.0	0.0	null	null	null	null	null	null	null	null	338.0	334.0	335.0	336.0	332.0	342.0	334.0	336.0	335.0	335.0	336.0	
Tue Jun 06 03:23:00 UTC 2017	0.0	1.047281664E9	3096.310546875	0.0	2.5731072E7	0.0	4.0	1.036201984E9	44.119537353515625	1.0	0.0	1.047130112E9	1.03856128E9	0.0	0.0	0.07774999737739563	0.054749999195337296	0.04800000041723251	0.9919999837875366	0.7823454737663269	0.0	244.0	371.0	0.0	0.0	0.0	0.0	0.0	0.0	null	null	null	null	null	null	null	null	334.0	335.0	333.0	337.0	339.0	334.0	333.0	333.0	334.0	336.0	337.0	
Tue Jun 06 03:22:00 UTC 2017	0.0	1.047281664E9	3094.535400390625	0.0	2.5731072E7	0.0	2.0	1.035988992E9	44.119537353515625	0.0	0.0	1.047130112E9	1.037533184E9	0.0	0.0	0.07374999672174454	0.04724999889731407	0.0494999997317791	0.9922500252723694	0.7823547720909119	0.0	244.0	371.0	0.0	0.0	0.0	0.0	0.0	0.0	null	null	null	null	null	null	null	null	335.0	338.0	333.0	333.0	333.0	341.0	340.0	337.0	337.0	332.0	337.0	
Tue Jun 06 03:21:00 UTC 2017	0.0	1.047281664E9	3094.535400390625	0.0	2.5731072E7	0.0	2.0	1.035988992E9	39.86446762084961	0.0	0.0	1.047130112E9	1.037533184E9	0.0	0.0	0.09749999642372131	0.052000001072883606	0.04699999839067459	0.9922500252723694	0.7823566794395447	0.0	244.0	371.0	0.0	0.0	0.0	0.0	0.0	0.0	null	null	null	null	null	null	null	null	339.0	333.0	338.0	336.0	341.0	336.0	332.0	333.0	334.0	336.0	335.0	
Tue Jun 06 03:20:00 UTC 2017	0.0	1.047281664E9	3094.535400390625	0.0	2.5731072E7	0.0	2.0	1.036079104E9	39.86446762084961	0.0	0.0	1.047130112E9	1.037533184E9	0.0	0.0	0.07625000178813934	0.05000000074505806	0.045249998569488525	0.9925000071525574	0.7823395729064941	0.0	244.0	371.0	0.0	0.0	0.0	0.0	0.0	0.0	null	null	null	null	null	null	null	null	334.0	335.0	335.0	337.0	335.0	335.0	340.0	333.0	333.0	335.0	341.0	
Tue Jun 06 03:19:00 UTC 2017	0.0	1.047281664E9	3094.535400390625	0.0	2.5731072E7	0.0	2.0	1.035988992E9	53.75975036621094	0.0	0.0	1.047130112E9	1.037533184E9	0.0	0.0	0.07225000113248825	0.05274999886751175	0.04800000041723251	0.9919999837875366	0.7823229432106018	0.0	244.0	371.0	0.0	0.0	0.0	0.0	0.0	0.0	null	null	null	null	null	null	null	null	336.0	337.0	334.0	336.0	337.0	337.0	331.0	336.0	339.0	333.0	336.0	
Tue Jun 06 03:18:00 UTC 2017	0.0	1.047281664E9	3094.535400390625	0.0	2.5731072E7	0.0	2.0	1.035988992E9	56.50714111328125	0.0	0.0	1.047130112E9	1.037533184E9	0.0	0.0	0.06925000250339508	0.051750000566244125	0.04724999889731407	0.9922500252723694	0.7822279930114746	0.0	244.0	371.0	0.0	0.0	0.0	0.0	0.0	0.0	null	null	null	null	null	null	null	null	335.0	336.0	337.0	338.0	334.0	335.0	338.0	336.0	333.0	336.0	334.0	
Tue Jun 06 03:17:00 UTC 2017	0.0	1.047281664E9	3061.478515625	0.0	2.5731072E7	0.0	3.0	1.035988992E9	56.50714111328125	0.0	0.0	1.047130112E9	1.03856128E9	0.0	0.0	0.0767500028014183	0.05575000122189522	0.05050000175833702	0.9922500252723694	0.784524142742157	0.0	244.0	371.0	0.0	0.0	0.0	0.0	0.0	0.0	null	null	null	null	null	null	null	null	336.0	337.0	332.0	335.0	336.0	335.0	336.0	335.0	337.0	335.0	336.0	
Tue Jun 06 03:16:00 UTC 2017	0.0	1.047281664E9	3061.478515625	0.0	2.5731072E7	0.0	5.0	1.035780096E9	56.50714111328125	1.0	2.0	1.047130112E9	1.03856128E9	0.0	0.0	0.08425000309944153	0.05400000140070915	0.04075000062584877	0.9925000071525574	0.7822094559669495	0.0	244.0	371.0	0.0	0.0	0.0	0.0	0.0	0.0	null	null	null	null	null	null	null	null	335.0	333.0	336.0	337.0	333.0	340.0	338.0	336.0	336.0	338.0	336.0	
Tue Jun 06 03:15:00 UTC 2017	0.0	1.047281664E9	2631.796630859375	0.0	2.5731072E7	0.0	2.0	1.035870208E9	56.50714111328125	0.0	0.0	1.047130112E9	1.03856128E9	0.0	0.0	0.07050000131130219	0.048500001430511475	0.05299999937415123	0.9922500252723694	0.7822015881538391	0.0	244.0	371.0	0.0	0.0	0.0	0.0	0.0	0.0	null	null	null	null	null	null	null	null	337.0	337.0	338.0	335.0	338.0	335.0	333.0	335.0	337.0	333.0	338.0	
Tue Jun 06 03:14:00 UTC 2017	0.0	1.047281664E9	2631.796630859375	0.0	2.5731072E7	0.0	2.0	1.03596032E9	56.50714111328125	0.0	0.0	1.047130112E9	1.03856128E9	0.0	0.0	0.07699999958276749	0.05274999886751175	0.04024999961256981	0.9917500019073486	0.7821849584579468	0.0	244.0	371.0	0.0	0.0	0.0	0.0	0.0	0.0	null	null	null	null	null	null	null	null	332.0	336.0	332.0	336.0	335.0	335.0	335.0	335.0	336.0	335.0	336.0	
Tue Jun 06 03:13:00 UTC 2017	0.0	1.047281664E9	2631.796630859375	0.0	2.5731072E7	0.0	3.0	1.035780096E9	56.50714111328125	0.0	0.0	1.047130112E9	1.03856128E9	0.0	0.0	0.07000000029802322	0.05050000175833702	0.05025000125169754	0.9922500252723694	0.7821561098098755	0.0	244.0	371.0	0.0	0.0	0.0	0.0	0.0	0.0	null	null	null	null	null	null	null	null	337.0	334.0	335.0	335.0	337.0	335.0	335.0	334.0	336.0	336.0	339.0	
Tue Jun 06 03:12:00 UTC 2017	0.0	1.047281664E9	2756.0869140625	0.0	2.5731072E7	0.0	3.0	1.035780096E9	45.371925354003906	0.0	0.0	1.047130112E9	1.03856128E9	0.0	0.0	0.0729999989271164	0.05624999850988388	0.04874999821186066	0.9922500252723694	0.7826517224311829	0.0	244.0	371.0	0.0	0.0	0.0	0.0	0.0	0.0	null	null	null	null	null	null	null	null	337.0	335.0	337.0	338.0	334.0	335.0	335.0	336.0	337.0	337.0	335.0	
Tue Jun 06 03:11:00 UTC 2017	0.0	1.047281664E9	2756.0869140625	0.0	2.5731072E7	0.0	2.0	1.035567104E9	40.44364547729492	0.0	0.0	1.047130112E9	1.037533184E9	0.0	0.0	0.10599999874830246	0.04650000110268593	0.04374999925494194	0.9922500252723694	0.7821512222290039	0.0	244.0	371.0	0.0	0.0	0.0	0.0	0.0	0.0	null	null	null	null	null	null	null	null	336.0	337.0	331.0	334.0	334.0	333.0	335.0	337.0	334.0	333.0	338.0	
Tue Jun 06 03:10:00 UTC 2017	0.0	1.047281664E9	2756.0869140625	0.0	2.5731072E7	0.0	4.0	1.03591936E9	62.665313720703125	0.0	0.0	1.047130112E9	1.037533184E9	0.0	0.0	0.0702499970793724	0.05400000140070915	0.051750000566244125	0.9922500252723694	0.782138466835022	0.0	244.0	371.0	0.0	0.0	0.0	0.0	0.0	0.0	null	null	null	null	null	null	null	null	332.0	333.0	337.0	334.0	337.0	336.0	339.0	337.0	338.0	337.0	334.0	
Tue Jun 06 03:09:00 UTC 2017	0.0	1.047281664E9	2787.018310546875	0.0	2.5731072E7	0.0	2.0	1.03550976E9	62.665313720703125	0.0	0.0	1.047130112E9	1.03856128E9	0.0	0.0	0.07850000262260437	0.048500001430511475	0.05000000074505806	0.9922500252723694	0.7821360230445862	0.0	244.0	371.0	0.0	0.0	0.0	0.0	0.0	0.0	null	null	null	null	null	null	null	null	337.0	336.0	335.0	335.0	334.0	337.0	333.0	337.0	332.0	336.0	335.0	
Tue Jun 06 03:08:00 UTC 2017	0.0	1.047281664E9	2787.018310546875	0.0	2.5731072E7	0.0	2.0	1.03550976E9	52.29230499267578	0.0	0.0	1.047130112E9	1.03856128E9	0.0	null	0.07325000315904617	0.050999999046325684	0.04450000077486038	0.9922500252723694	0.7833699584007263	0.0	244.0	371.0	0.0	0.0	0.0	0.0	0.0	0.0	null	null	null	null	null	null	null	null	335.0	336.0	332.0	340.0	338.0	336.0	333.0	333.0	337.0	335.0	335.0	
Tue Jun 06 03:07:00 UTC 2017	0.0	1.047281664E9	2787.018310546875	0.0	2.5731072E7	0.0	2.0	1.03575552E9	52.29230499267578	0.0	0.0	1.047130112E9	1.037533184E9	0.0	null	0.0767500028014183	0.05025000125169754	0.0494999997317791	0.9925000071525574	0.7820802330970764	0.0	244.0	371.0	0.0	0.0	0.0	0.0	0.0	0.0	null	null	null	null	null	null	null	null	336.0	337.0	340.0	331.0	334.0	336.0	339.0	337.0	334.0	336.0	338.0	
Tue Jun 06 03:06:00 UTC 2017	0.0	1.047281664E9	2877.066650390625	0.0	2.5731072E7	0.0	2.0	1.035296768E9	52.29230499267578	0.0	0.0	1.047130112E9	1.03856128E9	0.0	0.0	0.06849999725818634	0.054499998688697815	0.04699999839067459	0.9925000071525574	0.7820621728897095	0.0	244.0	371.0	0.0	0.0	0.0	0.0	0.0	0.0	null	null	null	null	null	null	null	null	337.0	336.0	332.0	335.0	336.0	334.0	334.0	333.0	337.0	336.0	336.0	
Tue Jun 06 03:05:00 UTC 2017	0.0	1.047281664E9	2877.066650390625	0.0	2.5731072E7	0.0	5.0	1.03538688E9	52.29230499267578	0.0	0.0	1.047130112E9	1.037533184E9	0.0	0.0	0.07275000214576721	0.04874999821186066	0.04899999871850014	0.9922500252723694	0.7820582389831543	0.0	244.0	371.0	0.0	0.0	0.0	0.0	0.0	0.0	null	null	null	null	null	null	null	null	336.0	337.0	336.0	338.0	337.0	337.0	338.0	335.0	335.0	337.0	335.0	
Tue Jun 06 03:04:00 UTC 2017	0.0	1.047281664E9	2877.066650390625	0.0	2.5731072E7	0.0	5.0	1.035296768E9	52.29230499267578	0.0	0.0	1.047130112E9	1.037533184E9	0.0	0.0	0.07450000196695328	0.04774999991059303	0.04874999821186066	0.9922500252723694	0.7820450067520142	0.0	244.0	371.0	0.0	0.0	0.0	0.0	0.0	0.0	null	null	null	null	null	null	null	null	334.0	331.0	337.0	335.0	337.0	337.0	335.0	335.0	337.0	334.0	333.0	
Tue Jun 06 03:03:00 UTC 2017	0.0	1.047281664E9	2753.180908203125	0.0	2.5731072E7	0.0	2.0	1.035296768E9	56.02354431152344	0.0	0.0	1.047130112E9	1.03856128E9	0.0	0.0	0.07349999994039536	0.054999999701976776	0.04600000008940697	0.9922500252723694	0.7820166349411011	0.0	244.0	371.0	0.0	0.0	0.0	0.0	0.0	0.0	null	null	null	null	null	null	null	null	336.0	339.0	338.0	334.0	334.0	337.0	333.0	338.0	334.0	337.0	337.0	
Tue Jun 06 03:02:00 UTC 2017	0.0	1.047281664E9	2396.86572265625	0.0	2.5731072E7	0.0	2.0	1.035296768E9	41.895503997802734	0.0	0.0	1.047130112E9	1.037533184E9	0.0	0.0	0.07649999856948853	0.05000000074505806	0.05000000074505806	0.9922500252723694	0.781985342502594	0.0	244.0	371.0	0.0	0.0	0.0	0.0	0.0	0.0	null	null	null	null	null	null	null	null	338.0	336.0	335.0	335.0	335.0	335.0	337.0	334.0	336.0	332.0	336.0	
Tue Jun 06 03:01:00 UTC 2017	0.0	1.047281664E9	2396.86572265625	0.0	2.5731072E7	0.0	2.0	1.035083776E9	41.895503997802734	0.0	0.0	1.047130112E9	1.03856128E9	0.0	0.0	0.09925000369548798	0.054749999195337296	0.04475000128149986	0.9922500252723694	0.7819461822509766	0.0	244.0	371.0	0.0	0.0	0.0	0.0	0.0	0.0	null	null	null	null	null	null	null	null	333.0	336.0	334.0	335.0	335.0	335.0	336.0	335.0	338.0	339.0	334.0	
Tue Jun 06 03:00:00 UTC 2017	0.0	1.047281664E9	2618.783203125	0.0	2.5731072E7	0.0	2.0	1.035173888E9	41.895503997802734	0.0	0.0	1.047130112E9	1.03856128E9	0.0	0.0	0.0742499977350235	0.05050000175833702	0.04975000023841858	0.9925000071525574	0.7841855883598328	0.0	244.0	371.0	0.0	0.0	0.0	0.0	0.0	0.0	null	null	null	null	null	null	null	null	338.0	332.0	336.0	337.0	336.0	339.0	335.0	336.0	335.0	334.0	337.0	
Tue Jun 06 02:59:00 UTC 2017	0.0	1.047281664E9	3007.306640625	0.0	2.5731072E7	0.0	3.0	1.035083776E9	41.895503997802734	0.0	0.0	1.047130112E9	1.037533184E9	0.0	0.0	0.07824999839067459	0.05299999937415123	0.04899999871850014	0.9922500252723694	0.7818865180015564	0.0	244.0	371.0	0.0	0.0	0.0	0.0	0.0	0.0	null	null	null	null	null	null	null	null	335.0	337.0	334.0	335.0	335.0	334.0	335.0	335.0	336.0	333.0	332.0	
Tue Jun 06 02:58:00 UTC 2017	0.0	1.047281664E9	2372.765869140625	0.0	2.5731072E7	0.0	3.0	1.035083776E9	41.895503997802734	0.0	0.0	1.047130112E9	1.037533184E9	0.0	0.0	0.07724999636411667	0.050999999046325684	0.04924999922513962	0.9922500252723694	0.7831106781959534	0.0	244.0	371.0	0.0	0.0	0.0	0.0	0.0	0.0	null	null	null	null	null	null	null	null	335.0	336.0	337.0	335.0	335.0	335.0	334.0	333.0	337.0	337.0	337.0	
Tue Jun 06 02:57:00 UTC 2017	0.0	1.047281664E9	2908.00048828125	0.0	2.5731072E7	0.0	4.0	1.03487488E9	41.895503997802734	0.0	0.0	1.047130112E9	1.03856128E9	0.0	0.0	0.06424999982118607	0.04625000059604645	0.045499999076128006	0.9917500019073486	0.7818581461906433	0.0	244.0	371.0	0.0	0.0	0.0	0.0	0.0	0.0	null	null	null	null	null	null	null	null	336.0	337.0	333.0	334.0	337.0	337.0	337.0	333.0	335.0	336.0	334.0	
Tue Jun 06 02:56:00 UTC 2017	0.0	1.047281664E9	2908.00048828125	0.0	2.5731072E7	0.0	2.0	1.03487488E9	50.35123062133789	0.0	0.0	1.047130112E9	1.037533184E9	0.0	0.0	0.08275000005960464	0.05674999952316284	0.048250000923871994	0.9922500252723694	0.7818601131439209	0.0	244.0	371.0	0.0	0.0	0.0	0.0	0.0	0.0	null	null	null	null	null	null	null	null	337.0	335.0	337.0	335.0	336.0	335.0	335.0	339.0	336.0	337.0	337.0	
Tue Jun 06 02:55:00 UTC 2017	0.0	1.047281664E9	2704.751708984375	0.0	2.5731072E7	0.0	2.0	1.034964992E9	51.17685317993164	0.0	0.0	1.047130112E9	1.03856128E9	0.0	0.0	0.07374999672174454	0.045499999076128006	0.048250000923871994	0.9925000071525574	0.7818459272384644	0.0	244.0	371.0	0.0	0.0	0.0	0.0	0.0	0.0	null	null	null	null	null	null	null	null	333.0	335.0	337.0	333.0	336.0	335.0	338.0	334.0	334.0	332.0	336.0	
Tue Jun 06 02:54:00 UTC 2017	0.0	1.047281664E9	2704.751708984375	0.0	2.5731072E7	0.0	2.0	1.03487488E9	49.1041145324707	0.0	0.0	1.047130112E9	1.03856128E9	0.0	0.0	0.06975000351667404	0.0507499985396862	0.04650000110268593	0.9922500252723694	0.7818253636360168	0.0	244.0	371.0	0.0	0.0	0.0	0.0	0.0	0.0	null	null	null	null	null	null	null	null	338.0	333.0	332.0	339.0	335.0	333.0	336.0	332.0	338.0	340.0	335.0	
Tue Jun 06 02:53:00 UTC 2017	0.0	1.047281664E9	2503.86328125	0.0	2.5731072E7	0.0	2.0	1.03487488E9	49.1041145324707	0.0	0.0	1.047130112E9	1.03856128E9	0.0	0.0	0.08174999803304672	0.054749999195337296	0.0430000014603138	0.9922500252723694	0.7817901372909546	0.0	244.0	371.0	0.0	0.0	0.0	0.0	0.0	0.0	null	null	null	null	null	null	null	null	336.0	335.0	335.0	332.0	332.0	339.0	335.0	337.0	333.0	335.0	335.0	
Tue Jun 06 02:52:00 UTC 2017	0.0	1.047281664E9	2503.86328125	0.0	2.5731072E7	0.0	3.0	1.03487488E9	40.107749938964844	0.0	0.0	1.047130112E9	1.03856128E9	0.0	0.0	0.0677499994635582	0.051750000566244125	0.05225000157952309	0.9922500252723694	0.7836023569107056	0.0	244.0	371.0	0.0	0.0	0.0	0.0	0.0	0.0	null	null	null	null	null	null	null	null	335.0	336.0	332.0	341.0	339.0	336.0	337.0	337.0	339.0	332.0	333.0	
Tue Jun 06 02:51:00 UTC 2017	0.0	1.047281664E9	3131.946044921875	0.0	2.5731072E7	0.0	2.0	1.034661888E9	42.505435943603516	2.0	2.0	1.047130112E9	1.03856128E9	0.0	0.0	0.10649999976158142	0.060499999672174454	0.04625000059604645	0.9922500252723694	0.7840383052825928	0.0	244.0	371.0	0.0	0.0	0.0	0.0	0.0	0.0	null	null	null	null	null	null	null	null	337.0	334.0	338.0	332.0	332.0	335.0	333.0	333.0	336.0	338.0	338.0	
Tue Jun 06 02:50:00 UTC 2017	0.0	1.047281664E9	2602.896240234375	0.0	2.5731072E7	0.0	4.0	1.034752E9	42.505435943603516	0.0	0.0	1.047130112E9	1.03856128E9	0.0	0.0	0.07800000160932541	0.04600000008940697	0.05050000175833702	0.9925000071525574	0.7817397117614746	0.0	244.0	371.0	0.0	0.0	0.0	0.0	0.0	0.0	null	null	null	null	null	null	null	null	337.0	333.0	337.0	336.0	337.0	336.0	338.0	336.0	337.0	339.0	332.0	
Tue Jun 06 02:49:00 UTC 2017	0.0	1.047281664E9	3105.758056640625	0.0	2.5731072E7	0.0	2.0	1.034661888E9	42.505435943603516	0.0	0.0	1.047130112E9	1.037533184E9	0.0	0.0	0.0689999982714653	0.051750000566244125	0.04324999824166298	0.9922500252723694	0.7817245721817017	0.0	244.0	371.0	0.0	0.0	0.0	0.0	0.0	0.0	null	null	null	null	null	null	null	null	334.0	337.0	335.0	336.0	337.0	336.0	337.0	335.0	333.0	334.0	336.0	
Tue Jun 06 02:48:00 UTC 2017	0.0	1.047281664E9	3105.758056640625	0.0	2.5731072E7	0.0	4.0	1.034661888E9	53.63549041748047	0.0	0.0	1.047130112E9	1.037533184E9	0.0	null	0.08025000244379044	0.05050000175833702	0.04924999922513962	0.9922500252723694	0.782952606678009	0.0	244.0	371.0	0.0	0.0	0.0	0.0	0.0	0.0	null	null	null	null	null	null	null	null	333.0	335.0	334.0	338.0	335.0	335.0	335.0	337.0	338.0	332.0	333.0	
Tue Jun 06 02:47:00 UTC 2017	0.0	1.047281664E9	3105.758056640625	0.0	2.5731072E7	0.0	2.0	1.0344448E9	53.63549041748047	0.0	0.0	1.047130112E9	1.03856128E9	0.0	0.0	0.07599999755620956	0.05274999886751175	0.05050000175833702	0.9922500252723694	0.7837061285972595	0.0	244.0	371.0	0.0	0.0	0.0	0.0	0.0	0.0	null	null	null	null	null	null	null	null	334.0	340.0	338.0	336.0	337.0	341.0	334.0	334.0	335.0	333.0	340.0	
Tue Jun 06 02:46:00 UTC 2017	0.0	1.047281664E9	3105.758056640625	0.0	2.5731072E7	0.0	5.0	1.0344448E9	44.396995544433594	0.0	0.0	1.047130112E9	1.037533184E9	0.0	0.0	0.07150000333786011	0.0494999997317791	0.04874999821186066	0.9919999837875366	0.7816829681396484	0.0	244.0	371.0	0.0	0.0	0.0	0.0	0.0	0.0	null	null	null	null	null	null	null	null	337.0	335.0	338.0	334.0	334.0	333.0	339.0	335.0	331.0	336.0	336.0	
Tue Jun 06 02:45:00 UTC 2017	0.0	1.047281664E9	2732.53369140625	0.0	2.5731072E7	0.0	2.0	1.034534912E9	37.02515411376953	0.0	0.0	1.047130112E9	1.03856128E9	0.0	0.0	0.0832500010728836	0.05274999886751175	0.04675000160932541	0.9919999837875366	0.7839649319648743	0.0	244.0	371.0	0.0	0.0	0.0	0.0	0.0	0.0	null	null	null	null	null	null	null	null	336.0	333.0	338.0	335.0	338.0	334.0	334.0	338.0	335.0	338.0	335.0	
Tue Jun 06 02:44:00 UTC 2017	0.0	1.047281664E9	2426.216552734375	0.0	2.5731072E7	0.0	5.0	1.0344448E9	59.32172775268555	0.0	0.0	1.047130112E9	1.03856128E9	0.0	0.0	0.06174999848008156	0.054499998688697815	0.04975000023841858	0.9922500252723694	0.7816506624221802	0.0	244.0	371.0	0.0	0.0	0.0	0.0	0.0	0.0	null	null	null	null	null	null	null	null	333.0	332.0	337.0	335.0	334.0	337.0	337.0	332.0	337.0	335.0	333.0	
Tue Jun 06 02:43:00 UTC 2017	0.0	1.047281664E9	3149.238037109375	0.0	2.5731072E7	0.0	3.0	1.0344448E9	59.32172775268555	0.0	0.0	1.047130112E9	1.037533184E9	0.0	0.0	0.08399999886751175	0.05050000175833702	0.04924999922513962	0.9917500019073486	0.781647264957428	0.0	244.0	371.0	0.0	0.0	0.0	0.0	0.0	0.0	null	null	null	null	null	null	null	null	332.0	335.0	332.0	334.0	337.0	336.0	333.0	336.0	334.0	332.0	336.0	
Tue Jun 06 02:42:00 UTC 2017	0.0	1.047281664E9	2348.559814453125	0.0	2.5731072E7	0.0	5.0	1.0344448E9	59.32172775268555	0.0	0.0	1.047130112E9	1.037533184E9	0.0	0.0	0.07599999755620956	0.04924999922513962	0.048500001430511475	0.9925000071525574	0.7816291451454163	0.0	244.0	371.0	0.0	0.0	0.0	0.0	0.0	0.0	null	null	null	null	null	null	null	null	336.0	338.0	336.0	337.0	338.0	337.0	337.0	338.0	339.0	334.0	337.0	
Tue Jun 06 02:41:00 UTC 2017	0.0	1.047281664E9	2348.559814453125	0.0	2.5731072E7	0.0	5.0	1.034326016E9	59.32172775268555	0.0	0.0	1.047130112E9	1.037533184E9	0.0	0.0	0.09350000321865082	0.0494999997317791	0.04650000110268593	0.9922500252723694	0.7816267013549805	0.0	244.0	371.0	0.0	0.0	0.0	0.0	0.0	0.0	null	null	null	null	null	null	null	null	336.0	332.0	334.0	337.0	335.0	334.0	335.0	334.0	333.0	336.0	333.0	
Tue Jun 06 02:40:00 UTC 2017	0.0	1.047281664E9	3154.01123046875	0.0	2.5731072E7	0.0	2.0	1.034326016E9	59.32172775268555	0.0	0.0	1.047130112E9	1.037533184E9	0.0	0.0	0.0637499988079071	0.05350000038743019	0.04475000128149986	0.9919999837875366	0.7816125154495239	0.0	244.0	371.0	0.0	0.0	0.0	0.0	0.0	0.0	null	null	null	null	null	null	null	null	337.0	336.0	334.0	333.0	336.0	336.0	336.0	336.0	338.0	334.0	336.0	
Tue Jun 06 02:39:00 UTC 2017	0.0	1.047281664E9	3154.01123046875	0.0	2.5731072E7	0.0	2.0	1.034235904E9	61.00634765625	0.0	0.0	1.047130112E9	1.03856128E9	0.0	0.0	0.08500000089406967	0.04625000059604645	0.051249999552965164	0.9922500252723694	0.7815963625907898	0.0	244.0	371.0	0.0	0.0	0.0	0.0	0.0	0.0	null	null	null	null	null	null	null	null	334.0	334.0	337.0	337.0	334.0	335.0	336.0	336.0	338.0	336.0	336.0	
Tue Jun 06 02:38:00 UTC 2017	0.0	1.047281664E9	2607.97900390625	0.0	2.5731072E7	0.0	8.0	1.034235904E9	34.90104293823242	0.0	0.0	1.047130112E9	1.03856128E9	0.0	0.0	0.07325000315904617	0.051750000566244125	0.0494999997317791	0.9922500252723694	0.7815998196601868	0.0	244.0	371.0	0.0	0.0	0.0	0.0	0.0	0.0	null	null	null	null	null	null	null	null	336.0	338.0	330.0	335.0	337.0	336.0	338.0	334.0	332.0	337.0	336.0	
Tue Jun 06 02:37:00 UTC 2017	0.0	1.047281664E9	2499.55419921875	0.0	2.5731072E7	0.0	3.0	1.034235904E9	61.79331588745117	0.0	0.0	1.047130112E9	1.03856128E9	0.0	0.0	0.06975000351667404	0.052000001072883606	0.04450000077486038	0.9919999837875366	0.7815841436386108	0.0	244.0	371.0	0.0	0.0	0.0	0.0	0.0	0.0	null	null	null	null	null	null	null	null	335.0	333.0	335.0	334.0	334.0	335.0	336.0	336.0	334.0	334.0	335.0	
Tue Jun 06 02:36:00 UTC 2017	0.0	1.047281664E9	2474.162841796875	0.0	2.5731072E7	0.0	2.0	1.034113024E9	59.30611038208008	0.0	0.0	1.047130112E9	1.03856128E9	0.0	0.0	0.07900000363588333	0.051500000059604645	0.04574999958276749	0.9922500252723694	0.7815645933151245	0.0	244.0	371.0	0.0	0.0	0.0	0.0	0.0	0.0	null	null	null	null	null	null	null	null	338.0	337.0	336.0	337.0	339.0	338.0	332.0	334.0	336.0	337.0	334.0	
Tue Jun 06 02:35:00 UTC 2017	0.0	1.047281664E9	2474.162841796875	0.0	2.5731072E7	0.0	2.0	1.034113024E9	59.9076042175293	0.0	0.0	1.047130112E9	1.037533184E9	0.0	0.0	0.0677499994635582	0.05525000020861626	0.0494999997317791	0.9922500252723694	0.7815635800361633	0.0	244.0	371.0	0.0	0.0	0.0	0.0	0.0	0.0	null	null	null	null	null	null	null	null	334.0	332.0	333.0	337.0	336.0	333.0	335.0	334.0	334.0	335.0	339.0	
Tue Jun 06 02:34:00 UTC 2017	0.0	1.047281664E9	3102.138671875	0.0	2.5731072E7	0.0	2.0	1.034022912E9	52.15021896362305	0.0	0.0	1.047130112E9	1.037533184E9	0.0	0.0	0.0702499970793724	0.05050000175833702	0.04899999871850014	0.9922500252723694	0.781544029712677	0.0	244.0	371.0	0.0	0.0	0.0	0.0	0.0	0.0	null	null	null	null	null	null	null	null	338.0	338.0	338.0	334.0	335.0	336.0	336.0	335.0	337.0	335.0	333.0	
Tue Jun 06 02:33:00 UTC 2017	0.0	1.047281664E9	2160.9501953125	0.0	2.5731072E7	0.0	3.0	1.034022912E9	52.15021896362305	0.0	0.0	1.047130112E9	1.037533184E9	0.0	0.0	0.0820000022649765	0.05225000157952309	0.048250000923871994	0.9922500252723694	0.781541109085083	0.0	244.0	371.0	0.0	0.0	0.0	0.0	0.0	0.0	null	null	null	null	null	null	null	null	337.0	336.0	337.0	335.0	332.0	335.0	335.0	336.0	335.0	335.0	335.0	
Tue Jun 06 02:32:00 UTC 2017	0.0	1.047281664E9	2753.140869140625	0.0	2.5731072E7	0.0	2.0	1.034022912E9	52.15021896362305	0.0	0.0	1.047130112E9	1.037533184E9	0.0	0.0	0.07625000178813934	0.051750000566244125	0.04574999958276749	0.9922500252723694	0.7815166115760803	0.0	244.0	371.0	0.0	0.0	0.0	0.0	0.0	0.0	null	null	null	null	null	null	null	null	334.0	334.0	335.0	336.0	335.0	335.0	336.0	336.0	339.0	335.0	337.0	
Tue Jun 06 02:31:00 UTC 2017	0.0	1.047281664E9	3022.908203125	0.0	2.5731072E7	0.0	2.0	1.03380992E9	52.15021896362305	0.0	0.0	1.047130112E9	1.037533184E9	0.0	0.0	0.08950000256299973	0.045249998569488525	0.04500000178813934	0.9922500252723694	0.7814984917640686	0.0	244.0	371.0	0.0	0.0	0.0	0.0	0.0	0.0	null	null	null	null	null	null	null	null	337.0	337.0	333.0	338.0	333.0	334.0	336.0	334.0	333.0	335.0	334.0	
Tue Jun 06 02:30:00 UTC 2017	0.0	1.047281664E9	3191.630126953125	0.0	2.5731072E7	0.0	2.0	1.033900032E9	52.15021896362305	0.0	0.0	1.047130112E9	1.037533184E9	0.0	0.0	0.07724999636411667	0.0572500005364418	0.04625000059604645	0.9922500252723694	0.7813747525215149	0.0	244.0	371.0	0.0	0.0	0.0	0.0	0.0	0.0	null	null	null	null	null	null	null	null	336.0	334.0	339.0	336.0	337.0	336.0	334.0	336.0	338.0	336.0	336.0	
Tue Jun 06 02:29:00 UTC 2017	0.0	1.047281664E9	2457.5205078125	0.0	2.5731072E7	0.0	2.0	1.03380992E9	43.137447357177734	0.0	0.0	1.047130112E9	1.037533184E9	0.0	0.0	0.07524999976158142	0.05000000074505806	0.04675000160932541	0.9922500252723694	0.7813703417778015	0.0	244.0	371.0	0.0	0.0	0.0	0.0	0.0	0.0	null	null	null	null	null	null	null	null	336.0	336.0	335.0	336.0	337.0	335.0	337.0	333.0	333.0	337.0	336.0	
Tue Jun 06 02:28:00 UTC 2017	0.0	1.047281664E9	2735.376220703125	0.0	2.5731072E7	0.0	3.0	1.03380992E9	43.137447357177734	0.0	0.0	1.047130112E9	1.037533184E9	0.0	0.0	0.07474999874830246	0.05350000038743019	0.051500000059604645	0.9919999837875366	0.7836512923240662	0.0	244.0	371.0	0.0	0.0	0.0	0.0	0.0	0.0	null	null	null	null	null	null	null	null	338.0	332.0	331.0	336.0	337.0	338.0	335.0	337.0	336.0	334.0	336.0	
Tue Jun 06 02:27:00 UTC 2017	0.0	1.047281664E9	2602.544921875	0.0	2.5731072E7	0.0	2.0	1.034059776E9	46.90799331665039	0.0	0.0	1.047130112E9	1.03856128E9	0.0	0.0	0.07374999672174454	0.04450000077486038	0.04749999940395355	0.9925000071525574	0.7814583778381348	0.0	244.0	371.0	0.0	0.0	0.0	0.0	0.0	0.0	null	null	null	null	null	null	null	null	333.0	336.0	340.0	335.0	337.0	334.0	337.0	335.0	336.0	336.0	337.0	
Tue Jun 06 02:26:00 UTC 2017	0.0	1.047281664E9	3131.80224609375	0.0	2.5731072E7	0.0	2.0	1.033601024E9	35.67247772216797	0.0	0.0	1.047130112E9	1.037533184E9	0.0	0.0	0.07450000196695328	0.050999999046325684	0.04625000059604645	0.9922500252723694	0.7814534902572632	0.0	244.0	371.0	0.0	0.0	0.0	0.0	0.0	0.0	null	null	null	null	null	null	null	null	338.0	335.0	336.0	335.0	336.0	336.0	337.0	336.0	337.0	336.0	337.0	
Tue Jun 06 02:25:00 UTC 2017	0.0	1.047281664E9	2850.699462890625	0.0	2.5731072E7	0.0	2.0	1.03368704E9	35.67247772216797	0.0	0.0	1.047130112E9	1.037533184E9	0.0	0.0	0.07524999976158142	0.05225000157952309	0.04699999839067459	0.9919999837875366	0.7814339399337769	0.0	244.0	371.0	0.0	0.0	0.0	0.0	0.0	0.0	null	null	null	null	null	null	null	null	332.0	335.0	337.0	335.0	336.0	335.0	335.0	337.0	335.0	336.0	335.0	
Tue Jun 06 02:24:00 UTC 2017	0.0	1.047281664E9	2850.699462890625	0.0	2.5731072E7	0.0	2.0	1.033596928E9	35.67247772216797	0.0	0.0	1.047130112E9	1.037533184E9	0.0	0.0	0.08399999886751175	0.0560000017285347	0.0507499985396862	0.9922500252723694	0.7814207077026367	0.0	244.0	371.0	0.0	0.0	0.0	0.0	0.0	0.0	null	null	null	null	null	null	null	null	338.0	333.0	333.0	335.0	335.0	334.0	334.0	336.0	336.0	335.0	335.0	
Tue Jun 06 02:23:00 UTC 2017	0.0	1.047281664E9	2850.699462890625	0.0	2.5731072E7	0.0	2.0	1.033596928E9	49.31761169433594	0.0	0.0	1.047130112E9	1.037533184E9	0.0	null	0.07500000298023224	0.04899999871850014	0.04374999925494194	0.9922500252723694	0.7829433083534241	0.0	244.0	371.0	0.0	0.0	0.0	0.0	0.0	0.0	null	null	null	null	null	null	null	null	335.0	337.0	337.0	332.0	335.0	338.0	341.0	339.0	332.0	337.0	335.0	
Tue Jun 06 02:22:00 UTC 2017	0.0	1.047281664E9	2941.63427734375	0.0	2.5731072E7	0.0	5.0	1.033596928E9	49.31761169433594	0.0	0.0	1.047130112E9	1.037533184E9	0.0	null	0.0689999982714653	0.052000001072883606	0.05000000074505806	0.9922500252723694	0.7814857959747314	0.0	244.0	371.0	0.0	0.0	0.0	0.0	0.0	0.0	null	null	null	null	null	null	null	null	336.0	335.0	333.0	341.0	339.0	333.0	335.0	335.0	339.0	334.0	335.0	
Tue Jun 06 02:21:00 UTC 2017	0.0	1.047281664E9	2941.63427734375	0.0	2.5731072E7	0.0	2.0	1.033388032E9	49.31761169433594	0.0	0.0	1.047130112E9	1.037533184E9	0.0	null	0.09724999964237213	0.0494999997317791	0.041999999433755875	0.9922500252723694	0.7814109325408936	0.0	244.0	371.0	0.0	0.0	0.0	0.0	0.0	0.0	null	null	null	null	null	null	null	null	337.0	337.0	339.0	335.0	334.0	333.0	334.0	334.0	335.0	334.0	332.0	
Tue Jun 06 02:20:00 UTC 2017	0.0	1.047281664E9	2941.63427734375	0.0	2.5731072E7	0.0	2.0	1.033478144E9	49.31761169433594	1.0	2.0	1.047130112E9	1.03856128E9	0.0	0.0	0.07175000011920929	0.0560000017285347	0.05050000175833702	0.9922500252723694	0.7813571095466614	0.0	244.0	371.0	0.0	0.0	0.0	0.0	0.0	0.0	null	null	null	null	null	null	null	null	337.0	334.0	333.0	337.0	336.0	337.0	339.0	335.0	333.0	335.0	339.0	
Tue Jun 06 02:19:00 UTC 2017	0.0	1.047281664E9	2941.63427734375	0.0	2.5731072E7	0.0	2.0	1.033388032E9	51.844608306884766	0.0	0.0	1.047130112E9	1.037533184E9	0.0	0.0	0.07575000077486038	0.05025000125169754	0.04650000110268593	0.9922500252723694	0.7820112705230713	0.0	244.0	371.0	0.0	0.0	0.0	0.0	0.0	0.0	null	null	null	null	null	null	null	null	334.0	337.0	334.0	334.0	336.0	334.0	332.0	336.0	336.0	337.0	331.0	
Tue Jun 06 02:18:00 UTC 2017	0.0	1.047281664E9	2941.63427734375	0.0	2.5731072E7	0.0	3.0	1.033388032E9	51.844608306884766	0.0	0.0	1.047130112E9	1.03856128E9	0.0	0.0	0.07400000095367432	0.05225000157952309	0.04650000110268593	0.9922500252723694	0.7813341021537781	0.0	244.0	371.0	0.0	0.0	0.0	0.0	0.0	0.0	null	null	null	null	null	null	null	null	342.0	337.0	339.0	334.0	338.0	333.0	337.0	334.0	336.0	330.0	339.0	
Tue Jun 06 02:17:00 UTC 2017	0.0	1.047281664E9	2559.21044921875	0.0	2.5731072E7	0.0	4.0	1.033388032E9	36.28711700439453	0.0	0.0	1.047130112E9	1.03856128E9	0.0	0.0	0.08150000125169754	0.05375000089406967	0.048500001430511475	0.9919999837875366	0.781334638595581	0.0	244.0	371.0	0.0	0.0	0.0	0.0	0.0	0.0	null	null	null	null	null	null	null	null	332.0	337.0	332.0	336.0	334.0	333.0	334.0	340.0	335.0	336.0	332.0	
Tue Jun 06 02:16:00 UTC 2017	0.0	1.047281664E9	2882.099609375	0.0	2.5731072E7	0.0	2.0	1.03317504E9	39.62535858154297	0.0	0.0	1.047130112E9	1.037533184E9	0.0	0.0	0.06599999964237213	0.05375000089406967	0.04675000160932541	0.9922500252723694	0.781287670135498	0.0	244.0	371.0	0.0	0.0	0.0	0.0	0.0	0.0	null	null	null	null	null	null	null	null	336.0	335.0	336.0	335.0	338.0	337.0	335.0	333.0	337.0	336.0	336.0	
Tue Jun 06 02:15:00 UTC 2017	0.0	1.047281664E9	2882.099609375	0.0	2.5731072E7	0.0	2.0	1.033265152E9	38.51738357543945	0.0	0.0	1.047130112E9	1.037533184E9	0.0	0.0	0.08474999666213989	0.05350000038743019	0.04625000059604645	0.9917500019073486	0.7812866568565369	0.0	244.0	371.0	0.0	0.0	0.0	0.0	0.0	0.0	null	null	null	null	null	null	null	null	336.0	336.0	335.0	338.0	336.0	335.0	334.0	335.0	338.0	333.0	334.0	
Tue Jun 06 02:14:00 UTC 2017	1.0	1.047281664E9	2882.099609375	0.0	2.5731072E7	0.0	2.0	1.03317504E9	42.46605682373047	0.0	0.0	1.047130112E9	1.037533184E9	0.0	0.0	0.06825000047683716	0.04699999839067459	0.04675000160932541	0.9919999837875366	0.7835701107978821	0.0	244.0	371.0	0.0	0.0	0.0	0.0	0.0	0.0	null	null	null	null	null	null	null	null	335.0	334.0	331.0	333.0	335.0	333.0	336.0	336.0	334.0	336.0	338.0	
Tue Jun 06 02:13:00 UTC 2017	0.0	1.047281664E9	2882.099609375	0.0	2.5731072E7	0.0	2.0	1.03317504E9	42.46605682373047	1.0	1.0	1.047130112E9	1.037533184E9	0.0	0.0	0.07349999994039536	0.05249999836087227	0.04399999976158142	0.9922500252723694	0.782182514667511	0.0	244.0	371.0	0.0	0.0	0.0	0.0	0.0	0.0	null	null	null	null	null	null	null	null	334.0	338.0	338.0	339.0	332.0	336.0	334.0	336.0	335.0	334.0	332.0	
Tue Jun 06 02:12:00 UTC 2017	0.0	1.047281664E9	2856.178466796875	0.0	2.5731072E7	0.0	3.0	1.03317504E9	43.59415817260742	1.0	1.0	1.047130112E9	1.03856128E9	0.0	0.0	0.07225000113248825	0.05400000140070915	0.048250000923871994	0.9925000071525574	0.7812259793281555	0.0	244.0	371.0	0.0	0.0	0.0	0.0	0.0	0.0	null	null	null	null	null	null	null	null	338.0	331.0	337.0	335.0	335.0	334.0	337.0	332.0	337.0	335.0	336.0	
Tue Jun 06 02:11:00 UTC 2017	0.0	1.047281664E9	2505.34912109375	0.0	2.5731072E7	0.0	2.0	1.03305216E9	43.59415817260742	1.0	1.0	1.047130112E9	1.03856128E9	0.0	0.0	0.1080000028014183	0.05849999934434891	0.04874999821186066	0.9922500252723694	0.7812240123748779	0.0	244.0	371.0	0.0	0.0	0.0	0.0	0.0	0.0	null	null	null	null	null	null	null	null	335.0	337.0	338.0	337.0	336.0	336.0	336.0	335.0	335.0	336.0	335.0	
Tue Jun 06 02:10:00 UTC 2017	0.0	1.047281664E9	2505.34912109375	0.0	2.5731072E7	0.0	4.0	1.033314304E9	43.59415817260742	1.0	1.0	1.047130112E9	1.03856128E9	0.0	0.0	0.07524999976158142	0.04924999922513962	0.04650000110268593	0.9925000071525574	0.7812069058418274	0.0	244.0	371.0	0.0	0.0	0.0	0.0	0.0	0.0	null	null	null	null	null	null	null	null	337.0	337.0	333.0	337.0	339.0	335.0	332.0	338.0	334.0	337.0	338.0	
Tue Jun 06 02:09:00 UTC 2017	0.0	1.047281664E9	2650.2109375	0.0	2.5731072E7	0.0	2.0	1.03297024E9	43.59415817260742	0.0	0.0	1.047130112E9	1.037533184E9	0.0	0.0	0.07150000333786011	0.057500001043081284	0.04924999922513962	0.9922500252723694	0.7811897993087769	0.0	244.0	371.0	0.0	0.0	0.0	0.0	0.0	0.0	null	null	null	null	null	null	null	null	334.0	333.0	338.0	333.0	332.0	337.0	336.0	335.0	337.0	334.0	336.0	
Tue Jun 06 02:08:00 UTC 2017	0.0	1.047281664E9	2527.3505859375	0.0	2.5731072E7	0.0	2.0	1.03297024E9	43.59415817260742	0.0	0.0	1.047130112E9	1.037533184E9	0.0	0.0	0.0677499994635582	0.04749999940395355	0.04349999874830246	0.9922500252723694	0.7811980843544006	0.0	244.0	371.0	0.0	0.0	0.0	0.0	0.0	0.0	null	null	null	null	null	null	null	null	335.0	336.0	334.0	336.0	337.0	336.0	336.0	335.0	334.0	336.0	337.0	
Tue Jun 06 02:07:00 UTC 2017	0.0	1.047281664E9	2527.3505859375	0.0	2.5731072E7	0.0	4.0	1.03297024E9	43.59415817260742	1.0	0.0	1.047130112E9	1.03856128E9	0.0	0.0	0.08275000005960464	0.057750001549720764	0.04574999958276749	0.9925000071525574	0.7811765670776367	0.0	244.0	371.0	0.0	0.0	0.0	0.0	0.0	0.0	null	null	null	null	null	null	null	null	333.0	338.0	337.0	338.0	336.0	335.0	336.0	335.0	336.0	337.0	335.0	
Tue Jun 06 02:06:00 UTC 2017	0.0	1.047281664E9	2540.2060546875	0.0	2.5731072E7	0.0	2.0	1.032761344E9	38.69392395019531	0.0	0.0	1.047130112E9	1.03856128E9	0.0	null	0.07575000077486038	0.0494999997317791	0.05624999850988388	0.9922500252723694	0.7811741232872009	0.0	244.0	371.0	0.0	0.0	0.0	0.0	0.0	0.0	null	null	null	null	null	null	null	null	339.0	338.0	335.0	337.0	334.0	335.0	336.0	335.0	335.0	335.0	338.0	
Tue Jun 06 02:05:00 UTC 2017	0.0	1.047281664E9	2540.2060546875	0.0	2.5731072E7	0.0	2.0	1.03284736E9	44.80648422241211	0.0	0.0	1.047130112E9	1.037533184E9	0.0	null	0.0742499977350235	0.051500000059604645	0.04874999821186066	0.9922500252723694	0.7811638712882996	0.0	244.0	371.0	0.0	0.0	0.0	0.0	0.0	0.0	null	null	null	null	null	null	null	null	337.0	334.0	338.0	333.0	336.0	336.0	335.0	335.0	336.0	335.0	334.0	
Tue Jun 06 02:04:00 UTC 2017	0.0	1.047281664E9	2893.34130859375	0.0	2.5731072E7	0.0	2.0	1.032757248E9	45.749183654785156	0.0	0.0	1.047130112E9	1.03856128E9	0.0	null	0.07500000298023224	0.054499998688697815	0.0442500002682209	0.9922500252723694	0.7811770439147949	0.0	244.0	371.0	0.0	0.0	0.0	0.0	0.0	0.0	null	null	null	null	null	null	null	null	331.0	338.0	335.0	336.0	336.0	334.0	333.0	336.0	335.0	331.0	335.0	
Tue Jun 06 02:03:00 UTC 2017	0.0	1.047281664E9	2893.34130859375	0.0	2.5731072E7	0.0	3.0	1.032757248E9	45.749183654785156	0.0	0.0	1.047130112E9	1.03856128E9	0.0	null	0.06949999928474426	0.0507499985396862	0.04800000041723251	0.9925000071525574	0.7811604142189026	0.0	244.0	371.0	0.0	0.0	0.0	0.0	0.0	0.0	null	null	null	null	null	null	null	null	338.0	336.0	336.0	335.0	338.0	339.0	341.0	335.0	336.0	336.0	334.0	
Tue Jun 06 02:02:00 UTC 2017	0.0	1.047281664E9	2893.34130859375	0.0	2.5731072E7	0.0	2.0	1.032548352E9	45.749183654785156	0.0	0.0	1.047130112E9	1.037533184E9	0.0	null	0.07900000363588333	0.04450000077486038	0.045249998569488525	0.9922500252723694	0.7834452986717224	0.0	244.0	371.0	0.0	0.0	0.0	0.0	0.0	0.0	null	null	null	null	null	null	null	null	333.0	335.0	336.0	336.0	334.0	334.0	337.0	333.0	334.0	337.0	338.0	
Tue Jun 06 02:01:00 UTC 2017	0.0	1.047281664E9	2845.324951171875	0.0	2.5731072E7	0.0	2.0	1.032548352E9	45.749183654785156	0.0	0.0	1.047130112E9	1.03856128E9	0.0	0.0	0.09674999862909317	0.05649999901652336	0.04774999991059303	0.9925000071525574	0.7827319502830505	0.0	244.0	371.0	0.0	0.0	0.0	0.0	0.0	0.0	null	null	null	null	null	null	null	null	334.0	335.0	333.0	337.0	337.0	336.0	335.0	337.0	333.0	336.0	334.0	
Tue Jun 06 02:00:00 UTC 2017	0.0	1.047281664E9	2845.324951171875	0.0	2.5731072E7	0.0	5.0	1.032638464E9	45.749183654785156	0.0	0.0	1.047130112E9	1.037533184E9	0.0	0.0	0.07524999976158142	0.04924999922513962	0.04924999922513962	0.9922500252723694	0.7810943722724915	0.0	244.0	371.0	0.0	0.0	0.0	0.0	0.0	0.0	null	null	null	null	null	null	null	null	338.0	336.0	336.0	334.0	334.0	335.0	334.0	332.0	339.0	336.0	337.0	
Tue Jun 06 01:59:00 UTC 2017	0.0	1.047281664E9	2521.28125	0.0	2.5731072E7	0.0	2.0	1.032548352E9	45.749183654785156	0.0	0.0	1.047130112E9	1.037533184E9	0.0	0.0	0.06849999725818634	0.05350000038743019	0.04574999958276749	0.9922500252723694	0.7810772657394409	0.0	244.0	371.0	0.0	0.0	0.0	0.0	0.0	0.0	null	null	null	null	null	null	null	null	335.0	334.0	337.0	333.0	336.0	335.0	334.0	335.0	336.0	334.0	335.0	
Tue Jun 06 01:58:00 UTC 2017	0.0	1.047281664E9	2957.54248046875	0.0	2.5731072E7	0.0	6.0	1.032548352E9	60.28370666503906	0.0	0.0	1.047130112E9	1.037533184E9	0.0	null	0.07724999636411667	0.051500000059604645	0.04975000023841858	0.9919999837875366	0.7810748219490051	0.0	244.0	371.0	0.0	0.0	0.0	0.0	0.0	0.0	null	null	null	null	null	null	null	null	336.0	333.0	334.0	339.0	335.0	337.0	335.0	336.0	332.0	337.0	337.0	
Tue Jun 06 01:57:00 UTC 2017	0.0	1.047281664E9	2691.812255859375	0.0	2.5731072E7	0.0	3.0	1.032548352E9	55.8421630859375	0.0	0.0	1.047130112E9	1.03856128E9	0.0	null	0.07575000077486038	0.051249999552965164	0.04924999922513962	0.9919999837875366	0.7833191156387329	0.0	244.0	371.0	0.0	0.0	0.0	0.0	0.0	0.0	null	null	null	null	null	null	null	null	333.0	339.0	335.0	336.0	333.0	335.0	340.0	335.0	340.0	336.0	333.0	
Tue Jun 06 01:56:00 UTC 2017	0.0	1.047281664E9	2511.75341796875	0.0	2.5731072E7	0.0	2.0	1.032331264E9	85.49266052246094	0.0	0.0	1.047130112E9	1.037533184E9	0.0	null	0.0794999971985817	0.04749999940395355	0.04625000059604645	0.9922500252723694	0.7832965850830078	0.0	244.0	371.0	0.0	0.0	0.0	0.0	0.0	0.0	null	null	null	null	null	null	null	null	335.0	337.0	333.0	336.0	341.0	336.0	335.0	334.0	333.0	336.0	334.0	
Tue Jun 06 01:55:00 UTC 2017	0.0	1.047281664E9	3135.702880859375	0.0	2.5731072E7	0.0	2.0	1.032421376E9	85.49266052246094	0.0	0.0	1.047130112E9	1.03856128E9	0.0	0.0	0.06925000250339508	0.04899999871850014	0.04975000023841858	0.9925000071525574	0.7833043932914734	0.0	244.0	371.0	0.0	0.0	0.0	0.0	0.0	0.0	null	null	null	null	null	null	null	null	335.0	336.0	336.0	337.0	332.0	334.0	336.0	337.0	339.0	336.0	337.0	
Tue Jun 06 01:54:00 UTC 2017	0.0	1.047281664E9	2689.98388671875	0.0	2.5731072E7	0.0	2.0	1.032331264E9	55.62596893310547	0.0	0.0	1.047130112E9	1.037533184E9	0.0	0.0	0.08100000023841858	0.05624999850988388	0.042500000447034836	0.9919999837875366	0.7810028791427612	0.0	244.0	371.0	0.0	0.0	0.0	0.0	0.0	0.0	null	null	null	null	null	null	null	null	337.0	334.0	335.0	334.0	336.0	336.0	335.0	332.0	331.0	332.0	333.0	
Tue Jun 06 01:53:00 UTC 2017	0.0	1.047281664E9	2506.271484375	0.0	2.5731072E7	0.0	3.0	1.032331264E9	55.62596893310547	0.0	0.0	1.047130112E9	1.037533184E9	0.0	null	0.07074999809265137	0.05000000074505806	0.04650000110268593	0.9922500252723694	0.7809833288192749	0.0	244.0	371.0	0.0	0.0	0.0	0.0	0.0	0.0	null	null	null	null	null	null	null	null	334.0	335.0	336.0	339.0	337.0	337.0	337.0	339.0	336.0	340.0	335.0	
Tue Jun 06 01:52:00 UTC 2017	0.0	1.047281664E9	2506.271484375	0.0	2.5731072E7	0.0	3.0	1.032331264E9	55.62596893310547	0.0	0.0	1.047130112E9	1.03856128E9	0.0	0.0	0.07824999839067459	0.05249999836087227	0.05000000074505806	0.9922500252723694	0.7826076745986938	0.0	244.0	371.0	0.0	0.0	0.0	0.0	0.0	0.0	null	null	null	null	null	null	null	null	335.0	336.0	335.0	336.0	335.0	337.0	337.0	335.0	335.0	334.0	334.0	
Tue Jun 06 01:51:00 UTC 2017	0.0	1.047281664E9	2862.008056640625	0.0	2.5731072E7	0.0	2.0	1.032208384E9	38.083099365234375	0.0	0.0	1.047130112E9	1.037533184E9	0.0	0.0	0.09974999725818634	0.04800000041723251	0.051249999552965164	0.9925000071525574	0.7808972001075745	0.0	244.0	371.0	0.0	0.0	0.0	0.0	0.0	0.0	null	null	null	null	null	null	null	null	335.0	335.0	337.0	339.0	339.0	335.0	333.0	341.0	335.0	335.0	333.0	
Tue Jun 06 01:50:00 UTC 2017	0.0	1.047281664E9	2862.008056640625	0.0	2.5731072E7	0.0	2.0	1.032208384E9	39.08334732055664	0.0	0.0	1.047130112E9	1.03856128E9	0.0	0.0	0.06499999761581421	0.05674999952316284	0.04625000059604645	0.9922500252723694	0.7808942794799805	0.0	244.0	371.0	0.0	0.0	0.0	0.0	0.0	0.0	null	null	null	null	null	null	null	null	333.0	336.0	337.0	334.0	335.0	335.0	338.0	335.0	338.0	338.0	333.0	
Tue Jun 06 01:49:00 UTC 2017	0.0	1.047281664E9	2528.31884765625	0.0	2.5731072E7	0.0	4.0	1.032118272E9	39.08334732055664	0.0	0.0	1.047130112E9	1.03856128E9	0.0	0.0	0.08524999767541885	0.04600000008940697	0.04675000160932541	0.9922500252723694	0.7810547351837158	0.0	244.0	371.0	0.0	0.0	0.0	0.0	0.0	0.0	null	null	null	null	null	null	null	null	336.0	338.0	334.0	338.0	336.0	336.0	338.0	334.0	335.0	333.0	335.0	
Tue Jun 06 01:48:00 UTC 2017	0.0	1.047281664E9	2449.1533203125	0.0	2.5731072E7	0.0	2.0	1.032118272E9	31.779863357543945	0.0	0.0	1.047130112E9	1.037533184E9	0.0	0.0	0.07074999809265137	0.05050000175833702	0.0494999997317791	0.9922500252723694	0.7808830142021179	0.0	244.0	371.0	0.0	0.0	0.0	0.0	0.0	0.0	null	null	null	null	null	null	null	null	335.0	336.0	332.0	331.0	335.0	338.0	339.0	335.0	333.0	334.0	337.0	
Tue Jun 06 01:47:00 UTC 2017	0.0	1.047281664E9	2449.1533203125	0.0	2.5731072E7	0.0	2.0	1.032118272E9	44.59701156616211	0.0	0.0	1.047130112E9	1.037533184E9	0.0	0.0	0.06624999642372131	0.05674999952316284	0.04450000077486038	0.9922500252723694	0.7816643714904785	0.0	244.0	371.0	0.0	0.0	0.0	0.0	0.0	0.0	null	null	null	null	null	null	null	null	332.0	335.0	338.0	336.0	336.0	333.0	337.0	337.0	333.0	337.0	338.0	
Tue Jun 06 01:46:00 UTC 2017	0.0	1.047281664E9	2449.1533203125	0.0	2.5731072E7	0.0	2.0	1.031999488E9	43.437591552734375	0.0	0.0	1.047130112E9	1.03856128E9	0.0	0.0	0.08474999666213989	0.051500000059604645	0.051750000566244125	0.9925000071525574	0.7808575630187988	0.0	244.0	371.0	0.0	0.0	0.0	0.0	0.0	0.0	null	null	null	null	null	null	null	null	336.0	339.0	332.0	340.0	333.0	338.0	339.0	336.0	335.0	335.0	335.0	
Tue Jun 06 01:45:00 UTC 2017	0.0	1.047281664E9	2323.341064453125	0.0	2.5731072E7	0.0	2.0	1.031999488E9	43.437591552734375	0.0	0.0	1.047130112E9	1.037533184E9	0.0	0.0	0.06949999928474426	0.04800000041723251	0.045499999076128006	0.9925000071525574	0.7808482646942139	0.0	244.0	371.0	0.0	0.0	0.0	0.0	0.0	0.0	null	null	null	null	null	null	null	null	334.0	333.0	334.0	337.0	336.0	334.0	336.0	334.0	337.0	336.0	335.0	
Tue Jun 06 01:44:00 UTC 2017	0.0	1.047281664E9	2323.341064453125	0.0	2.5731072E7	0.0	2.0	1.031909376E9	43.437591552734375	0.0	0.0	1.047130112E9	1.037533184E9	0.0	0.0	0.07800000160932541	0.05400000140070915	0.045249998569488525	0.9922500252723694	0.7826972603797913	0.0	244.0	371.0	0.0	0.0	0.0	0.0	0.0	0.0	null	null	null	null	null	null	null	null	333.0	335.0	335.0	333.0	336.0	334.0	336.0	340.0	334.0	337.0	338.0	
Tue Jun 06 01:43:00 UTC 2017	0.0	1.047281664E9	2782.060791015625	0.0	2.5731072E7	0.0	3.0	1.031909376E9	43.437591552734375	0.0	0.0	1.047130112E9	1.037533184E9	0.0	0.0	0.07225000113248825	0.04774999991059303	0.04625000059604645	0.9919999837875366	0.7807988524436951	0.0	244.0	371.0	0.0	0.0	0.0	0.0	0.0	0.0	null	null	null	null	null	null	null	null	338.0	336.0	337.0	337.0	333.0	338.0	334.0	333.0	334.0	334.0	331.0	
Tue Jun 06 01:42:00 UTC 2017	0.0	1.047281664E9	2782.060791015625	0.0	2.5731072E7	0.0	3.0	1.031696384E9	50.89129638671875	0.0	0.0	1.047130112E9	1.037533184E9	0.0	0.0	0.0702499970793724	0.05674999952316284	0.048250000923871994	0.9925000071525574	0.7817705273628235	0.0	244.0	371.0	0.0	0.0	0.0	0.0	0.0	0.0	null	null	null	null	null	null	null	null	335.0	336.0	338.0	335.0	336.0	336.0	333.0	335.0	334.0	339.0	338.0	
Tue Jun 06 01:41:00 UTC 2017	0.0	1.047281664E9	2782.060791015625	0.0	2.5731072E7	0.0	2.0	1.031786496E9	36.142887115478516	0.0	0.0	1.047130112E9	1.03856128E9	0.0	0.0	0.09775000065565109	0.04699999839067459	0.0494999997317791	0.9922500252723694	0.7807132601737976	0.0	244.0	371.0	0.0	0.0	0.0	0.0	0.0	0.0	null	null	null	null	null	null	null	null	333.0	335.0	335.0	337.0	338.0	338.0	335.0	338.0	337.0	332.0	333.0	
Tue Jun 06 01:40:00 UTC 2017	0.0	1.047281664E9	2376.0673828125	0.0	2.5731072E7	0.0	2.0	1.031786496E9	36.142887115478516	0.0	0.0	1.047130112E9	1.037533184E9	0.0	0.0	0.08049999922513962	0.05624999850988388	0.048250000923871994	0.9922500252723694	0.7819912433624268	0.0	244.0	371.0	0.0	0.0	0.0	0.0	0.0	0.0	null	null	null	null	null	null	null	null	337.0	335.0	337.0	334.0	332.0	333.0	333.0	336.0	335.0	337.0	336.0	
Tue Jun 06 01:39:00 UTC 2017	0.0	1.047281664E9	2737.03662109375	0.0	2.5731072E7	0.0	2.0	1.031696384E9	36.142887115478516	0.0	0.0	1.047130112E9	1.03856128E9	0.0	0.0	0.07050000131130219	0.05249999836087227	0.042249999940395355	0.9922500252723694	0.7807146906852722	0.0	244.0	371.0	0.0	0.0	0.0	0.0	0.0	0.0	null	null	null	null	null	null	null	null	335.0	337.0	332.0	335.0	336.0	335.0	338.0	335.0	336.0	334.0	335.0	
Tue Jun 06 01:38:00 UTC 2017	0.0	1.047281664E9	2756.623779296875	0.0	2.5731072E7	0.0	3.0	1.031696384E9	36.142887115478516	0.0	0.0	1.047130112E9	1.03856128E9	0.0	null	0.08124999701976776	0.04600000008940697	0.05000000074505806	0.9919999837875366	0.7806980609893799	0.0	244.0	371.0	0.0	0.0	0.0	0.0	0.0	0.0	null	null	null	null	null	null	null	null	338.0	333.0	338.0	336.0	337.0	337.0	331.0	336.0	334.0	335.0	338.0	
Tue Jun 06 01:37:00 UTC 2017	0.0	1.047281664E9	2756.623779296875	0.0	2.5731072E7	0.0	3.0	1.031696384E9	44.14372253417969	0.0	0.0	1.047130112E9	1.037533184E9	0.0	null	0.07625000178813934	0.054499998688697815	0.04675000160932541	0.9922500252723694	0.7806809544563293	0.0	244.0	371.0	0.0	0.0	0.0	0.0	0.0	0.0	null	null	null	null	null	null	null	null	338.0	337.0	335.0	335.0	333.0	333.0	337.0	336.0	334.0	333.0	337.0	
Tue Jun 06 01:36:00 UTC 2017	0.0	1.047281664E9	2756.623779296875	0.0	2.5731072E7	0.0	2.0	1.031491584E9	44.14372253417969	0.0	0.0	1.047130112E9	1.03856128E9	0.0	0.0	0.07150000333786011	0.048250000923871994	0.04749999940395355	0.9919999837875366	0.7806848883628845	0.0	244.0	371.0	0.0	0.0	0.0	0.0	0.0	0.0	null	null	null	null	null	null	null	null	334.0	332.0	338.0	337.0	336.0	336.0	336.0	338.0	336.0	335.0	335.0	
Tue Jun 06 01:35:00 UTC 2017	0.0	1.047281664E9	2296.976318359375	0.0	2.5731072E7	0.0	2.0	1.031581696E9	52.05282211303711	0.0	0.0	1.047130112E9	1.037533184E9	0.0	0.0	0.06849999725818634	0.05575000122189522	0.045249998569488525	0.9919999837875366	0.7806633114814758	0.0	244.0	371.0	0.0	0.0	0.0	0.0	0.0	0.0	null	null	null	null	null	null	null	null	339.0	340.0	333.0	333.0	332.0	337.0	335.0	332.0	338.0	336.0	332.0	
Tue Jun 06 01:34:00 UTC 2017	0.0	1.047281664E9	2667.273193359375	0.0	2.5731072E7	0.0	2.0	1.031491584E9	52.05282211303711	0.0	0.0	1.047130112E9	1.03856128E9	0.0	0.0	0.08049999922513962	0.054499998688697815	0.0494999997317791	0.9922500252723694	0.7806780338287354	0.0	244.0	371.0	0.0	0.0	0.0	0.0	0.0	0.0	null	null	null	null	null	null	null	null	334.0	336.0	334.0	337.0	338.0	334.0	336.0	336.0	333.0	338.0	333.0	
Tue Jun 06 01:33:00 UTC 2017	0.0	1.047281664E9	2655.02880859375	0.0	2.5731072E7	0.0	2.0	1.031491584E9	52.05282211303711	0.0	0.0	1.047130112E9	1.03856128E9	0.0	0.0	0.07699999958276749	0.04924999922513962	0.04924999922513962	0.9922500252723694	0.780632495880127	0.0	244.0	371.0	0.0	0.0	0.0	0.0	0.0	0.0	null	null	null	null	null	null	null	null	336.0	333.0	335.0	332.0	331.0	335.0	333.0	337.0	335.0	335.0	333.0	
Tue Jun 06 01:32:00 UTC 2017	0.0	1.047281664E9	2760.656494140625	0.0	2.5731072E7	0.0	2.0	1.03174144E9	52.05282211303711	0.0	0.0	1.047130112E9	1.037533184E9	0.0	0.0	0.07524999976158142	0.04800000041723251	0.04774999991059303	0.9922500252723694	0.7806153893470764	0.0	244.0	371.0	0.0	0.0	0.0	0.0	0.0	0.0	null	null	null	null	null	null	null	null	334.0	337.0	335.0	337.0	339.0	335.0	336.0	337.0	336.0	336.0	339.0	
Tue Jun 06 01:31:00 UTC 2017	0.0	1.047281664E9	2951.96044921875	0.0	2.5731072E7	0.0	2.0	1.031266304E9	48.29654312133789	0.0	0.0	1.047130112E9	1.037533184E9	0.0	0.0	0.09650000184774399	0.051750000566244125	0.042249999940395355	0.9925000071525574	0.7805972695350647	0.0	244.0	371.0	0.0	0.0	0.0	0.0	0.0	0.0	null	null	null	null	null	null	null	null	339.0	334.0	336.0	339.0	336.0	333.0	336.0	332.0	341.0	335.0	336.0	
Tue Jun 06 01:30:00 UTC 2017	0.0	1.047281664E9	2951.96044921875	0.0	2.5731072E7	0.0	2.0	1.031356416E9	48.29654312133789	0.0	0.0	1.047130112E9	1.03856128E9	0.0	0.0	0.07599999755620956	0.05375000089406967	0.04600000008940697	0.9925000071525574	0.7828562259674072	0.0	244.0	371.0	0.0	0.0	0.0	0.0	0.0	0.0	null	null	null	null	null	null	null	null	337.0	336.0	333.0	333.0	336.0	337.0	338.0	336.0	334.0	336.0	336.0	
Tue Jun 06 01:29:00 UTC 2017	0.0	1.047281664E9	3190.933349609375	0.0	2.5731072E7	0.0	2.0	1.031266304E9	45.98582458496094	0.0	0.0	1.047130112E9	1.037533184E9	0.0	0.0	0.07575000077486038	0.05274999886751175	0.051500000059604645	0.9922500252723694	0.7805649638175964	0.0	244.0	371.0	0.0	0.0	0.0	0.0	0.0	0.0	null	null	null	null	null	null	null	null	334.0	336.0	336.0	339.0	337.0	333.0	333.0	336.0	334.0	336.0	334.0	
Tue Jun 06 01:28:00 UTC 2017	0.0	1.047281664E9	3190.933349609375	0.0	2.5731072E7	0.0	2.0	1.031266304E9	46.072566986083984	0.0	0.0	1.047130112E9	1.037533184E9	0.0	0.0	0.0689999982714653	0.04675000160932541	0.042249999940395355	0.9925000071525574	0.7804808616638184	0.0	244.0	371.0	0.0	0.0	0.0	0.0	0.0	0.0	null	null	null	null	null	null	null	null	334.0	334.0	335.0	335.0	336.0	339.0	336.0	336.0	335.0	337.0	336.0	
Tue Jun 06 01:27:00 UTC 2017	0.0	1.047281664E9	2001.75439453125	0.0	2.5731072E7	0.0	2.0	1.031266304E9	47.567665100097656	0.0	0.0	1.047130112E9	1.037533184E9	0.0	0.0	0.06800000369548798	0.050999999046325684	0.04749999940395355	0.9919999837875366	0.78056401014328	0.0	244.0	371.0	0.0	0.0	0.0	0.0	0.0	0.0	null	null	null	null	null	null	null	null	334.0	337.0	336.0	333.0	334.0	336.0	335.0	337.0	337.0	332.0	336.0	
Tue Jun 06 01:26:00 UTC 2017	0.0	1.047281664E9	2773.857421875	0.0	2.5731072E7	0.0	2.0	1.031053312E9	47.567665100097656	0.0	0.0	1.047130112E9	1.03856128E9	0.0	0.0	0.07724999636411667	0.05274999886751175	0.048250000923871994	0.9922500252723694	0.7805439233779907	0.0	244.0	371.0	0.0	0.0	0.0	0.0	0.0	0.0	null	null	null	null	null	null	null	null	334.0	340.0	335.0	336.0	335.0	333.0	336.0	335.0	335.0	336.0	337.0	
Tue Jun 06 01:25:00 UTC 2017	0.0	1.047281664E9	2773.857421875	0.0	2.5731072E7	0.0	4.0	1.031143424E9	47.567665100097656	0.0	0.0	1.047130112E9	1.03856128E9	0.0	0.0	0.07275000214576721	0.05849999934434891	0.048500001430511475	0.9922500252723694	0.7805458903312683	0.0	244.0	371.0	0.0	0.0	0.0	0.0	0.0	0.0	null	null	null	null	null	null	null	null	333.0	334.0	335.0	335.0	334.0	339.0	334.0	336.0	339.0	335.0	334.0	
Tue Jun 06 01:24:00 UTC 2017	0.0	1.047281664E9	2432.562744140625	0.0	2.5731072E7	0.0	3.0	1.031053312E9	43.090579986572266	0.0	0.0	1.047130112E9	1.037533184E9	0.0	0.0	0.07275000214576721	0.04475000128149986	0.04675000160932541	0.9922500252723694	0.7827593684196472	0.0	244.0	371.0	0.0	0.0	0.0	0.0	0.0	0.0	null	null	null	null	null	null	null	null	340.0	333.0	337.0	337.0	336.0	334.0	333.0	333.0	336.0	336.0	333.0	
Tue Jun 06 01:23:00 UTC 2017	0.0	1.047281664E9	2432.562744140625	0.0	2.5731072E7	0.0	3.0	1.031053312E9	43.090579986572266	0.0	0.0	1.047130112E9	1.037533184E9	0.0	null	0.07599999755620956	0.05900000035762787	0.04899999871850014	0.9925000071525574	0.7827544808387756	0.0	244.0	371.0	0.0	0.0	0.0	0.0	0.0	0.0	null	null	null	null	null	null	null	null	337.0	339.0	335.0	335.0	335.0	335.0	338.0	335.0	334.0	336.0	337.0	
Tue Jun 06 01:22:00 UTC 2017	0.0	1.047281664E9	2510.7197265625	0.0	2.5731072E7	0.0	4.0	1.03084032E9	43.090579986572266	0.0	0.0	1.047130112E9	1.03856128E9	0.0	null	0.07874999940395355	0.04874999821186066	0.04399999976158142	0.9922500252723694	0.7827339172363281	0.0	244.0	371.0	0.0	0.0	0.0	0.0	0.0	0.0	null	null	null	null	null	null	null	null	336.0	334.0	335.0	336.0	336.0	338.0	334.0	335.0	336.0	333.0	334.0	
Tue Jun 06 01:21:00 UTC 2017	0.0	1.047281664E9	2510.7197265625	0.0	2.5731072E7	0.0	3.0	1.03084032E9	43.090579986572266	0.0	0.0	1.047130112E9	1.037533184E9	0.0	0.0	0.09549999982118607	0.05350000038743019	0.05000000074505806	0.9922500252723694	0.7804299592971802	0.0	244.0	371.0	0.0	0.0	0.0	0.0	0.0	0.0	null	null	null	null	null	null	null	null	334.0	338.0	337.0	333.0	337.0	332.0	335.0	333.0	335.0	338.0	333.0	
Tue Jun 06 01:20:00 UTC 2017	0.0	1.047281664E9	2636.01611328125	0.0	2.5731072E7	0.0	3.0	1.030930432E9	46.79332733154297	0.0	0.0	1.047130112E9	1.03856128E9	0.0	0.0	0.07774999737739563	0.04724999889731407	0.04675000160932541	0.9919999837875366	0.7804059982299805	0.0	244.0	371.0	0.0	0.0	0.0	0.0	0.0	0.0	null	null	null	null	null	null	null	null	333.0	334.0	334.0	340.0	339.0	338.0	333.0	336.0	333.0	336.0	337.0	
Tue Jun 06 01:19:00 UTC 2017	0.0	1.047281664E9	2636.01611328125	0.0	2.5731072E7	0.0	2.0	1.03084032E9	51.84358596801758	0.0	0.0	1.047130112E9	1.03856128E9	0.0	0.0	0.0702499970793724	0.054999999701976776	0.045249998569488525	0.9922500252723694	0.7803751826286316	0.0	244.0	371.0	0.0	0.0	0.0	0.0	0.0	0.0	null	null	null	null	null	null	null	null	335.0	334.0	334.0	332.0	333.0	336.0	336.0	335.0	332.0	333.0	338.0	
Tue Jun 06 01:18:00 UTC 2017	0.0	1.047281664E9	2932.62646484375	0.0	2.5731072E7	0.0	3.0	1.03084032E9	47.941627502441406	0.0	0.0	1.047130112E9	1.037533184E9	0.0	0.0	0.07925000041723251	0.05000000074505806	0.048500001430511475	0.9919999837875366	0.7803702354431152	0.0	244.0	371.0	0.0	0.0	0.0	0.0	0.0	0.0	null	null	null	null	null	null	null	null	337.0	338.0	337.0	335.0	340.0	333.0	338.0	335.0	336.0	337.0	331.0	
Tue Jun 06 01:17:00 UTC 2017	0.0	1.047281664E9	3083.601806640625	0.0	2.5731072E7	0.0	3.0	1.031090176E9	47.941627502441406	0.0	0.0	1.047130112E9	1.037533184E9	0.0	null	0.07750000059604645	0.04774999991059303	0.04924999922513962	0.9922500252723694	0.7803379893302917	0.0	244.0	371.0	0.0	0.0	0.0	0.0	0.0	0.0	null	null	null	null	null	null	null	null	337.0	334.0	335.0	336.0	332.0	335.0	333.0	337.0	335.0	334.0	338.0	
Tue Jun 06 01:16:00 UTC 2017	0.0	1.047281664E9	3083.601806640625	0.0	2.5731072E7	0.0	2.0	1.030721536E9	44.8773078918457	0.0	0.0	1.047130112E9	1.03856128E9	0.0	0.0	0.07225000113248825	0.05000000074505806	0.04699999839067459	0.9922500252723694	0.780329167842865	0.0	244.0	371.0	0.0	0.0	0.0	0.0	0.0	0.0	null	null	null	null	null	null	null	null	336.0	337.0	334.0	337.0	336.0	339.0	334.0	334.0	333.0	338.0	332.0	
Tue Jun 06 01:15:00 UTC 2017	0.0	1.047281664E9	3083.601806640625	0.0	2.5731072E7	0.0	2.0	1.03071744E9	39.3784294128418	0.0	0.0	1.047130112E9	1.037533184E9	0.0	0.0	0.06750000268220901	0.05550000071525574	0.04650000110268593	0.9919999837875366	0.7803115248680115	0.0	244.0	371.0	0.0	0.0	0.0	0.0	0.0	0.0	null	null	null	null	null	null	null	null	337.0	335.0	340.0	340.0	338.0	331.0	339.0	336.0	337.0	334.0	337.0	
Tue Jun 06 01:14:00 UTC 2017	0.0	1.047281664E9	3083.601806640625	0.0	2.5731072E7	0.0	4.0	1.030627328E9	39.3784294128418	0.0	0.0	1.047130112E9	1.037533184E9	0.0	0.0	0.08425000309944153	0.05025000125169754	0.04399999976158142	0.9919999837875366	0.7803424000740051	0.0	244.0	371.0	0.0	0.0	0.0	0.0	0.0	0.0	null	null	null	null	null	null	null	null	335.0	334.0	332.0	335.0	335.0	336.0	333.0	335.0	333.0	337.0	334.0	
Tue Jun 06 01:13:00 UTC 2017	0.0	1.047281664E9	2712.552734375	0.0	2.5731072E7	0.0	3.0	1.030627328E9	39.078678131103516	0.0	0.0	1.047130112E9	1.03856128E9	0.0	0.0	0.07275000214576721	0.05000000074505806	0.04924999922513962	0.9925000071525574	0.7803398966789246	0.0	244.0	371.0	0.0	0.0	0.0	0.0	0.0	0.0	null	null	null	null	null	null	null	null	334.0	334.0	335.0	335.0	338.0	335.0	335.0	337.0	337.0	335.0	337.0	
Tue Jun 06 01:12:00 UTC 2017	0.0	1.047281664E9	2712.552734375	0.0	2.5731072E7	0.0	2.0	1.030418432E9	41.682373046875	0.0	0.0	1.047130112E9	1.03856128E9	0.0	null	0.07249999791383743	0.051500000059604645	0.04724999889731407	0.9925000071525574	0.7809353470802307	0.0	244.0	371.0	0.0	0.0	0.0	0.0	0.0	0.0	null	null	null	null	null	null	null	null	334.0	334.0	335.0	334.0	333.0	338.0	334.0	336.0	336.0	337.0	336.0	
Tue Jun 06 01:11:00 UTC 2017	0.0	1.047281664E9	2373.98486328125	0.0	2.5731072E7	0.0	2.0	1.030418432E9	41.682373046875	0.0	0.0	1.047130112E9	1.037533184E9	0.0	null	0.10824999958276749	0.054249998182058334	0.045499999076128006	0.9922500252723694	0.7803096175193787	0.0	244.0	371.0	0.0	0.0	0.0	0.0	0.0	0.0	null	null	null	null	null	null	null	null	336.0	338.0	336.0	335.0	339.0	336.0	334.0	335.0	337.0	337.0	337.0	
Tue Jun 06 01:10:00 UTC 2017	0.0	1.047281664E9	2476.375	0.0	2.5731072E7	0.0	3.0	1.030770688E9	61.06058120727539	0.0	0.0	1.047130112E9	1.03856128E9	0.0	null	0.06724999845027924	0.04699999839067459	0.04699999839067459	0.9922500252723694	0.7803272008895874	0.0	244.0	371.0	0.0	0.0	0.0	0.0	0.0	0.0	null	null	null	null	null	null	null	null	337.0	335.0	336.0	334.0	334.0	339.0	336.0	335.0	336.0	337.0	335.0	
Tue Jun 06 01:09:00 UTC 2017	0.0	1.047281664E9	2476.375	0.0	2.5731072E7	0.0	4.0	1.030414336E9	63.971595764160156	0.0	0.0	1.047130112E9	1.037533184E9	0.0	null	0.08049999922513962	0.054749999195337296	0.048250000923871994	0.9919999837875366	0.78256756067276	0.0	244.0	371.0	0.0	0.0	0.0	0.0	0.0	0.0	null	null	null	null	null	null	null	null	331.0	335.0	337.0	335.0	337.0	335.0	336.0	335.0	339.0	334.0	333.0	
Tue Jun 06 01:08:00 UTC 2017	0.0	1.047281664E9	2476.375	0.0	2.5731072E7	0.0	2.0	1.030414336E9	63.971595764160156	0.0	0.0	1.047130112E9	1.03856128E9	0.0	0.0	0.06925000250339508	0.05274999886751175	0.04749999940395355	0.9922500252723694	0.7802249193191528	0.0	244.0	371.0	0.0	0.0	0.0	0.0	0.0	0.0	null	null	null	null	null	null	null	null	336.0	337.0	334.0	332.0	333.0	335.0	335.0	336.0	332.0	333.0	338.0	
Tue Jun 06 01:07:00 UTC 2017	0.0	1.047281664E9	3156.381103515625	0.0	2.5731072E7	0.0	3.0	1.030414336E9	63.971595764160156	0.0	0.0	1.047130112E9	1.037533184E9	0.0	0.0	0.07750000059604645	0.05324999988079071	0.04574999958276749	0.9922500252723694	0.78022301197052	0.0	244.0	371.0	0.0	0.0	0.0	0.0	0.0	0.0	null	null	null	null	null	null	null	null	337.0	335.0	333.0	335.0	336.0	334.0	337.0	332.0	336.0	336.0	336.0	
Tue Jun 06 01:06:00 UTC 2017	0.0	1.047281664E9	3001.000732421875	0.0	2.5731072E7	0.0	2.0	1.03028736E9	33.671142578125	0.0	0.0	1.047130112E9	1.037533184E9	0.0	0.0	0.0754999965429306	0.051750000566244125	0.050999999046325684	0.9919999837875366	0.7801809310913086	0.0	244.0	371.0	0.0	0.0	0.0	0.0	0.0	0.0	null	null	null	null	null	null	null	null	338.0	336.0	336.0	335.0	337.0	336.0	336.0	337.0	336.0	338.0	336.0	
Tue Jun 06 01:05:00 UTC 2017	0.0	1.047281664E9	1651.6524658203125	0.0	2.5731072E7	0.0	2.0	1.03028736E9	33.671142578125	0.0	0.0	1.047130112E9	1.037533184E9	0.0	0.0	0.07124999910593033	0.050999999046325684	0.04100000113248825	0.9919999837875366	0.7801721096038818	0.0	244.0	371.0	0.0	0.0	0.0	0.0	0.0	0.0	null	null	null	null	null	null	null	null	333.0	335.0	335.0	337.0	336.0	334.0	334.0	334.0	336.0	333.0	334.0	
Tue Jun 06 01:04:00 UTC 2017	0.0	1.047281664E9	2806.28662109375	0.0	2.5731072E7	0.0	2.0	1.030197248E9	69.25631713867188	0.0	0.0	1.047130112E9	1.037533184E9	0.0	0.0	0.08399999886751175	0.04724999889731407	0.04924999922513962	0.9922500252723694	0.7801955938339233	0.0	244.0	371.0	0.0	0.0	0.0	0.0	0.0	0.0	null	null	null	null	null	null	null	null	335.0	335.0	336.0	333.0	333.0	337.0	335.0	336.0	337.0	337.0	333.0	
Tue Jun 06 01:03:00 UTC 2017	0.0	1.047281664E9	3080.810302734375	0.0	2.5731072E7	0.0	2.0	1.030197248E9	49.20658493041992	0.0	0.0	1.047130112E9	1.037533184E9	0.0	0.0	0.07349999994039536	0.05974999815225601	0.045249998569488525	0.9922500252723694	0.7801892161369324	0.0	244.0	371.0	0.0	0.0	0.0	0.0	0.0	0.0	null	null	null	null	null	null	null	null	336.0	336.0	336.0	338.0	335.0	337.0	336.0	334.0	335.0	335.0	338.0	
Tue Jun 06 01:02:00 UTC 2017	0.0	1.047281664E9	3080.810302734375	0.0	2.5731072E7	0.0	2.0	1.030197248E9	49.20658493041992	0.0	0.0	1.047130112E9	1.037533184E9	0.0	0.0	0.06800000369548798	0.04975000023841858	0.0507499985396862	0.9922500252723694	0.7801740765571594	0.0	244.0	371.0	0.0	0.0	0.0	0.0	0.0	0.0	null	null	null	null	null	null	null	null	335.0	335.0	334.0	331.0	335.0	332.0	334.0	339.0	338.0	336.0	332.0	
Tue Jun 06 01:01:00 UTC 2017	0.0	1.047281664E9	2800.279052734375	0.0	2.5731072E7	0.0	2.0	1.029984256E9	49.20658493041992	0.0	0.0	1.047130112E9	1.037533184E9	0.0	0.0	0.10750000178813934	0.05025000125169754	0.04399999976158142	0.9925000071525574	0.7801554799079895	0.0	244.0	371.0	0.0	0.0	0.0	0.0	0.0	0.0	null	null	null	null	null	null	null	null	335.0	338.0	334.0	339.0	338.0	336.0	337.0	335.0	334.0	337.0	338.0	
Tue Jun 06 01:00:00 UTC 2017	0.0	1.047281664E9	2497.350830078125	0.0	2.5731072E7	0.0	2.0	1.030074368E9	39.44580841064453	0.0	0.0	1.047130112E9	1.03856128E9	0.0	0.0	0.0754999965429306	0.05525000020861626	0.04975000023841858	0.9922500252723694	0.7801564335823059	0.0	244.0	371.0	0.0	0.0	0.0	0.0	0.0	0.0	null	null	null	null	null	null	null	null	332.0	334.0	334.0	335.0	337.0	335.0	334.0	335.0	336.0	335.0	337.0	
Tue Jun 06 00:59:00 UTC 2017	0.0	1.047281664E9	2820.63525390625	0.0	2.5731072E7	0.0	5.0	1.029984256E9	39.44580841064453	0.0	0.0	1.047130112E9	1.03856128E9	0.0	0.0	0.0677499994635582	0.04975000023841858	0.04574999958276749	0.9922500252723694	0.7814011573791504	0.0	244.0	371.0	0.0	0.0	0.0	0.0	0.0	0.0	null	null	null	null	null	null	null	null	332.0	338.0	336.0	336.0	336.0	335.0	335.0	334.0	337.0	337.0	336.0	
Tue Jun 06 00:58:00 UTC 2017	0.0	1.047281664E9	2856.082763671875	0.0	2.5731072E7	0.0	2.0	1.029984256E9	38.08835983276367	0.0	0.0	1.047130112E9	1.03856128E9	0.0	0.0	0.07249999791383743	0.04574999958276749	0.04975000023841858	0.9922500252723694	0.7801329493522644	0.0	244.0	371.0	0.0	0.0	0.0	0.0	0.0	0.0	null	null	null	null	null	null	null	null	340.0	334.0	333.0	337.0	333.0	340.0	335.0	337.0	333.0	339.0	337.0	
Tue Jun 06 00:57:00 UTC 2017	0.0	1.047281664E9	2454.553955078125	0.0	2.5731072E7	0.0	5.0	1.029984256E9	38.36134719848633	0.0	0.0	1.047130112E9	1.037533184E9	0.0	0.0	0.08399999886751175	0.05824999883770943	0.04475000128149986	0.9922500252723694	0.7820161581039429	0.0	244.0	371.0	0.0	0.0	0.0	0.0	0.0	0.0	null	null	null	null	null	null	null	null	335.0	337.0	334.0	335.0	340.0	332.0	335.0	334.0	336.0	335.0	337.0	
Tue Jun 06 00:56:00 UTC 2017	0.0	1.047281664E9	3073.37060546875	0.0	2.5731072E7	0.0	2.0	1.029865472E9	49.225276947021484	0.0	0.0	1.047130112E9	1.037533184E9	0.0	null	0.07275000214576721	0.045499999076128006	0.04774999991059303	0.9925000071525574	0.7819300293922424	0.0	244.0	371.0	0.0	0.0	0.0	0.0	0.0	0.0	null	null	null	null	null	null	null	null	334.0	337.0	337.0	335.0	336.0	340.0	334.0	334.0	335.0	336.0	332.0	
Tue Jun 06 00:55:00 UTC 2017	0.0	1.047281664E9	3073.37060546875	0.0	2.5731072E7	0.0	2.0	1.029861376E9	49.225276947021484	0.0	0.0	1.047130112E9	1.037533184E9	0.0	null	0.0754999965429306	0.05674999952316284	0.04774999991059303	0.9919999837875366	0.7800301909446716	0.0	244.0	371.0	0.0	0.0	0.0	0.0	0.0	0.0	null	null	null	null	null	null	null	null	338.0	334.0	337.0	334.0	333.0	335.0	337.0	337.0	338.0	334.0	338.0	
Tue Jun 06 00:54:00 UTC 2017	0.0	1.047281664E9	3073.37060546875	0.0	2.5731072E7	0.0	2.0	1.029771264E9	49.225276947021484	0.0	0.0	1.047130112E9	1.037533184E9	0.0	null	0.0689999982714653	0.04774999991059303	0.04625000059604645	0.9922500252723694	0.7800199389457703	0.0	244.0	371.0	0.0	0.0	0.0	0.0	0.0	0.0	null	null	null	null	null	null	null	null	334.0	337.0	335.0	339.0	335.0	333.0	335.0	334.0	334.0	335.0	336.0	
Tue Jun 06 00:53:00 UTC 2017	0.0	1.047281664E9	2444.14599609375	0.0	2.5731072E7	0.0	2.0	1.029771264E9	45.63113021850586	0.0	0.0	1.047130112E9	1.03856128E9	0.0	null	0.07699999958276749	0.051500000059604645	0.04975000023841858	0.9922500252723694	0.7800037860870361	0.0	244.0	371.0	0.0	0.0	0.0	0.0	0.0	0.0	null	null	null	null	null	null	null	null	334.0	333.0	335.0	332.0	335.0	338.0	337.0	338.0	335.0	334.0	335.0	
Tue Jun 06 00:52:00 UTC 2017	0.0	1.047281664E9	2540.7666015625	0.0	2.5731072E7	0.0	3.0	1.029771264E9	45.63113021850586	0.0	0.0	1.047130112E9	1.037533184E9	0.0	null	0.07750000059604645	0.05249999836087227	0.04625000059604645	0.9922500252723694	0.7804177403450012	0.0	244.0	371.0	0.0	0.0	0.0	0.0	0.0	0.0	null	null	null	null	null	null	null	null	339.0	338.0	333.0	340.0	336.0	334.0	335.0	337.0	333.0	335.0	334.0	
Tue Jun 06 00:51:00 UTC 2017	0.0	1.047281664E9	2540.7666015625	0.0	2.5731072E7	0.0	2.0	1.029562368E9	45.63113021850586	0.0	0.0	1.047130112E9	1.03856128E9	0.0	0.0	0.10125000029802322	0.0572500005364418	0.048500001430511475	0.9922500252723694	0.7799558639526367	0.0	244.0	371.0	0.0	0.0	0.0	0.0	0.0	0.0	null	null	null	null	null	null	null	null	334.0	333.0	334.0	338.0	336.0	333.0	334.0	336.0	336.0	338.0	338.0	
Tue Jun 06 00:50:00 UTC 2017	0.0	1.047281664E9	2640.655517578125	0.0	2.5731072E7	0.0	2.0	1.02965248E9	62.846168518066406	0.0	0.0	1.047130112E9	1.037533184E9	0.0	0.0	0.07575000077486038	0.045499999076128006	0.045249998569488525	0.9922500252723694	0.7822167873382568	0.0	244.0	371.0	0.0	0.0	0.0	0.0	0.0	0.0	null	null	null	null	null	null	null	null	337.0	335.0	335.0	332.0	341.0	338.0	338.0	335.0	336.0	333.0	333.0	
Tue Jun 06 00:49:00 UTC 2017	0.0	1.047281664E9	2640.655517578125	0.0	2.5731072E7	0.0	2.0	1.029562368E9	41.23257827758789	0.0	0.0	1.047130112E9	1.037533184E9	0.0	0.0	0.06825000047683716	0.057999998331069946	0.048500001430511475	0.9922500252723694	0.7822118997573853	0.0	244.0	371.0	0.0	0.0	0.0	0.0	0.0	0.0	null	null	null	null	null	null	null	null	337.0	337.0	337.0	334.0	333.0	332.0	334.0	334.0	337.0	334.0	337.0	
Tue Jun 06 00:48:00 UTC 2017	0.0	1.047281664E9	2384.020263671875	0.0	2.5731072E7	0.0	2.0	1.029562368E9	41.23257827758789	0.0	0.0	1.047130112E9	1.037533184E9	0.0	0.0	0.0729999989271164	0.05000000074505806	0.04675000160932541	0.9922500252723694	0.7821007966995239	0.0	244.0	371.0	0.0	0.0	0.0	0.0	0.0	0.0	null	null	null	null	null	null	null	null	336.0	339.0	340.0	340.0	335.0	338.0	337.0	335.0	339.0	339.0	331.0	
Tue Jun 06 00:47:00 UTC 2017	0.0	1.047281664E9	2384.020263671875	0.0	2.5731072E7	0.0	5.0	1.029562368E9	54.07496643066406	0.0	0.0	1.047130112E9	1.03856128E9	0.0	0.0	0.0820000022649765	0.05025000125169754	0.04500000178813934	0.9922500252723694	0.7798912525177002	0.0	244.0	371.0	0.0	0.0	0.0	0.0	0.0	0.0	null	null	null	null	null	null	null	null	338.0	331.0	336.0	331.0	337.0	337.0	333.0	335.0	334.0	333.0	339.0	
Tue Jun 06 00:46:00 UTC 2017	0.0	1.047281664E9	2963.010498046875	0.0	2.5731072E7	0.0	3.0	1.029349376E9	54.818359375	0.0	0.0	1.047130112E9	1.03856128E9	0.0	0.0	0.07349999994039536	0.054249998182058334	0.04975000023841858	0.9922500252723694	0.7821605205535889	0.0	244.0	371.0	0.0	0.0	0.0	0.0	0.0	0.0	null	null	null	null	null	null	null	null	334.0	336.0	338.0	334.0	334.0	336.0	336.0	333.0	335.0	336.0	335.0	
Tue Jun 06 00:45:00 UTC 2017	0.0	1.047281664E9	2984.3837890625	0.0	2.5731072E7	0.0	3.0	1.029439488E9	46.54741287231445	0.0	0.0	1.047130112E9	1.037533184E9	0.0	0.0	0.06724999845027924	0.04574999958276749	0.04500000178813934	0.9922500252723694	0.7798565030097961	0.0	244.0	371.0	0.0	0.0	0.0	0.0	0.0	0.0	null	null	null	null	null	null	null	null	338.0	335.0	335.0	335.0	333.0	335.0	336.0	336.0	335.0	335.0	332.0	
Tue Jun 06 00:44:00 UTC 2017	0.0	1.047281664E9	2314.73828125	0.0	2.5731072E7	0.0	2.0	1.029349376E9	46.54741287231445	0.0	0.0	1.047130112E9	1.03856128E9	0.0	0.0	0.07750000059604645	0.05950000137090683	0.04924999922513962	0.9922500252723694	0.7821242809295654	0.0	244.0	371.0	0.0	0.0	0.0	0.0	0.0	0.0	null	null	null	null	null	null	null	null	335.0	336.0	331.0	337.0	336.0	332.0	332.0	332.0	333.0	336.0	333.0	
Tue Jun 06 00:43:00 UTC 2017	0.0	1.047281664E9	3335.865966796875	0.0	2.5731072E7	0.0	2.0	1.029349376E9	55.02482223510742	0.0	0.0	1.047130112E9	1.03856128E9	0.0	0.0	0.07625000178813934	0.04874999821186066	0.04874999821186066	0.9925000071525574	0.7798134684562683	0.0	244.0	371.0	0.0	0.0	0.0	0.0	0.0	0.0	null	null	null	null	null	null	null	null	335.0	334.0	336.0	333.0	335.0	334.0	336.0	336.0	335.0	335.0	335.0	
Tue Jun 06 00:42:00 UTC 2017	0.0	1.047281664E9	2935.685546875	0.0	2.5731072E7	0.0	3.0	1.029349376E9	55.02482223510742	0.0	0.0	1.047130112E9	1.03856128E9	0.0	0.0	0.07850000262260437	0.051750000566244125	0.045499999076128006	0.9922500252723694	0.7797977924346924	0.0	244.0	371.0	0.0	0.0	0.0	0.0	0.0	0.0	null	null	null	null	null	null	null	null	335.0	335.0	335.0	338.0	338.0	336.0	337.0	336.0	336.0	337.0	338.0	
Tue Jun 06 00:41:00 UTC 2017	0.0	1.047281664E9	2935.685546875	0.0	2.5731072E7	0.0	2.0	1.029136384E9	57.360591888427734	0.0	0.0	1.047130112E9	1.037533184E9	0.0	null	0.09449999779462814	0.051249999552965164	0.048500001430511475	0.9919999837875366	0.7813742160797119	0.0	244.0	371.0	0.0	0.0	0.0	0.0	0.0	0.0	null	null	null	null	null	null	null	null	336.0	332.0	335.0	337.0	336.0	336.0	330.0	338.0	335.0	337.0	334.0	
Tue Jun 06 00:40:00 UTC 2017	0.0	1.047281664E9	2935.685546875	0.0	2.5731072E7	0.0	4.0	1.029226496E9	57.360591888427734	0.0	0.0	1.047130112E9	1.037533184E9	0.0	null	0.07474999874830246	0.052000001072883606	0.048250000923871994	0.9922500252723694	0.7797709107398987	0.0	244.0	371.0	0.0	0.0	0.0	0.0	0.0	0.0	null	null	null	null	null	null	null	null	340.0	334.0	335.0	337.0	336.0	333.0	334.0	338.0	333.0	336.0	335.0	
Tue Jun 06 00:39:00 UTC 2017	0.0	1.047281664E9	2867.794189453125	0.0	2.5731072E7	0.0	2.0	1.029136384E9	59.51828384399414	0.0	0.0	1.047130112E9	1.037533184E9	0.0	null	0.0794999971985817	0.05299999937415123	0.04374999925494194	0.9922500252723694	0.7797586917877197	0.0	244.0	371.0	0.0	0.0	0.0	0.0	0.0	0.0	null	null	null	null	null	null	null	null	335.0	332.0	337.0	336.0	337.0	334.0	338.0	334.0	335.0	335.0	335.0	
Tue Jun 06 00:38:00 UTC 2017	0.0	1.047281664E9	2867.794189453125	0.0	2.5731072E7	0.0	3.0	1.029136384E9	59.51828384399414	0.0	0.0	1.047130112E9	1.03856128E9	0.0	null	0.07100000232458115	0.054999999701976776	0.048500001430511475	0.9922500252723694	0.7797538042068481	0.0	244.0	371.0	0.0	0.0	0.0	0.0	0.0	0.0	null	null	null	null	null	null	null	null	331.0	337.0	335.0	338.0	330.0	338.0	332.0	337.0	337.0	336.0	338.0	
Tue Jun 06 00:37:00 UTC 2017	0.0	1.047281664E9	2867.794189453125	0.0	2.5731072E7	0.0	4.0	1.029136384E9	59.51828384399414	0.0	0.0	1.047130112E9	1.037533184E9	0.0	null	0.0754999965429306	0.048250000923871994	0.04574999958276749	0.9922500252723694	0.7797831296920776	0.0	244.0	371.0	0.0	0.0	0.0	0.0	0.0	0.0	null	null	null	null	null	null	null	null	337.0	332.0	335.0	337.0	335.0	338.0	337.0	335.0	334.0	336.0	332.0	
Tue Jun 06 00:36:00 UTC 2017	0.0	1.047281664E9	2867.794189453125	0.0	2.5731072E7	0.0	7.0	1.0290176E9	59.51828384399414	0.0	0.0	1.047130112E9	1.03856128E9	0.0	null	0.07349999994039536	0.05400000140070915	0.05050000175833702	0.9922500252723694	0.7797410488128662	0.0	244.0	371.0	0.0	0.0	0.0	0.0	0.0	0.0	null	null	null	null	null	null	null	null	336.0	336.0	337.0	336.0	337.0	334.0	337.0	338.0	336.0	333.0	339.0	
Tue Jun 06 00:35:00 UTC 2017	0.0	1.047281664E9	2778.417724609375	0.0	2.5731072E7	0.0	2.0	1.0290176E9	30.07796859741211	0.0	0.0	1.047130112E9	1.037533184E9	0.0	null	0.07124999910593033	0.05249999836087227	0.04650000110268593	0.9922500252723694	0.7797396183013916	0.0	244.0	371.0	0.0	0.0	0.0	0.0	0.0	0.0	null	null	null	null	null	null	null	null	336.0	334.0	336.0	334.0	334.0	339.0	335.0	336.0	336.0	335.0	335.0	
Tue Jun 06 00:34:00 UTC 2017	0.0	1.047281664E9	2766.51123046875	0.0	2.5731072E7	0.0	4.0	1.028927488E9	30.07796859741211	0.0	0.0	1.047130112E9	1.03856128E9	0.0	null	0.07050000131130219	0.054999999701976776	0.04625000059604645	0.9922500252723694	0.7797180414199829	0.0	244.0	371.0	0.0	0.0	0.0	0.0	0.0	0.0	null	null	null	null	null	null	null	null	336.0	336.0	333.0	338.0	333.0	334.0	335.0	335.0	332.0	333.0	335.0	
Tue Jun 06 00:33:00 UTC 2017	0.0	1.047281664E9	2390.026123046875	0.0	2.5731072E7	0.0	2.0	1.028927488E9	68.16934967041016	0.0	0.0	1.047130112E9	1.037533184E9	0.0	0.0	0.08799999952316284	0.04924999922513962	0.04899999871850014	0.9922500252723694	0.7819897532463074	0.0	244.0	371.0	0.0	0.0	0.0	0.0	0.0	0.0	null	null	null	null	null	null	null	null	332.0	335.0	335.0	338.0	339.0	338.0	333.0	333.0	335.0	340.0	334.0	
Tue Jun 06 00:32:00 UTC 2017	0.0	1.047281664E9	2771.8271484375	0.0	2.5731072E7	0.0	3.0	1.028927488E9	46.03031539916992	0.0	0.0	1.047130112E9	1.03856128E9	0.0	0.0	0.07124999910593033	0.04699999839067459	0.04899999871850014	0.9922500252723694	0.7796857953071594	0.0	244.0	371.0	0.0	0.0	0.0	0.0	0.0	0.0	null	null	null	null	null	null	null	null	338.0	337.0	335.0	335.0	335.0	337.0	335.0	334.0	338.0	335.0	335.0	
Tue Jun 06 00:31:00 UTC 2017	0.0	1.047281664E9	2771.8271484375	0.0	2.5731072E7	0.0	3.0	1.028714496E9	59.713661193847656	0.0	0.0	1.047130112E9	1.03856128E9	0.0	0.0	0.0925000011920929	0.05225000157952309	0.045499999076128006	0.9922500252723694	0.7796681523323059	0.0	244.0	371.0	0.0	0.0	0.0	0.0	0.0	0.0	null	null	null	null	null	null	null	null	336.0	336.0	335.0	337.0	337.0	335.0	335.0	337.0	334.0	336.0	337.0	
Tue Jun 06 00:30:00 UTC 2017	0.0	1.047281664E9	2691.203125	0.0	2.5731072E7	0.0	3.0	1.028804608E9	59.713661193847656	0.0	0.0	1.047130112E9	1.03856128E9	0.0	0.0	0.0677499994635582	0.05050000175833702	0.0494999997317791	0.9919999837875366	0.7796583771705627	0.0	244.0	371.0	0.0	0.0	0.0	0.0	0.0	0.0	null	null	null	null	null	null	null	null	334.0	335.0	338.0	335.0	337.0	337.0	334.0	337.0	336.0	336.0	335.0	
Tue Jun 06 00:29:00 UTC 2017	0.0	1.047281664E9	2691.203125	0.0	2.5731072E7	0.0	2.0	1.028714496E9	55.33795166015625	0.0	0.0	1.047130112E9	1.03856128E9	0.0	0.0	0.08375000208616257	0.057500001043081284	0.04625000059604645	0.9925000071525574	0.7819100022315979	0.0	244.0	371.0	0.0	0.0	0.0	0.0	0.0	0.0	null	null	null	null	null	null	null	null	335.0	336.0	335.0	335.0	337.0	338.0	338.0	332.0	332.0	332.0	335.0	
Tue Jun 06 00:28:00 UTC 2017	0.0	1.047281664E9	2620.87841796875	0.0	2.5731072E7	0.0	4.0	1.028714496E9	55.33795166015625	0.0	0.0	1.047130112E9	1.03856128E9	0.0	0.0	0.07100000232458115	0.04724999889731407	0.045499999076128006	0.9919999837875366	0.7818595767021179	0.0	244.0	371.0	0.0	0.0	0.0	0.0	0.0	0.0	null	null	null	null	null	null	null	null	338.0	332.0	337.0	338.0	333.0	335.0	334.0	338.0	335.0	335.0	336.0	
Tue Jun 06 00:27:00 UTC 2017	0.0	1.047281664E9	2620.87841796875	0.0	2.5731072E7	0.0	2.0	1.028960256E9	33.9534797668457	0.0	0.0	1.047130112E9	1.03856128E9	0.0	0.0	0.07050000131130219	0.05050000175833702	0.04800000041723251	0.9919999837875366	0.7790893316268921	0.0	244.0	371.0	0.0	0.0	0.0	0.0	0.0	0.0	null	null	null	null	null	null	null	null	336.0	337.0	332.0	335.0	338.0	333.0	340.0	333.0	334.0	338.0	335.0	
Tue Jun 06 00:26:00 UTC 2017	0.0	1.047281664E9	2854.741455078125	0.0	2.5731072E7	0.0	2.0	1.028501504E9	33.9534797668457	0.0	0.0	1.047130112E9	1.03856128E9	0.0	0.0	0.08524999767541885	0.057750001549720764	0.04749999940395355	0.9922500252723694	0.7790893316268921	0.0	244.0	371.0	0.0	0.0	0.0	0.0	0.0	0.0	null	null	null	null	null	null	null	null	336.0	340.0	339.0	338.0	334.0	336.0	331.0	337.0	334.0	333.0	336.0	
Tue Jun 06 00:25:00 UTC 2017	0.0	1.047281664E9	2853.43359375	0.0	2.5731072E7	0.0	3.0	1.028591616E9	51.400596618652344	0.0	0.0	1.047130112E9	1.037533184E9	0.0	0.0	0.07249999791383743	0.04650000110268593	0.04724999889731407	0.9922500252723694	0.7813556790351868	0.0	244.0	371.0	0.0	0.0	0.0	0.0	0.0	0.0	null	null	null	null	null	null	null	null	334.0	336.0	333.0	336.0	336.0	339.0	340.0	334.0	331.0	341.0	335.0	
Tue Jun 06 00:24:00 UTC 2017	0.0	1.047281664E9	2853.43359375	0.0	2.5731072E7	0.0	3.0	1.028501504E9	44.52846145629883	0.0	0.0	1.047130112E9	1.03856128E9	0.0	0.0	0.06849999725818634	0.05274999886751175	0.04800000041723251	0.9919999837875366	0.7790624499320984	0.0	244.0	371.0	0.0	0.0	0.0	0.0	0.0	0.0	null	null	null	null	null	null	null	null	336.0	336.0	336.0	334.0	336.0	335.0	336.0	334.0	335.0	333.0	334.0	
Tue Jun 06 00:23:00 UTC 2017	0.0	1.047281664E9	2766.8193359375	0.0	2.5731072E7	0.0	2.0	1.028501504E9	44.52846145629883	0.0	0.0	1.047130112E9	1.03856128E9	0.0	0.0	0.0754999965429306	0.05225000157952309	0.0442500002682209	0.9919999837875366	0.779060959815979	0.0	244.0	371.0	0.0	0.0	0.0	0.0	0.0	0.0	null	null	null	null	null	null	null	null	336.0	334.0	334.0	335.0	332.0	334.0	336.0	333.0	334.0	340.0	335.0	
Tue Jun 06 00:22:00 UTC 2017	0.0	1.047281664E9	2766.8193359375	0.0	2.5731072E7	0.0	2.0	1.028501504E9	57.136234283447266	0.0	0.0	1.047130112E9	1.037533184E9	0.0	0.0	0.07325000315904617	0.051750000566244125	0.05249999836087227	0.9919999837875366	0.780288577079773	0.0	244.0	371.0	0.0	0.0	0.0	0.0	0.0	0.0	null	null	null	null	null	null	null	null	332.0	337.0	339.0	338.0	338.0	333.0	335.0	334.0	335.0	333.0	334.0	
Tue Jun 06 00:21:00 UTC 2017	0.0	1.047281664E9	2766.8193359375	0.0	2.5731072E7	0.0	2.0	1.028472832E9	57.136234283447266	0.0	0.0	1.047130112E9	1.037533184E9	0.0	0.0	0.09525000303983688	0.05274999886751175	0.04399999976158142	0.9925000071525574	0.7813311815261841	0.0	244.0	371.0	0.0	0.0	0.0	0.0	0.0	0.0	null	null	null	null	null	null	null	null	341.0	336.0	331.0	336.0	336.0	335.0	338.0	336.0	333.0	335.0	337.0	
Tue Jun 06 00:20:00 UTC 2017	0.0	1.047281664E9	2766.8193359375	0.0	2.5731072E7	0.0	2.0	1.02838272E9	57.136234283447266	0.0	0.0	1.047130112E9	1.03856128E9	0.0	0.0	0.0820000022649765	0.054249998182058334	0.04975000023841858	0.9919999837875366	0.7790310978889465	0.0	244.0	371.0	0.0	0.0	0.0	0.0	0.0	0.0	null	null	null	null	null	null	null	null	334.0	340.0	336.0	337.0	335.0	336.0	334.0	333.0	333.0	338.0	335.0	
Tue Jun 06 00:19:00 UTC 2017	0.0	1.047281664E9	2641.550048828125	0.0	2.5731072E7	0.0	2.0	1.028292608E9	48.07124710083008	0.0	0.0	1.047130112E9	1.03856128E9	0.0	0.0	0.07599999755620956	0.05225000157952309	0.04650000110268593	0.9922500252723694	0.7790066599845886	0.0	244.0	371.0	0.0	0.0	0.0	0.0	0.0	0.0	null	null	null	null	null	null	null	null	336.0	335.0	338.0	339.0	332.0	335.0	336.0	334.0	332.0	334.0	335.0	
Tue Jun 06 00:18:00 UTC 2017	0.0	1.047281664E9	2961.496826171875	0.0	2.5731072E7	0.0	2.0	1.028292608E9	50.31331253051758	0.0	0.0	1.047130112E9	1.03856128E9	0.0	0.0	0.07100000232458115	0.05025000125169754	0.04924999922513962	0.9922500252723694	0.7802009582519531	0.0	244.0	371.0	0.0	0.0	0.0	0.0	0.0	0.0	null	null	null	null	null	null	null	null	338.0	336.0	334.0	335.0	335.0	336.0	340.0	336.0	336.0	336.0	333.0	
Tue Jun 06 00:17:00 UTC 2017	0.0	1.047281664E9	2961.496826171875	0.0	2.5731072E7	0.0	4.0	1.028292608E9	39.835060119628906	0.0	0.0	1.047130112E9	1.037533184E9	0.0	0.0	0.07774999737739563	0.04675000160932541	0.04874999821186066	0.9919999837875366	0.7808027863502502	0.0	244.0	371.0	0.0	0.0	0.0	0.0	0.0	0.0	null	null	null	null	null	null	null	null	333.0	331.0	333.0	332.0	335.0	333.0	334.0	334.0	336.0	335.0	337.0	
Tue Jun 06 00:16:00 UTC 2017	0.0	1.047281664E9	2889.92041015625	0.0	2.5731072E7	0.0	2.0	1.02807552E9	39.835060119628906	0.0	0.0	1.047130112E9	1.03856128E9	0.0	0.0	0.06949999928474426	0.0572500005364418	0.04024999961256981	0.9922500252723694	0.7811751365661621	0.0	244.0	371.0	0.0	0.0	0.0	0.0	0.0	0.0	null	null	null	null	null	null	null	null	340.0	337.0	335.0	339.0	336.0	336.0	335.0	336.0	337.0	338.0	335.0	
Tue Jun 06 00:15:00 UTC 2017	0.0	1.047281664E9	3768.4755859375	0.0	2.5731072E7	0.0	2.0	1.028165632E9	56.592716217041016	0.0	0.0	1.047130112E9	1.037533184E9	0.0	0.0	0.07649999856948853	0.050999999046325684	0.048250000923871994	0.9922500252723694	0.7789376974105835	0.0	244.0	371.0	0.0	0.0	0.0	0.0	0.0	0.0	null	null	null	null	null	null	null	null	334.0	336.0	336.0	335.0	338.0	335.0	336.0	337.0	331.0	333.0	337.0	
Tue Jun 06 00:14:00 UTC 2017	0.0	1.047281664E9	3768.4755859375	0.0	2.5731072E7	0.0	2.0	1.02807552E9	55.470420837402344	0.0	0.0	1.047130112E9	1.037533184E9	0.0	0.0	0.07524999976158142	0.050999999046325684	0.04975000023841858	0.9922500252723694	0.7789224982261658	0.0	244.0	371.0	0.0	0.0	0.0	0.0	0.0	0.0	null	null	null	null	null	null	null	null	335.0	334.0	338.0	335.0	331.0	336.0	333.0	335.0	337.0	334.0	334.0	
Tue Jun 06 00:13:00 UTC 2017	0.0	1.047281664E9	2428.83837890625	0.0	2.5731072E7	0.0	2.0	1.02807552E9	55.470420837402344	0.0	0.0	1.047130112E9	1.037533184E9	0.0	0.0	0.06475000083446503	0.05225000157952309	0.04874999821186066	0.9919999837875366	0.7812020182609558	0.0	244.0	371.0	0.0	0.0	0.0	0.0	0.0	0.0	null	null	null	null	null	null	null	null	336.0	337.0	336.0	333.0	336.0	339.0	337.0	334.0	335.0	333.0	339.0	
Tue Jun 06 00:12:00 UTC 2017	0.0	1.047281664E9	2428.83837890625	0.0	2.5731072E7	0.0	2.0	1.027862528E9	55.470420837402344	0.0	0.0	1.047130112E9	1.03856128E9	0.0	0.0	0.07524999976158142	0.05274999886751175	0.04724999889731407	0.9922500252723694	0.7788628339767456	0.0	244.0	371.0	0.0	0.0	0.0	0.0	0.0	0.0	null	null	null	null	null	null	null	null	336.0	336.0	334.0	332.0	337.0	335.0	335.0	335.0	335.0	335.0	334.0	
Tue Jun 06 00:11:00 UTC 2017	0.0	1.047281664E9	2936.18408203125	0.0	2.5731072E7	0.0	4.0	1.027862528E9	55.470420837402344	0.0	0.0	1.047130112E9	1.03856128E9	0.0	0.0	0.10275000333786011	0.04924999922513962	0.04399999976158142	0.9922500252723694	0.7787874937057495	0.0	244.0	371.0	0.0	0.0	0.0	0.0	0.0	0.0	null	null	null	null	null	null	null	null	335.0	333.0	337.0	335.0	333.0	334.0	331.0	335.0	338.0	337.0	337.0	
Tue Jun 06 00:10:00 UTC 2017	0.0	1.047281664E9	2805.3681640625	0.0	2.5731072E7	0.0	3.0	1.028214784E9	49.89459228515625	0.0	0.0	1.047130112E9	1.03856128E9	0.0	0.0	0.08049999922513962	0.051750000566244125	0.05050000175833702	0.9919999837875366	0.7787815928459167	0.0	244.0	371.0	0.0	0.0	0.0	0.0	0.0	0.0	null	null	null	null	null	null	null	null	332.0	335.0	333.0	332.0	333.0	334.0	333.0	331.0	334.0	335.0	335.0	
Tue Jun 06 00:09:00 UTC 2017	0.0	1.047281664E9	2726.935302734375	0.0	2.5731072E7	0.0	4.0	1.027702784E9	49.89459228515625	0.0	0.0	1.047130112E9	1.037533184E9	0.0	0.0	0.07150000333786011	0.054499998688697815	0.04899999871850014	0.9919999837875366	0.7811065912246704	0.0	244.0	371.0	0.0	0.0	0.0	0.0	0.0	0.0	null	null	null	null	null	null	null	null	335.0	332.0	335.0	335.0	335.0	337.0	336.0	337.0	337.0	334.0	333.0	
Tue Jun 06 00:08:00 UTC 2017	0.0	1.047281664E9	2837.757080078125	0.0	2.5731072E7	0.0	3.0	1.027702784E9	45.39499282836914	0.0	0.0	1.047130112E9	1.03856128E9	0.0	0.0	0.0767500028014183	0.051500000059604645	0.045249998569488525	0.9915000200271606	0.778829038143158	0.0	244.0	371.0	0.0	0.0	0.0	0.0	0.0	0.0	null	null	null	null	null	null	null	null	336.0	336.0	337.0	336.0	336.0	334.0	337.0	334.0	329.0	335.0	335.0	
Tue Jun 06 00:07:00 UTC 2017	0.0	1.047281664E9	2837.757080078125	0.0	2.5731072E7	0.0	3.0	1.027702784E9	45.39499282836914	0.0	0.0	1.047130112E9	1.037533184E9	0.0	0.0	0.07374999672174454	0.050999999046325684	0.051750000566244125	0.9919999837875366	0.7788114547729492	0.0	244.0	371.0	0.0	0.0	0.0	0.0	0.0	0.0	null	null	null	null	null	null	null	null	336.0	337.0	334.0	340.0	335.0	336.0	335.0	336.0	334.0	334.0	334.0	
Tue Jun 06 00:06:00 UTC 2017	0.0	1.047281664E9	2837.757080078125	0.0	2.5731072E7	0.0	2.0	1.027493888E9	60.69904327392578	0.0	0.0	1.047130112E9	1.037533184E9	0.0	0.0	0.0702499970793724	0.054999999701976776	0.04699999839067459	0.9919999837875366	0.7788079977035522	0.0	244.0	371.0	0.0	0.0	0.0	0.0	0.0	0.0	null	null	null	null	null	null	null	null	335.0	336.0	330.0	339.0	339.0	338.0	336.0	333.0	335.0	331.0	336.0	
Tue Jun 06 00:05:00 UTC 2017	0.0	1.047281664E9	2837.757080078125	0.0	2.5731072E7	0.0	2.0	1.027584E9	40.888824462890625	0.0	0.0	1.047130112E9	1.037533184E9	0.0	0.0	0.07925000041723251	0.04699999839067459	0.04574999958276749	0.9925000071525574	0.7787908911705017	0.0	244.0	371.0	0.0	0.0	0.0	0.0	0.0	0.0	null	null	null	null	null	null	null	null	334.0	334.0	336.0	331.0	336.0	334.0	336.0	337.0	338.0	334.0	336.0	
Tue Jun 06 00:04:00 UTC 2017	0.0	1.047281664E9	2837.757080078125	0.0	2.5731072E7	0.0	2.0	1.027493888E9	40.888824462890625	0.0	0.0	1.047130112E9	1.037533184E9	0.0	0.0	0.06849999725818634	0.05674999952316284	0.05050000175833702	0.9922500252723694	0.7810571789741516	0.0	244.0	371.0	0.0	0.0	0.0	0.0	0.0	0.0	null	null	null	null	null	null	null	null	335.0	330.0	337.0	333.0	332.0	333.0	338.0	336.0	337.0	338.0	339.0	
Tue Jun 06 00:03:00 UTC 2017	0.0	1.047281664E9	2881.466064453125	0.0	2.5731072E7	0.0	2.0	1.027493888E9	40.888824462890625	0.0	0.0	1.047130112E9	1.03856128E9	0.0	0.0	0.1067499965429306	0.0494999997317791	0.04324999824166298	0.9919999837875366	0.7787742614746094	0.0	244.0	371.0	0.0	0.0	0.0	0.0	0.0	0.0	null	null	null	null	null	null	null	null	336.0	337.0	329.0	337.0	337.0	336.0	333.0	337.0	332.0	335.0	337.0	
Tue Jun 06 00:02:00 UTC 2017	0.0	1.047281664E9	2881.466064453125	0.0	2.5731072E7	0.0	2.0	1.027493888E9	40.888824462890625	0.0	0.0	1.047130112E9	1.03856128E9	0.0	0.0	0.09324999898672104	0.05400000140070915	0.0507499985396862	0.9917500019073486	0.7787483334541321	0.0	244.0	371.0	0.0	0.0	0.0	0.0	0.0	0.0	null	null	null	null	null	null	null	null	334.0	335.0	339.0	332.0	334.0	334.0	334.0	334.0	337.0	337.0	334.0	
Tue Jun 06 00:01:00 UTC 2017	0.0	1.047281664E9	2881.466064453125	0.0	2.5731072E7	0.0	2.0	1.02746112E9	40.888824462890625	0.0	0.0	1.047130112E9	1.037533184E9	0.0	0.0	0.13175000250339508	0.045499999076128006	0.04450000077486038	0.9919999837875366	0.7787297368049622	0.0	244.0	371.0	0.0	0.0	0.0	0.0	0.0	0.0	null	null	null	null	null	null	null	null	337.0	334.0	335.0	339.0	337.0	336.0	336.0	334.0	334.0	334.0	335.0	
Tue Jun 06 00:00:00 UTC 2017	0.0	1.047281664E9	2881.466064453125	0.0	2.5731072E7	0.0	4.0	1.027371008E9	44.51079559326172	0.0	0.0	1.047130112E9	1.037533184E9	0.0	0.0	0.06849999725818634	0.05350000038743019	0.050999999046325684	0.9919999837875366	0.7809975147247314	0.0	244.0	371.0	0.0	0.0	0.0	0.0	0.0	0.0	null	null	null	null	null	null	null	null	334.0	334.0	334.0	334.0	333.0	335.0	336.0	336.0	334.0	338.0	333.0	
Mon Jun 05 23:59:00 UTC 2017	0.0	1.047281664E9	2812.09765625	0.0	2.5731072E7	0.0	2.0	1.027280896E9	44.51079559326172	0.0	0.0	1.047130112E9	1.03856128E9	0.0	0.0	0.07500000298023224	0.051249999552965164	0.045499999076128006	0.9919999837875366	0.7787013649940491	0.0	244.0	371.0	0.0	0.0	0.0	0.0	0.0	0.0	null	null	null	null	null	null	null	null	337.0	336.0	337.0	330.0	335.0	335.0	336.0	334.0	336.0	337.0	335.0	
Mon Jun 05 23:58:00 UTC 2017	0.0	1.047281664E9	2573.112060546875	0.0	2.5731072E7	0.0	6.0	1.027280896E9	44.51079559326172	0.0	0.0	1.047130112E9	1.037533184E9	0.0	0.0	0.07500000298023224	0.054249998182058334	0.048250000923871994	0.9919999837875366	0.7786832451820374	0.0	244.0	371.0	0.0	0.0	0.0	0.0	0.0	0.0	null	null	null	null	null	null	null	null	336.0	336.0	337.0	336.0	332.0	333.0	333.0	335.0	337.0	334.0	338.0	
Mon Jun 05 23:57:00 UTC 2017	0.0	1.047281664E9	2542.8203125	0.0	2.5731072E7	0.0	4.0	1.027280896E9	44.51079559326172	0.0	0.0	1.047130112E9	1.037533184E9	0.0	0.0	0.0820000022649765	0.04975000023841858	0.04899999871850014	0.9919999837875366	0.7786818146705627	0.0	244.0	371.0	0.0	0.0	0.0	0.0	0.0	0.0	null	null	null	null	null	null	null	null	333.0	341.0	334.0	334.0	335.0	337.0	335.0	335.0	334.0	333.0	336.0	
Mon Jun 05 23:56:00 UTC 2017	0.0	1.047281664E9	2542.8203125	0.0	2.5731072E7	0.0	5.0	1.027067904E9	44.51079559326172	0.0	0.0	1.047130112E9	1.037533184E9	0.0	0.0	0.07474999874830246	0.054999999701976776	0.04374999925494194	0.9917500019073486	0.7786617279052734	0.0	244.0	371.0	0.0	0.0	0.0	0.0	0.0	0.0	null	null	null	null	null	null	null	null	337.0	334.0	340.0	335.0	334.0	335.0	334.0	338.0	334.0	340.0	335.0	
Mon Jun 05 23:55:00 UTC 2017	0.0	1.047281664E9	2630.28564453125	0.0	2.5731072E7	0.0	2.0	1.027158016E9	44.51079559326172	0.0	0.0	1.047130112E9	1.037533184E9	0.0	0.0	0.07349999994039536	0.04924999922513962	0.051750000566244125	0.9922500252723694	0.7786465883255005	0.0	244.0	371.0	0.0	0.0	0.0	0.0	0.0	0.0	null	null	null	null	null	null	null	null	337.0	336.0	335.0	334.0	336.0	335.0	336.0	332.0	337.0	332.0	334.0	
Mon Jun 05 23:54:00 UTC 2017	0.0	1.047281664E9	3241.135986328125	0.0	2.5731072E7	0.0	2.0	1.027067904E9	35.9781379699707	0.0	0.0	1.047130112E9	1.03856128E9	0.0	0.0	0.07074999809265137	0.05000000074505806	0.04125000163912773	0.9922500252723694	0.7786470651626587	0.0	244.0	371.0	0.0	0.0	0.0	0.0	0.0	0.0	null	null	null	null	null	null	null	null	334.0	334.0	332.0	335.0	334.0	334.0	336.0	340.0	335.0	340.0	336.0	
Mon Jun 05 23:53:00 UTC 2017	0.0	1.047281664E9	3241.135986328125	0.0	2.5731072E7	0.0	2.0	1.027067904E9	47.10481262207031	0.0	0.0	1.047130112E9	1.03856128E9	0.0	0.0	0.07975000143051147	0.05299999937415123	0.05299999937415123	0.9922500252723694	0.778613805770874	0.0	244.0	371.0	0.0	0.0	0.0	0.0	0.0	0.0	null	null	null	null	null	null	null	null	335.0	335.0	338.0	335.0	338.0	338.0	339.0	337.0	333.0	334.0	335.0	
Mon Jun 05 23:52:00 UTC 2017	0.0	1.047281664E9	3241.135986328125	0.0	2.5731072E7	0.0	2.0	1.027067904E9	47.10481262207031	0.0	0.0	1.047130112E9	1.037533184E9	0.0	0.0	0.0689999982714653	0.05700000002980232	0.04450000077486038	0.9922500252723694	0.7798770666122437	0.0	244.0	371.0	0.0	0.0	0.0	0.0	0.0	0.0	null	null	null	null	null	null	null	null	336.0	336.0	335.0	335.0	333.0	333.0	334.0	334.0	339.0	336.0	336.0	
Mon Jun 05 23:51:00 UTC 2017	0.0	1.047281664E9	3241.135986328125	0.0	2.5731072E7	0.0	3.0	1.026854912E9	64.98123168945312	0.0	0.0	1.047130112E9	1.03856128E9	0.0	0.0	0.1054999977350235	0.05050000175833702	0.04874999821186066	0.9919999837875366	0.778531551361084	0.0	244.0	371.0	0.0	0.0	0.0	0.0	0.0	0.0	null	null	null	null	null	null	null	null	336.0	336.0	333.0	337.0	335.0	339.0	333.0	335.0	334.0	335.0	333.0	
Mon Jun 05 23:50:00 UTC 2017	0.0	1.047281664E9	2672.817626953125	0.0	2.5731072E7	0.0	2.0	1.026945024E9	64.98123168945312	0.0	0.0	1.047130112E9	1.03856128E9	0.0	0.0	0.07874999940395355	0.05225000157952309	0.04024999961256981	0.9925000071525574	0.7785124778747559	0.0	244.0	371.0	0.0	0.0	0.0	0.0	0.0	0.0	null	null	null	null	null	null	null	null	336.0	335.0	336.0	333.0	333.0	334.0	340.0	336.0	337.0	334.0	338.0	
Mon Jun 05 23:49:00 UTC 2017	0.0	1.047281664E9	2410.23388671875	0.0	2.5731072E7	0.0	2.0	1.026854912E9	64.98123168945312	0.0	0.0	1.047130112E9	1.03856128E9	0.0	0.0	0.07400000095367432	0.04625000059604645	0.05000000074505806	0.9925000071525574	0.7785154581069946	0.0	244.0	371.0	0.0	0.0	0.0	0.0	0.0	0.0	null	null	null	null	null	null	null	null	336.0	340.0	339.0	335.0	339.0	338.0	335.0	335.0	334.0	335.0	336.0	
Mon Jun 05 23:48:00 UTC 2017	0.0	1.047281664E9	2311.275634765625	0.0	2.5731072E7	0.0	2.0	1.026854912E9	64.98123168945312	0.0	0.0	1.047130112E9	1.037533184E9	0.0	0.0	0.07500000298023224	0.05700000002980232	0.045499999076128006	0.9919999837875366	0.7807817459106445	0.0	244.0	371.0	0.0	0.0	0.0	0.0	0.0	0.0	null	null	null	null	null	null	null	null	332.0	335.0	334.0	336.0	332.0	335.0	332.0	333.0	339.0	338.0	333.0	
Mon Jun 05 23:47:00 UTC 2017	0.0	1.047281664E9	2311.275634765625	0.0	2.5731072E7	0.0	2.0	1.027104768E9	64.98123168945312	0.0	0.0	1.047130112E9	1.03856128E9	0.0	0.0	0.07249999791383743	0.05324999988079071	0.04724999889731407	0.9922500252723694	0.7807695269584656	0.0	244.0	371.0	0.0	0.0	0.0	0.0	0.0	0.0	null	null	null	null	null	null	null	null	340.0	334.0	339.0	336.0	338.0	334.0	336.0	331.0	334.0	336.0	334.0	
Mon Jun 05 23:46:00 UTC 2017	0.0	1.047281664E9	2311.275634765625	0.0	2.5731072E7	0.0	2.0	1.026646016E9	64.98123168945312	0.0	0.0	1.047130112E9	1.03856128E9	0.0	0.0	0.07175000011920929	0.04924999922513962	0.048250000923871994	0.9922500252723694	0.7784679532051086	0.0	244.0	371.0	0.0	0.0	0.0	0.0	0.0	0.0	null	null	null	null	null	null	null	null	334.0	335.0	334.0	336.0	336.0	339.0	333.0	336.0	334.0	332.0	338.0	
Mon Jun 05 23:45:00 UTC 2017	0.0	1.047281664E9	2311.275634765625	0.0	2.5731072E7	0.0	3.0	1.026736128E9	38.637210845947266	0.0	0.0	1.047130112E9	1.03856128E9	0.0	0.0	0.08399999886751175	0.05624999850988388	0.05050000175833702	0.9919999837875366	0.7784802317619324	0.0	244.0	371.0	0.0	0.0	0.0	0.0	0.0	0.0	null	null	null	null	null	null	null	null	336.0	338.0	335.0	333.0	335.0	337.0	335.0	334.0	336.0	340.0	337.0	
Mon Jun 05 23:44:00 UTC 2017	0.0	1.047281664E9	2311.275634765625	0.0	2.5731072E7	0.0	2.0	1.026646016E9	38.637210845947266	0.0	0.0	1.047130112E9	1.03856128E9	0.0	0.0	0.06849999725818634	0.051750000566244125	0.045499999076128006	0.9917500019073486	0.7784610986709595	0.0	244.0	371.0	0.0	0.0	0.0	0.0	0.0	0.0	null	null	null	null	null	null	null	null	335.0	333.0	332.0	335.0	335.0	332.0	334.0	336.0	337.0	333.0	336.0	
Mon Jun 05 23:43:00 UTC 2017	0.0	1.047281664E9	3550.581298828125	0.0	2.5731072E7	0.0	4.0	1.026646016E9	60.85072326660156	0.0	0.0	1.047130112E9	1.03856128E9	0.0	0.0	0.0754999965429306	0.04724999889731407	0.04500000178813934	0.9922500252723694	0.7784577012062073	0.0	244.0	371.0	0.0	0.0	0.0	0.0	0.0	0.0	null	null	null	null	null	null	null	null	332.0	334.0	338.0	334.0	332.0	338.0	341.0	339.0	330.0	334.0	335.0	
Mon Jun 05 23:42:00 UTC 2017	0.0	1.047281664E9	2445.696533203125	0.0	2.5731072E7	0.0	2.0	1.026646016E9	44.2519645690918	0.0	0.0	1.047130112E9	1.037533184E9	0.0	0.0	0.0677499994635582	0.05824999883770943	0.04574999958276749	0.9919999837875366	0.7784513235092163	0.0	244.0	371.0	0.0	0.0	0.0	0.0	0.0	0.0	null	null	null	null	null	null	null	null	339.0	338.0	336.0	333.0	335.0	333.0	332.0	333.0	337.0	334.0	335.0	
Mon Jun 05 23:41:00 UTC 2017	0.0	1.047281664E9	2414.627197265625	0.0	2.5731072E7	0.0	2.0	1.026523136E9	44.2519645690918	0.0	0.0	1.047130112E9	1.037533184E9	0.0	0.0	0.1014999970793724	0.04699999839067459	0.04874999821186066	0.9922500252723694	0.7790433764457703	0.0	244.0	371.0	0.0	0.0	0.0	0.0	0.0	0.0	null	null	null	null	null	null	null	null	334.0	331.0	330.0	333.0	339.0	338.0	338.0	336.0	336.0	341.0	341.0	
Mon Jun 05 23:40:00 UTC 2017	0.0	1.047281664E9	2414.627197265625	0.0	2.5731072E7	0.0	2.0	1.026523136E9	39.66202926635742	0.0	0.0	1.047130112E9	1.037533184E9	0.0	0.0	0.07349999994039536	0.050999999046325684	0.048500001430511475	0.9919999837875366	0.7784116864204407	0.0	244.0	371.0	0.0	0.0	0.0	0.0	0.0	0.0	null	null	null	null	null	null	null	null	333.0	339.0	337.0	334.0	333.0	335.0	332.0	337.0	335.0	337.0	334.0	
Mon Jun 05 23:39:00 UTC 2017	0.0	1.047281664E9	2382.618408203125	0.0	2.5731072E7	0.0	2.0	1.026433024E9	39.66202926635742	0.0	0.0	1.047130112E9	1.037533184E9	0.0	0.0	0.07750000059604645	0.05575000122189522	0.04899999871850014	0.9922500252723694	0.7784048318862915	0.0	244.0	371.0	0.0	0.0	0.0	0.0	0.0	0.0	null	null	null	null	null	null	null	null	332.0	334.0	332.0	335.0	334.0	336.0	333.0	334.0	338.0	335.0	337.0	
Mon Jun 05 23:38:00 UTC 2017	0.0	1.047281664E9	2382.618408203125	0.0	2.5731072E7	0.0	3.0	1.026433024E9	49.76737594604492	0.0	0.0	1.047130112E9	1.03856128E9	0.0	0.0	0.07649999856948853	0.05375000089406967	0.04475000128149986	0.9922500252723694	0.7783887386322021	0.0	244.0	371.0	0.0	0.0	0.0	0.0	0.0	0.0	null	null	null	null	null	null	null	null	338.0	335.0	337.0	334.0	336.0	338.0	336.0	333.0	333.0	336.0	333.0	
Mon Jun 05 23:37:00 UTC 2017	0.0	1.047281664E9	2382.618408203125	0.0	2.5731072E7	0.0	6.0	1.026678784E9	49.76737594604492	0.0	0.0	1.047130112E9	1.03856128E9	0.0	0.0	0.07774999737739563	0.048250000923871994	0.04975000023841858	0.9922500252723694	0.778366208076477	0.0	244.0	371.0	0.0	0.0	0.0	0.0	0.0	0.0	null	null	null	null	null	null	null	null	332.0	336.0	335.0	335.0	337.0	337.0	334.0	337.0	336.0	337.0	334.0	
Mon Jun 05 23:36:00 UTC 2017	0.0	1.047281664E9	3434.631103515625	0.0	2.5731072E7	0.0	2.0	1.026310144E9	49.76737594604492	0.0	0.0	1.047130112E9	1.037533184E9	0.0	0.0	0.07374999672174454	0.05550000071525574	0.04625000059604645	0.9922500252723694	0.7786372900009155	0.0	244.0	371.0	0.0	0.0	0.0	0.0	0.0	0.0	null	null	null	null	null	null	null	null	335.0	332.0	334.0	336.0	335.0	336.0	335.0	338.0	334.0	337.0	339.0	
Mon Jun 05 23:35:00 UTC 2017	0.0	1.047281664E9	3083.7099609375	0.0	2.5731072E7	0.0	6.0	1.026310144E9	47.25849914550781	0.0	0.0	1.047130112E9	1.037533184E9	0.0	0.0	0.07000000029802322	0.04650000110268593	0.045249998569488525	0.9925000071525574	0.7783417701721191	0.0	244.0	371.0	0.0	0.0	0.0	0.0	0.0	0.0	null	null	null	null	null	null	null	null	338.0	336.0	335.0	335.0	336.0	338.0	337.0	335.0	337.0	334.0	336.0	
Mon Jun 05 23:34:00 UTC 2017	0.0	1.047281664E9	3083.7099609375	0.0	2.5731072E7	0.0	2.0	1.026220032E9	47.25849914550781	0.0	0.0	1.047130112E9	1.037533184E9	0.0	0.0	0.07750000059604645	0.054499998688697815	0.05000000074505806	0.9919999837875366	0.7788300514221191	0.0	244.0	371.0	0.0	0.0	0.0	0.0	0.0	0.0	null	null	null	null	null	null	null	null	331.0	335.0	336.0	336.0	335.0	336.0	330.0	335.0	336.0	336.0	333.0	
Mon Jun 05 23:33:00 UTC 2017	0.0	1.047281664E9	3083.7099609375	0.0	2.5731072E7	0.0	4.0	1.026220032E9	47.25849914550781	0.0	0.0	1.047130112E9	1.037533184E9	0.0	0.0	0.06949999928474426	0.05050000175833702	0.04774999991059303	0.9922500252723694	0.7783231735229492	0.0	244.0	371.0	0.0	0.0	0.0	0.0	0.0	0.0	null	null	null	null	null	null	null	null	337.0	338.0	333.0	335.0	335.0	333.0	335.0	337.0	334.0	331.0	336.0	
Mon Jun 05 23:32:00 UTC 2017	0.0	1.047281664E9	3083.7099609375	0.0	2.5731072E7	0.0	2.0	1.026220032E9	39.34599304199219	0.0	0.0	1.047130112E9	1.03856128E9	0.0	0.0	0.07774999737739563	0.05299999937415123	0.041999999433755875	0.9922500252723694	0.7783065438270569	0.0	244.0	371.0	0.0	0.0	0.0	0.0	0.0	0.0	null	null	null	null	null	null	null	null	337.0	339.0	336.0	335.0	335.0	335.0	336.0	337.0	334.0	334.0	335.0	
Mon Jun 05 23:31:00 UTC 2017	0.0	1.047281664E9	3083.7099609375	0.0	2.5731072E7	0.0	2.0	1.026101248E9	58.86362838745117	0.0	0.0	1.047130112E9	1.037533184E9	0.0	0.0	0.11299999803304672	0.048250000923871994	0.048500001430511475	0.9919999837875366	0.7782922983169556	0.0	244.0	371.0	0.0	0.0	0.0	0.0	0.0	0.0	null	null	null	null	null	null	null	null	334.0	335.0	336.0	335.0	335.0	336.0	335.0	333.0	335.0	334.0	336.0	
Mon Jun 05 23:30:00 UTC 2017	0.0	1.047281664E9	3083.7099609375	0.0	2.5731072E7	0.0	2.0	1.026101248E9	56.53363037109375	0.0	0.0	1.047130112E9	1.037533184E9	0.0	null	0.06650000065565109	0.0560000017285347	0.05050000175833702	0.9922500252723694	0.7782977223396301	0.0	244.0	371.0	0.0	0.0	0.0	0.0	0.0	0.0	null	null	null	null	null	null	null	null	334.0	334.0	337.0	338.0	335.0	336.0	336.0	337.0	336.0	333.0	336.0	
Mon Jun 05 23:29:00 UTC 2017	0.0	1.047281664E9	3083.7099609375	0.0	2.5731072E7	0.0	2.0	1.026011136E9	43.99837875366211	0.0	0.0	1.047130112E9	1.03856128E9	0.0	null	0.08224999904632568	0.04774999991059303	0.04475000128149986	0.9922500252723694	0.7782756686210632	0.0	244.0	371.0	0.0	0.0	0.0	0.0	0.0	0.0	null	null	null	null	null	null	null	null	337.0	336.0	332.0	334.0	335.0	334.0	335.0	336.0	332.0	336.0	339.0	
Mon Jun 05 23:28:00 UTC 2017	0.0	1.047281664E9	2850.114501953125	0.0	2.5731072E7	0.0	2.0	1.026011136E9	43.99837875366211	0.0	0.0	1.047130112E9	1.037533184E9	0.0	null	0.0702499970793724	0.054249998182058334	0.04874999821186066	0.9919999837875366	0.778240442276001	0.0	244.0	371.0	0.0	0.0	0.0	0.0	0.0	0.0	null	null	null	null	null	null	null	null	336.0	337.0	338.0	335.0	334.0	336.0	337.0	335.0	337.0	332.0	338.0	
Mon Jun 05 23:27:00 UTC 2017	0.0	1.047281664E9	2850.114501953125	0.0	2.5731072E7	0.0	5.0	1.026011136E9	42.361183166503906	0.0	0.0	1.047130112E9	1.03856128E9	0.0	0.0	0.07975000143051147	0.04800000041723251	0.04475000128149986	0.9922500252723694	0.7805126309394836	0.0	244.0	371.0	0.0	0.0	0.0	0.0	0.0	0.0	null	null	null	null	null	null	null	null	335.0	336.0	332.0	334.0	337.0	336.0	336.0	336.0	334.0	336.0	334.0	
Mon Jun 05 23:26:00 UTC 2017	0.0	1.047281664E9	2850.114501953125	0.0	2.5731072E7	0.0	2.0	1.02588416E9	42.361183166503906	0.0	0.0	1.047130112E9	1.037533184E9	0.0	null	0.06724999845027924	0.052000001072883606	0.048500001430511475	0.9919999837875366	0.7781768441200256	0.0	244.0	371.0	0.0	0.0	0.0	0.0	0.0	0.0	null	null	null	null	null	null	null	null	332.0	332.0	336.0	337.0	336.0	333.0	336.0	335.0	335.0	333.0	341.0	
Mon Jun 05 23:25:00 UTC 2017	0.0	1.047281664E9	2753.429931640625	0.0	2.5731072E7	0.0	2.0	1.02588416E9	42.361183166503906	0.0	0.0	1.047130112E9	1.037533184E9	0.0	null	0.07874999940395355	0.054499998688697815	0.04574999958276749	0.9917500019073486	0.778222382068634	0.0	244.0	371.0	0.0	0.0	0.0	0.0	0.0	0.0	null	null	null	null	null	null	null	null	339.0	336.0	334.0	338.0	334.0	336.0	334.0	336.0	335.0	339.0	335.0	
Mon Jun 05 23:24:00 UTC 2017	0.0	1.047281664E9	3056.8095703125	0.0	2.5731072E7	0.0	2.0	1.025794048E9	39.61845016479492	0.0	0.0	1.047130112E9	1.03856128E9	0.0	null	0.07599999755620956	0.0507499985396862	0.04774999991059303	0.9915000200271606	0.7782169580459595	0.0	244.0	371.0	0.0	0.0	0.0	0.0	0.0	0.0	null	null	null	null	null	null	null	null	335.0	335.0	339.0	335.0	336.0	335.0	336.0	332.0	336.0	333.0	336.0	
Mon Jun 05 23:23:00 UTC 2017	0.0	1.047281664E9	3056.8095703125	0.0	2.5731072E7	0.0	2.0	1.025794048E9	59.76902389526367	0.0	0.0	1.047130112E9	1.037533184E9	0.0	null	0.07474999874830246	0.0560000017285347	0.04574999958276749	0.9919999837875366	0.7781881093978882	0.0	244.0	371.0	0.0	0.0	0.0	0.0	0.0	0.0	null	null	null	null	null	null	null	null	332.0	335.0	332.0	332.0	336.0	333.0	337.0	337.0	332.0	335.0	334.0	
Mon Jun 05 23:22:00 UTC 2017	0.0	1.047281664E9	2361.315673828125	0.0	2.5731072E7	0.0	2.0	1.026039808E9	50.94879150390625	0.0	0.0	1.047130112E9	1.03856128E9	0.0	0.0	0.07275000214576721	0.051750000566244125	0.04600000008940697	0.9922500252723694	0.7791495323181152	0.0	244.0	371.0	0.0	0.0	0.0	0.0	0.0	0.0	null	null	null	null	null	null	null	null	339.0	335.0	336.0	340.0	336.0	335.0	333.0	334.0	336.0	336.0	336.0	
Mon Jun 05 23:21:00 UTC 2017	0.0	1.047281664E9	2867.99951171875	0.0	2.5731072E7	0.0	4.0	1.025581056E9	56.27806854248047	0.0	0.0	1.047130112E9	1.037533184E9	0.0	0.0	0.11599999666213989	0.04975000023841858	0.04774999991059303	0.9919999837875366	0.7787933349609375	0.0	244.0	371.0	0.0	0.0	0.0	0.0	0.0	0.0	null	null	null	null	null	null	null	null	332.0	337.0	337.0	333.0	335.0	340.0	338.0	338.0	336.0	335.0	332.0	
Mon Jun 05 23:20:00 UTC 2017	0.0	1.047281664E9	2867.99951171875	0.0	2.5731072E7	0.0	2.0	1.025671168E9	50.61143493652344	0.0	0.0	1.047130112E9	1.037533184E9	0.0	0.0	0.07000000029802322	0.04800000041723251	0.0494999997317791	0.9922500252723694	0.7804406881332397	0.0	244.0	371.0	0.0	0.0	0.0	0.0	0.0	0.0	null	null	null	null	null	null	null	null	335.0	336.0	337.0	337.0	334.0	336.0	337.0	336.0	338.0	334.0	333.0	
Mon Jun 05 23:19:00 UTC 2017	0.0	1.047281664E9	3104.41796875	0.0	2.5731072E7	0.0	3.0	1.025581056E9	50.61143493652344	0.0	0.0	1.047130112E9	1.03856128E9	0.0	0.0	0.07000000029802322	0.0560000017285347	0.04475000128149986	0.9919999837875366	0.7781333327293396	0.0	244.0	371.0	0.0	0.0	0.0	0.0	0.0	0.0	null	null	null	null	null	null	null	null	335.0	339.0	334.0	335.0	336.0	333.0	339.0	334.0	334.0	331.0	333.0	
Mon Jun 05 23:18:00 UTC 2017	0.0	1.047281664E9	3104.41796875	0.0	2.5731072E7	0.0	2.0	1.025581056E9	48.40330123901367	0.0	0.0	1.047130112E9	1.03856128E9	0.0	0.0	0.07874999940395355	0.05324999988079071	0.04800000041723251	0.9922500252723694	0.780420184135437	0.0	244.0	371.0	0.0	0.0	0.0	0.0	0.0	0.0	null	null	null	null	null	null	null	null	338.0	335.0	335.0	334.0	334.0	340.0	332.0	336.0	334.0	335.0	336.0	
Mon Jun 05 23:17:00 UTC 2017	0.0	1.047281664E9	2781.828125	0.0	2.5731072E7	0.0	2.0	1.025581056E9	52.98527908325195	0.0	0.0	1.047130112E9	1.03856128E9	0.0	null	0.0742499977350235	0.0507499985396862	0.05000000074505806	0.9917500019073486	0.7781186103820801	0.0	244.0	371.0	0.0	0.0	0.0	0.0	0.0	0.0	null	null	null	null	null	null	null	null	337.0	335.0	334.0	334.0	335.0	334.0	336.0	333.0	334.0	336.0	337.0	
Mon Jun 05 23:16:00 UTC 2017	0.0	1.047281664E9	2781.828125	0.0	2.5731072E7	0.0	2.0	1.02537216E9	52.98527908325195	0.0	0.0	1.047130112E9	1.037533184E9	0.0	null	0.07249999791383743	0.04600000008940697	0.04650000110268593	0.9919999837875366	0.7799661159515381	0.0	244.0	371.0	0.0	0.0	0.0	0.0	0.0	0.0	null	null	null	null	null	null	null	null	338.0	335.0	335.0	337.0	335.0	336.0	335.0	337.0	339.0	336.0	334.0	
Mon Jun 05 23:15:00 UTC 2017	0.0	1.047281664E9	2537.4873046875	0.0	2.5731072E7	0.0	2.0	1.025462272E9	52.98527908325195	0.0	0.0	1.047130112E9	1.03856128E9	0.0	0.0	0.0742499977350235	0.054999999701976776	0.04500000178813934	0.9919999837875366	0.778663694858551	0.0	244.0	371.0	0.0	0.0	0.0	0.0	0.0	0.0	null	null	null	null	null	null	null	null	335.0	334.0	340.0	333.0	336.0	337.0	340.0	336.0	337.0	336.0	332.0	
Mon Jun 05 23:14:00 UTC 2017	0.0	1.047281664E9	2537.4873046875	0.0	2.5731072E7	0.0	2.0	1.02537216E9	67.5881576538086	0.0	0.0	1.047130112E9	1.037533184E9	0.0	0.0	0.07750000059604645	0.05225000157952309	0.0442500002682209	0.9925000071525574	0.7789146900177002	0.0	244.0	371.0	0.0	0.0	0.0	0.0	0.0	0.0	null	null	null	null	null	null	null	null	333.0	338.0	335.0	334.0	333.0	333.0	336.0	335.0	334.0	333.0	340.0	
Mon Jun 05 23:13:00 UTC 2017	0.0	1.047281664E9	2920.36083984375	0.0	2.5731072E7	0.0	2.0	1.02537216E9	67.5881576538086	0.0	0.0	1.047130112E9	1.037533184E9	0.0	0.0	0.07050000131130219	0.04874999821186066	0.04749999940395355	0.9919999837875366	0.7779924273490906	0.0	244.0	371.0	0.0	0.0	0.0	0.0	0.0	0.0	null	null	null	null	null	null	null	null	335.0	338.0	334.0	336.0	339.0	335.0	333.0	332.0	339.0	335.0	335.0	
Mon Jun 05 23:12:00 UTC 2017	0.0	1.047281664E9	2920.36083984375	0.0	2.5731072E7	0.0	3.0	1.025568768E9	67.5881576538086	0.0	0.0	1.047130112E9	1.03856128E9	0.0	0.0	0.07575000077486038	0.05700000002980232	0.04800000041723251	0.9922500252723694	0.7779909372329712	0.0	244.0	371.0	0.0	0.0	0.0	0.0	0.0	0.0	null	null	null	null	null	null	null	null	335.0	332.0	336.0	337.0	332.0	337.0	337.0	339.0	335.0	337.0	332.0	
Mon Jun 05 23:11:00 UTC 2017	0.0	1.047281664E9	2742.874755859375	0.0	2.5731072E7	0.0	2.0	1.025159168E9	67.5881576538086	0.0	0.0	1.047130112E9	1.03856128E9	0.0	0.0	0.09175000339746475	0.05025000125169754	0.0507499985396862	0.9925000071525574	0.7802611589431763	0.0	244.0	371.0	0.0	0.0	0.0	0.0	0.0	0.0	null	null	null	null	null	null	null	null	337.0	338.0	335.0	337.0	333.0	335.0	339.0	333.0	337.0	336.0	335.0	
Mon Jun 05 23:10:00 UTC 2017	0.0	1.047281664E9	2742.874755859375	0.0	2.5731072E7	0.0	7.0	1.025511424E9	58.0608024597168	0.0	0.0	1.047130112E9	1.03856128E9	0.0	null	0.07575000077486038	0.05299999937415123	0.04475000128149986	0.9922500252723694	0.7779258489608765	0.0	244.0	371.0	0.0	0.0	0.0	0.0	0.0	0.0	null	null	null	null	null	null	null	null	335.0	336.0	336.0	335.0	333.0	339.0	335.0	336.0	336.0	338.0	334.0	
Mon Jun 05 23:09:00 UTC 2017	0.0	1.047281664E9	2742.874755859375	0.0	2.5731072E7	0.0	2.0	1.025306624E9	69.59022521972656	0.0	0.0	1.047130112E9	1.037533184E9	0.0	null	0.07625000178813934	0.051249999552965164	0.050999999046325684	0.9922500252723694	0.7779410481452942	0.0	244.0	371.0	0.0	0.0	0.0	0.0	0.0	0.0	null	null	null	null	null	null	null	null	335.0	335.0	334.0	336.0	335.0	334.0	334.0	336.0	336.0	337.0	338.0	
Mon Jun 05 23:08:00 UTC 2017	0.0	1.047281664E9	2720.9072265625	0.0	2.5731072E7	0.0	2.0	1.025306624E9	69.59022521972656	0.0	0.0	1.047130112E9	1.037533184E9	0.0	null	0.07199999690055847	0.04749999940395355	0.03974999859929085	0.9922500252723694	0.7779273390769958	0.0	244.0	371.0	0.0	0.0	0.0	0.0	0.0	0.0	null	null	null	null	null	null	null	null	337.0	333.0	335.0	335.0	336.0	332.0	334.0	336.0	339.0	335.0	333.0	
Mon Jun 05 23:07:00 UTC 2017	0.0	1.047281664E9	2720.9072265625	0.0	2.5731072E7	0.0	3.0	1.025552384E9	69.59022521972656	0.0	0.0	1.047130112E9	1.03856128E9	0.0	0.0	0.07824999839067459	0.054999999701976776	0.05000000074505806	0.9922500252723694	0.7779072523117065	0.0	244.0	371.0	0.0	0.0	0.0	0.0	0.0	0.0	null	null	null	null	null	null	null	null	333.0	334.0	338.0	335.0	334.0	334.0	339.0	335.0	335.0	335.0	334.0	
Mon Jun 05 23:06:00 UTC 2017	0.0	1.047281664E9	2720.9072265625	0.0	2.5731072E7	0.0	2.0	1.025093632E9	69.59022521972656	0.0	0.0	1.047130112E9	1.037533184E9	0.0	0.0	0.07649999856948853	0.0507499985396862	0.04625000059604645	0.9917500019073486	0.7779082655906677	0.0	244.0	371.0	0.0	0.0	0.0	0.0	0.0	0.0	null	null	null	null	null	null	null	null	335.0	337.0	331.0	337.0	336.0	338.0	332.0	333.0	338.0	335.0	335.0	
Mon Jun 05 23:05:00 UTC 2017	0.0	1.047281664E9	2720.9072265625	0.0	2.5731072E7	0.0	2.0	1.025183744E9	56.21852111816406	0.0	0.0	1.047130112E9	1.037533184E9	0.0	0.0	0.06674999743700027	0.05050000175833702	0.048500001430511475	0.9922500252723694	0.7778255343437195	0.0	244.0	371.0	0.0	0.0	0.0	0.0	0.0	0.0	null	null	null	null	null	null	null	null	336.0	336.0	336.0	336.0	333.0	335.0	336.0	337.0	335.0	337.0	337.0	
Mon Jun 05 23:04:00 UTC 2017	0.0	1.047281664E9	2720.9072265625	0.0	2.5731072E7	0.0	6.0	1.025093632E9	56.21852111816406	0.0	0.0	1.047130112E9	1.037533184E9	0.0	0.0	0.0767500028014183	0.05674999952316284	0.051249999552965164	0.9922500252723694	0.7778465747833252	0.0	244.0	371.0	0.0	0.0	0.0	0.0	0.0	0.0	null	null	null	null	null	null	null	null	337.0	337.0	335.0	334.0	330.0	333.0	334.0	337.0	336.0	336.0	333.0	
Mon Jun 05 23:03:00 UTC 2017	0.0	1.047281664E9	2720.765625	0.0	2.5731072E7	0.0	2.0	1.025159168E9	56.21852111816406	0.0	0.0	1.047130112E9	1.037533184E9	0.0	null	0.06975000351667404	0.04774999991059303	0.05050000175833702	0.9919999837875366	0.7778314352035522	0.0	244.0	371.0	0.0	0.0	0.0	0.0	0.0	0.0	null	null	null	null	null	null	null	null	336.0	334.0	334.0	338.0	335.0	332.0	335.0	331.0	333.0	334.0	334.0	
Mon Jun 05 23:02:00 UTC 2017	0.0	1.047281664E9	2720.765625	0.0	2.5731072E7	0.0	5.0	1.025159168E9	64.11538696289062	0.0	0.0	1.047130112E9	1.03856128E9	0.0	0.0	0.08425000309944153	0.05550000071525574	0.04975000023841858	0.9922500252723694	0.7778299450874329	0.0	244.0	371.0	0.0	0.0	0.0	0.0	0.0	0.0	null	null	null	null	null	null	null	null	336.0	337.0	336.0	337.0	335.0	337.0	337.0	336.0	334.0	337.0	335.0	
Mon Jun 05 23:01:00 UTC 2017	0.0	1.047281664E9	2901.68212890625	0.0	2.5731072E7	0.0	2.0	1.025036288E9	46.998355865478516	0.0	0.0	1.047130112E9	1.037533184E9	0.0	0.0	0.09775000065565109	0.05674999952316284	0.051249999552965164	0.9919999837875366	0.7778123617172241	0.0	244.0	371.0	0.0	0.0	0.0	0.0	0.0	0.0	null	null	null	null	null	null	null	null	333.0	335.0	336.0	331.0	336.0	334.0	335.0	334.0	337.0	332.0	336.0	
Mon Jun 05 23:00:00 UTC 2017	0.0	1.047281664E9	2901.68212890625	0.0	2.5731072E7	0.0	5.0	1.025036288E9	56.31892395019531	0.0	0.0	1.047130112E9	1.03856128E9	0.0	0.0	0.06724999845027924	0.05050000175833702	0.04749999940395355	0.9919999837875366	0.7778137922286987	0.0	244.0	371.0	0.0	0.0	0.0	0.0	0.0	0.0	null	null	null	null	null	null	null	null	337.0	336.0	332.0	336.0	330.0	336.0	337.0	335.0	334.0	338.0	337.0	
Mon Jun 05 22:59:00 UTC 2017	0.0	1.047281664E9	2901.68212890625	0.0	2.5731072E7	0.0	2.0	1.024946176E9	64.34740447998047	0.0	0.0	1.047130112E9	1.03856128E9	0.0	null	0.0832500010728836	0.04600000008940697	0.05050000175833702	0.9919999837875366	0.7777780890464783	0.0	244.0	371.0	0.0	0.0	0.0	0.0	0.0	0.0	null	null	null	null	null	null	null	null	335.0	337.0	338.0	336.0	336.0	334.0	334.0	337.0	336.0	331.0	335.0	
Mon Jun 05 22:58:00 UTC 2017	0.0	1.047281664E9	2901.68212890625	0.0	2.5731072E7	0.0	2.0	1.024946176E9	57.246429443359375	0.0	0.0	1.047130112E9	1.037533184E9	0.0	null	0.07450000196695328	0.05674999952316284	0.051750000566244125	0.9919999837875366	0.7777683138847351	0.0	244.0	371.0	0.0	0.0	0.0	0.0	0.0	0.0	null	null	null	null	null	null	null	null	334.0	333.0	336.0	335.0	335.0	335.0	334.0	336.0	334.0	334.0	335.0	
Mon Jun 05 22:57:00 UTC 2017	0.0	1.047281664E9	2901.68212890625	0.0	2.5731072E7	0.0	3.0	1.025196032E9	44.188438415527344	0.0	0.0	1.047130112E9	1.03856128E9	0.0	null	0.06624999642372131	0.05249999836087227	0.048250000923871994	0.9922500252723694	0.7777516841888428	0.0	244.0	371.0	0.0	0.0	0.0	0.0	0.0	0.0	null	null	null	null	null	null	null	null	336.0	336.0	335.0	336.0	335.0	335.0	336.0	334.0	337.0	336.0	333.0	
Mon Jun 05 22:56:00 UTC 2017	0.0	1.047281664E9	2901.68212890625	0.0	2.5731072E7	0.0	2.0	1.02473728E9	54.01224899291992	0.0	0.0	1.047130112E9	1.037533184E9	0.0	null	0.07249999791383743	0.05225000157952309	0.04749999940395355	0.9919999837875366	0.7777507305145264	0.0	244.0	371.0	0.0	0.0	0.0	0.0	0.0	0.0	null	null	null	null	null	null	null	null	336.0	337.0	336.0	331.0	336.0	337.0	333.0	334.0	333.0	336.0	337.0	
Mon Jun 05 22:55:00 UTC 2017	0.0	1.047281664E9	2815.5732421875	0.0	2.5731072E7	0.0	2.0	1.024823296E9	54.01224899291992	0.0	0.0	1.047130112E9	1.03856128E9	0.0	0.0	0.07500000298023224	0.04874999821186066	0.04450000077486038	0.9919999837875366	0.7777330875396729	0.0	244.0	371.0	0.0	0.0	0.0	0.0	0.0	0.0	null	null	null	null	null	null	null	null	332.0	336.0	335.0	337.0	337.0	337.0	337.0	335.0	337.0	337.0	335.0	
Mon Jun 05 22:54:00 UTC 2017	0.0	1.047281664E9	2465.675537109375	0.0	2.5731072E7	0.0	2.0	1.024733184E9	54.01224899291992	0.0	0.0	1.047130112E9	1.037533184E9	0.0	0.0	0.08425000309944153	0.054749999195337296	0.051750000566244125	0.9922500252723694	0.7776807546615601	0.0	244.0	371.0	0.0	0.0	0.0	0.0	0.0	0.0	null	null	null	null	null	null	null	null	339.0	337.0	333.0	336.0	332.0	333.0	335.0	335.0	336.0	335.0	338.0	
Mon Jun 05 22:53:00 UTC 2017	0.0	1.047281664E9	2465.675537109375	0.0	2.5731072E7	0.0	2.0	1.024733184E9	54.01224899291992	0.0	0.0	1.047130112E9	1.037533184E9	0.0	0.0	0.0677499994635582	0.04500000178813934	0.04450000077486038	0.9922500252723694	0.7788246273994446	0.0	244.0	371.0	0.0	0.0	0.0	0.0	0.0	0.0	null	null	null	null	null	null	null	null	333.0	335.0	338.0	333.0	339.0	333.0	336.0	333.0	335.0	335.0	336.0	
Mon Jun 05 22:52:00 UTC 2017	0.0	1.047281664E9	2371.1318359375	0.0	2.5731072E7	0.0	2.0	1.024524288E9	50.211700439453125	0.0	0.0	1.047130112E9	1.03856128E9	0.0	0.0	0.0754999965429306	0.05900000035762787	0.052000001072883606	0.9922500252723694	0.7776758670806885	0.0	244.0	371.0	0.0	0.0	0.0	0.0	0.0	0.0	null	null	null	null	null	null	null	null	333.0	336.0	338.0	334.0	333.0	339.0	336.0	337.0	335.0	339.0	334.0	
Mon Jun 05 22:51:00 UTC 2017	0.0	1.047281664E9	2371.1318359375	0.0	2.5731072E7	0.0	2.0	1.024524288E9	80.76490020751953	0.0	0.0	1.047130112E9	1.03856128E9	0.0	0.0	0.1002499982714653	0.0507499985396862	0.04349999874830246	0.9919999837875366	0.777652382850647	0.0	244.0	371.0	0.0	0.0	0.0	0.0	0.0	0.0	null	null	null	null	null	null	null	null	339.0	334.0	334.0	337.0	339.0	334.0	335.0	336.0	332.0	332.0	335.0	
Mon Jun 05 22:50:00 UTC 2017	0.0	1.047281664E9	3420.021240234375	0.0	2.5731072E7	0.0	5.0	1.0246144E9	80.76490020751953	0.0	0.0	1.047130112E9	1.037533184E9	0.0	0.0	0.0689999982714653	0.051500000059604645	0.048250000923871994	0.9917500019073486	0.7776376605033875	0.0	244.0	371.0	0.0	0.0	0.0	0.0	0.0	0.0	null	null	null	null	null	null	null	null	333.0	335.0	337.0	334.0	335.0	333.0	336.0	334.0	337.0	338.0	333.0	
Mon Jun 05 22:49:00 UTC 2017	0.0	1.047281664E9	2420.2880859375	0.0	2.5731072E7	0.0	2.0	1.024524288E9	80.76490020751953	0.0	0.0	1.047130112E9	1.037533184E9	0.0	0.0	0.07975000143051147	0.054999999701976776	0.048500001430511475	0.9919999837875366	0.7776185870170593	0.0	244.0	371.0	0.0	0.0	0.0	0.0	0.0	0.0	null	null	null	null	null	null	null	null	334.0	336.0	336.0	335.0	334.0	338.0	335.0	334.0	335.0	337.0	333.0	
Mon Jun 05 22:48:00 UTC 2017	0.0	1.047281664E9	2420.2880859375	0.0	2.5731072E7	0.0	4.0	1.024524288E9	39.733734130859375	0.0	0.0	1.047130112E9	1.03856128E9	0.0	0.0	0.0689999982714653	0.04450000077486038	0.04600000008940697	0.9922500252723694	0.7798555493354797	0.0	244.0	371.0	0.0	0.0	0.0	0.0	0.0	0.0	null	null	null	null	null	null	null	null	335.0	338.0	335.0	334.0	335.0	334.0	335.0	337.0	332.0	332.0	340.0	
Mon Jun 05 22:47:00 UTC 2017	0.0	1.047281664E9	2420.2880859375	0.0	2.5731072E7	0.0	2.0	1.024311296E9	39.733734130859375	0.0	0.0	1.047130112E9	1.03856128E9	0.0	0.0	0.07724999636411667	0.05525000020861626	0.05025000125169754	0.9922500252723694	0.7775706648826599	0.0	244.0	371.0	0.0	0.0	0.0	0.0	0.0	0.0	null	null	null	null	null	null	null	null	336.0	334.0	337.0	334.0	335.0	336.0	333.0	339.0	336.0	335.0	331.0	
Mon Jun 05 22:46:00 UTC 2017	0.0	1.047281664E9	2420.2880859375	0.0	2.5731072E7	0.0	2.0	1.024311296E9	55.54734420776367	0.0	0.0	1.047130112E9	1.037533184E9	0.0	0.0	0.07925000041723251	0.05350000038743019	0.04699999839067459	0.9919999837875366	0.7774938344955444	0.0	244.0	371.0	0.0	0.0	0.0	0.0	0.0	0.0	null	null	null	null	null	null	null	null	336.0	334.0	333.0	338.0	337.0	336.0	336.0	336.0	332.0	340.0	339.0	
Mon Jun 05 22:45:00 UTC 2017	0.0	1.047281664E9	2758.076416015625	0.0	2.5731072E7	0.0	2.0	1.024405504E9	55.54734420776367	0.0	0.0	1.047130112E9	1.03856128E9	0.0	0.0	0.07000000029802322	0.051750000566244125	0.04800000041723251	0.9922500252723694	0.7774703502655029	0.0	244.0	371.0	0.0	0.0	0.0	0.0	0.0	0.0	null	null	null	null	null	null	null	null	331.0	339.0	335.0	332.0	335.0	334.0	338.0	332.0	334.0	337.0	332.0	
Mon Jun 05 22:44:00 UTC 2017	0.0	1.047281664E9	2592.771240234375	0.0	2.5731072E7	0.0	2.0	1.024315392E9	54.64430236816406	0.0	0.0	1.047130112E9	1.03856128E9	0.0	null	0.08399999886751175	0.05225000157952309	0.04899999871850014	0.9922500252723694	0.7785139679908752	0.0	244.0	371.0	0.0	0.0	0.0	0.0	0.0	0.0	null	null	null	null	null	null	null	null	336.0	336.0	336.0	338.0	340.0	338.0	335.0	336.0	336.0	337.0	339.0	
Mon Jun 05 22:43:00 UTC 2017	0.0	1.047281664E9	2592.771240234375	0.0	2.5731072E7	0.0	2.0	1.024315392E9	41.19154739379883	0.0	0.0	1.047130112E9	1.037533184E9	0.0	0.0	0.06875000149011612	0.048500001430511475	0.051750000566244125	0.9922500252723694	0.7797396183013916	0.0	244.0	371.0	0.0	0.0	0.0	0.0	0.0	0.0	null	null	null	null	null	null	null	null	332.0	333.0	335.0	334.0	333.0	336.0	336.0	338.0	334.0	334.0	333.0	
Mon Jun 05 22:42:00 UTC 2017	0.0	1.047281664E9	2592.771240234375	0.0	2.5731072E7	0.0	3.0	1.024561152E9	41.19154739379883	0.0	0.0	1.047130112E9	1.03856128E9	0.0	0.0	0.07500000298023224	0.050999999046325684	0.04450000077486038	0.9925000071525574	0.7774972915649414	0.0	244.0	371.0	0.0	0.0	0.0	0.0	0.0	0.0	null	null	null	null	null	null	null	null	336.0	335.0	338.0	333.0	336.0	334.0	335.0	333.0	339.0	335.0	334.0	
Mon Jun 05 22:41:00 UTC 2017	0.0	1.047281664E9	2592.771240234375	0.0	2.5731072E7	0.0	3.0	1.0241024E9	41.19154739379883	0.0	0.0	1.047130112E9	1.037533184E9	0.0	0.0	0.1080000028014183	0.05225000157952309	0.04800000041723251	0.9922500252723694	0.7774962782859802	0.0	244.0	371.0	0.0	0.0	0.0	0.0	0.0	0.0	null	null	null	null	null	null	null	null	337.0	336.0	336.0	339.0	334.0	334.0	333.0	336.0	336.0	336.0	336.0	
Mon Jun 05 22:40:00 UTC 2017	0.0	1.047281664E9	2592.771240234375	0.0	2.5731072E7	0.0	2.0	1.024192512E9	41.19154739379883	0.0	0.0	1.047130112E9	1.037533184E9	0.0	0.0	0.07750000059604645	0.05550000071525574	0.05000000074505806	0.9922500252723694	0.7774850130081177	0.0	244.0	371.0	0.0	0.0	0.0	0.0	0.0	0.0	null	null	null	null	null	null	null	null	337.0	336.0	332.0	335.0	339.0	338.0	338.0	339.0	338.0	333.0	335.0	
Mon Jun 05 22:39:00 UTC 2017	0.0	1.047281664E9	2592.771240234375	0.0	2.5731072E7	0.0	2.0	1.0241024E9	43.92353057861328	0.0	0.0	1.047130112E9	1.037533184E9	0.0	0.0	0.0754999965429306	0.054249998182058334	0.04399999976158142	0.9922500252723694	0.7797572016716003	0.0	244.0	371.0	0.0	0.0	0.0	0.0	0.0	0.0	null	null	null	null	null	null	null	null	332.0	336.0	337.0	337.0	334.0	333.0	334.0	332.0	331.0	337.0	336.0	
Mon Jun 05 22:38:00 UTC 2017	0.0	1.047281664E9	2730.5234375	0.0	2.5731072E7	0.0	2.0	1.0241024E9	43.92353057861328	0.0	0.0	1.047130112E9	1.03856128E9	0.0	0.0	0.07374999672174454	0.05050000175833702	0.04600000008940697	0.9927499890327454	0.7781347632408142	0.0	244.0	371.0	0.0	0.0	0.0	0.0	0.0	0.0	null	null	null	null	null	null	null	null	335.0	335.0	334.0	334.0	340.0	335.0	334.0	336.0	336.0	338.0	334.0	
Mon Jun 05 22:37:00 UTC 2017	0.0	1.047281664E9	2730.5234375	0.0	2.5731072E7	0.0	4.0	1.024352256E9	32.98792266845703	0.0	0.0	1.047130112E9	1.03856128E9	0.0	0.0	0.0754999965429306	0.048500001430511475	0.05025000125169754	0.9917500019073486	0.7774630188941956	0.0	244.0	371.0	0.0	0.0	0.0	0.0	0.0	0.0	null	null	null	null	null	null	null	null	335.0	335.0	335.0	333.0	333.0	334.0	336.0	335.0	339.0	334.0	338.0	
Mon Jun 05 22:36:00 UTC 2017	0.0	1.047281664E9	3027.58349609375	0.0	2.5731072E7	0.0	2.0	1.023889408E9	32.98792266845703	0.0	0.0	1.047130112E9	1.037533184E9	0.0	0.0	0.07225000113248825	0.05400000140070915	0.045499999076128006	0.9922500252723694	0.7797239422798157	0.0	244.0	371.0	0.0	0.0	0.0	0.0	0.0	0.0	null	null	null	null	null	null	null	null	335.0	338.0	334.0	337.0	336.0	334.0	336.0	335.0	336.0	334.0	337.0	
Mon Jun 05 22:35:00 UTC 2017	0.0	1.047281664E9	3027.58349609375	0.0	2.5731072E7	0.0	2.0	1.02397952E9	57.542579650878906	0.0	0.0	1.047130112E9	1.037533184E9	0.0	0.0	0.07575000077486038	0.05400000140070915	0.04924999922513962	0.9919999837875366	0.7797175645828247	0.0	244.0	371.0	0.0	0.0	0.0	0.0	0.0	0.0	null	null	null	null	null	null	null	null	335.0	335.0	337.0	333.0	335.0	335.0	333.0	333.0	333.0	334.0	336.0	
Mon Jun 05 22:34:00 UTC 2017	0.0	1.047281664E9	2555.078369140625	0.0	2.5731072E7	0.0	2.0	1.023889408E9	57.542579650878906	0.0	0.0	1.047130112E9	1.037533184E9	0.0	null	0.07625000178813934	0.048500001430511475	0.051500000059604645	0.9917500019073486	0.7774096727371216	0.0	244.0	371.0	0.0	0.0	0.0	0.0	0.0	0.0	null	null	null	null	null	null	null	null	336.0	333.0	335.0	337.0	336.0	334.0	335.0	336.0	337.0	336.0	338.0	
Mon Jun 05 22:33:00 UTC 2017	0.0	1.047281664E9	3236.150390625	0.0	2.5731072E7	0.0	2.0	1.023889408E9	57.542579650878906	0.0	0.0	1.047130112E9	1.03856128E9	0.0	null	0.06400000303983688	0.04924999922513962	0.04450000077486038	0.9919999837875366	0.7773998975753784	0.0	244.0	371.0	0.0	0.0	0.0	0.0	0.0	0.0	null	null	null	null	null	null	null	null	336.0	337.0	334.0	336.0	337.0	335.0	334.0	336.0	335.0	332.0	339.0	
Mon Jun 05 22:32:00 UTC 2017	0.0	1.047281664E9	3236.150390625	0.0	2.5731072E7	0.0	3.0	1.023889408E9	57.542579650878906	0.0	0.0	1.047130112E9	1.037533184E9	0.0	0.0	0.07699999958276749	0.05700000002980232	0.04625000059604645	0.9919999837875366	0.777398407459259	0.0	244.0	371.0	0.0	0.0	0.0	0.0	0.0	0.0	null	null	null	null	null	null	null	null	335.0	332.0	337.0	338.0	332.0	330.0	335.0	331.0	337.0	334.0	333.0	
Mon Jun 05 22:31:00 UTC 2017	0.0	1.047281664E9	3236.150390625	0.0	2.5731072E7	0.0	2.0	1.023676416E9	57.542579650878906	0.0	0.0	1.047130112E9	1.03856128E9	0.0	0.0	0.0989999994635582	0.0507499985396862	0.04924999922513962	0.9925000071525574	0.7773553729057312	0.0	244.0	371.0	0.0	0.0	0.0	0.0	0.0	0.0	null	null	null	null	null	null	null	null	334.0	337.0	336.0	335.0	335.0	337.0	333.0	335.0	336.0	335.0	334.0	
Mon Jun 05 22:30:00 UTC 2017	0.0	1.047281664E9	3236.150390625	0.0	2.5731072E7	0.0	4.0	1.023766528E9	57.542579650878906	0.0	0.0	1.047130112E9	1.03856128E9	0.0	null	0.07349999994039536	0.0507499985396862	0.04724999889731407	0.9922500252723694	0.7773382663726807	0.0	244.0	371.0	0.0	0.0	0.0	0.0	0.0	0.0	null	null	null	null	null	null	null	null	337.0	338.0	337.0	337.0	339.0	334.0	338.0	338.0	331.0	337.0	335.0	
Mon Jun 05 22:29:00 UTC 2017	0.0	1.047281664E9	2538.5859375	0.0	2.5731072E7	0.0	2.0	1.023676416E9	51.706878662109375	0.0	0.0	1.047130112E9	1.03856128E9	0.0	null	0.07524999976158142	0.05274999886751175	0.051500000059604645	0.9922500252723694	0.7796074748039246	0.0	244.0	371.0	0.0	0.0	0.0	0.0	0.0	0.0	null	null	null	null	null	null	null	null	330.0	334.0	336.0	337.0	331.0	335.0	333.0	334.0	338.0	334.0	338.0	
Mon Jun 05 22:28:00 UTC 2017	0.0	1.047281664E9	2538.5859375	0.0	2.5731072E7	0.0	2.0	1.023676416E9	39.15038299560547	0.0	0.0	1.047130112E9	1.03856128E9	0.0	null	0.07400000095367432	0.052000001072883606	0.04699999839067459	0.9922500252723694	0.7773181796073914	0.0	244.0	371.0	0.0	0.0	0.0	0.0	0.0	0.0	null	null	null	null	null	null	null	null	337.0	334.0	334.0	332.0	336.0	333.0	335.0	335.0	335.0	335.0	336.0	
Mon Jun 05 22:27:00 UTC 2017	0.0	1.047281664E9	2538.5859375	0.0	2.5731072E7	0.0	2.0	1.023676416E9	39.15038299560547	0.0	0.0	1.047130112E9	1.03856128E9	0.0	null	0.08275000005960464	0.04975000023841858	0.04675000160932541	0.9919999837875366	0.7773221135139465	0.0	244.0	371.0	0.0	0.0	0.0	0.0	0.0	0.0	null	null	null	null	null	null	null	null	334.0	336.0	335.0	337.0	334.0	333.0	338.0	336.0	334.0	338.0	337.0	
Mon Jun 05 22:26:00 UTC 2017	0.0	1.047281664E9	2538.5859375	0.0	2.5731072E7	0.0	2.0	1.023553536E9	48.779781341552734	0.0	0.0	1.047130112E9	1.037533184E9	0.0	null	0.07649999856948853	0.05000000074505806	0.04699999839067459	0.9922500252723694	0.7773128151893616	0.0	244.0	371.0	0.0	0.0	0.0	0.0	0.0	0.0	null	null	null	null	null	null	null	null	338.0	334.0	336.0	335.0	334.0	335.0	335.0	334.0	336.0	335.0	340.0	
Mon Jun 05 22:25:00 UTC 2017	0.0	1.047281664E9	2538.5859375	0.0	2.5731072E7	0.0	3.0	1.023553536E9	48.779781341552734	0.0	0.0	1.047130112E9	1.03856128E9	0.0	null	0.06599999964237213	0.054999999701976776	0.04650000110268593	0.9925000071525574	0.7772951722145081	0.0	244.0	371.0	0.0	0.0	0.0	0.0	0.0	0.0	null	null	null	null	null	null	null	null	335.0	333.0	334.0	336.0	337.0	336.0	335.0	338.0	337.0	335.0	334.0	
Mon Jun 05 22:24:00 UTC 2017	0.0	1.047281664E9	2538.5859375	0.0	2.5731072E7	0.0	2.0	1.023463424E9	38.6892204284668	0.0	0.0	1.047130112E9	1.03856128E9	0.0	null	0.07649999856948853	0.05350000038743019	0.051249999552965164	0.9922500252723694	0.7772736549377441	0.0	244.0	371.0	0.0	0.0	0.0	0.0	0.0	0.0	null	null	null	null	null	null	null	null	337.0	336.0	335.0	336.0	336.0	337.0	336.0	336.0	337.0	333.0	339.0	
Mon Jun 05 22:23:00 UTC 2017	0.0	1.047281664E9	2538.5859375	0.0	2.5731072E7	0.0	2.0	1.023463424E9	51.995208740234375	0.0	0.0	1.047130112E9	1.03856128E9	0.0	null	0.07874999940395355	0.04650000110268593	0.04574999958276749	0.9922500252723694	0.7772712111473083	0.0	244.0	371.0	0.0	0.0	0.0	0.0	0.0	0.0	null	null	null	null	null	null	null	null	333.0	336.0	335.0	336.0	340.0	334.0	336.0	332.0	331.0	336.0	335.0	
Mon Jun 05 22:22:00 UTC 2017	0.0	1.047281664E9	2805.01416015625	0.0	2.5731072E7	0.0	3.0	1.023463424E9	42.79705810546875	0.0	0.0	1.047130112E9	1.037533184E9	0.0	null	0.07275000214576721	0.05525000020861626	0.04600000008940697	0.9925000071525574	0.7794191241264343	0.0	244.0	371.0	0.0	0.0	0.0	0.0	0.0	0.0	null	null	null	null	null	null	null	null	334.0	333.0	335.0	334.0	337.0	331.0	334.0	336.0	338.0	335.0	338.0	
Mon Jun 05 22:21:00 UTC 2017	0.0	1.047281664E9	2274.362060546875	0.0	2.5731072E7	0.0	2.0	1.023254528E9	42.01630783081055	0.0	0.0	1.047130112E9	1.03856128E9	0.0	null	0.09950000047683716	0.04625000059604645	0.04650000110268593	0.9919999837875366	0.7772066593170166	0.0	244.0	371.0	0.0	0.0	0.0	0.0	0.0	0.0	null	null	null	null	null	null	null	null	335.0	332.0	333.0	335.0	333.0	337.0	335.0	340.0	336.0	334.0	338.0	
Mon Jun 05 22:20:00 UTC 2017	0.0	1.047281664E9	2274.362060546875	0.0	2.5731072E7	0.0	2.0	1.02334464E9	42.01630783081055	0.0	0.0	1.047130112E9	1.037533184E9	0.0	null	0.07724999636411667	0.057500001043081284	0.05050000175833702	0.9922500252723694	0.7771987915039062	0.0	244.0	371.0	0.0	0.0	0.0	0.0	0.0	0.0	null	null	null	null	null	null	null	null	336.0	333.0	334.0	341.0	335.0	333.0	339.0	336.0	340.0	335.0	335.0	
Mon Jun 05 22:19:00 UTC 2017	0.0	1.047281664E9	2861.9619140625	0.0	2.5731072E7	0.0	2.0	1.023254528E9	53.402099609375	0.0	0.0	1.047130112E9	1.03856128E9	0.0	null	0.07074999809265137	0.04774999991059303	0.05025000125169754	0.9922500252723694	0.7771821618080139	0.0	244.0	371.0	0.0	0.0	0.0	0.0	0.0	0.0	null	null	null	null	null	null	null	null	335.0	336.0	336.0	334.0	335.0	339.0	334.0	334.0	336.0	337.0	336.0	
Mon Jun 05 22:18:00 UTC 2017	0.0	1.047281664E9	2409.6083984375	0.0	2.5731072E7	0.0	2.0	1.023254528E9	53.07382583618164	0.0	0.0	1.047130112E9	1.037533184E9	0.0	0.0	0.08100000023841858	0.051750000566244125	0.04475000128149986	0.9919999837875366	0.7789499163627625	0.0	244.0	371.0	0.0	0.0	0.0	0.0	0.0	0.0	null	null	null	null	null	null	null	null	332.0	334.0	334.0	339.0	336.0	335.0	333.0	338.0	335.0	333.0	336.0	
Mon Jun 05 22:17:00 UTC 2017	0.0	1.047281664E9	2409.6083984375	0.0	2.5731072E7	0.0	3.0	1.023254528E9	51.63612365722656	0.0	0.0	1.047130112E9	1.03856128E9	0.0	0.0	0.07199999690055847	0.0507499985396862	0.04899999871850014	0.9919999837875366	0.777166485786438	0.0	244.0	371.0	0.0	0.0	0.0	0.0	0.0	0.0	null	null	null	null	null	null	null	null	340.0	337.0	331.0	334.0	334.0	336.0	335.0	334.0	335.0	340.0	334.0	
Mon Jun 05 22:16:00 UTC 2017	0.0	1.047281664E9	3042.331787109375	0.0	2.5731072E7	0.0	6.0	1.023041536E9	51.63612365722656	0.0	0.0	1.047130112E9	1.03856128E9	0.0	0.0	0.07000000029802322	0.05649999901652336	0.04724999889731407	0.9917500019073486	0.777125895023346	0.0	244.0	371.0	0.0	0.0	0.0	0.0	0.0	0.0	null	null	null	null	null	null	null	null	335.0	335.0	339.0	335.0	336.0	335.0	337.0	335.0	338.0	334.0	334.0	
Mon Jun 05 22:15:00 UTC 2017	0.0	1.047281664E9	2680.696044921875	0.0	2.5731072E7	0.0	5.0	1.023131648E9	51.63612365722656	0.0	0.0	1.047130112E9	1.037533184E9	0.0	null	0.0754999965429306	0.05000000074505806	0.05050000175833702	0.9919999837875366	0.7770916819572449	0.0	244.0	371.0	0.0	0.0	0.0	0.0	0.0	0.0	null	null	null	null	null	null	null	null	334.0	333.0	331.0	338.0	335.0	341.0	337.0	334.0	332.0	337.0	335.0	
Mon Jun 05 22:14:00 UTC 2017	0.0	1.047281664E9	3066.41796875	0.0	2.5731072E7	0.0	4.0	1.023041536E9	38.83627700805664	0.0	0.0	1.047130112E9	1.037533184E9	0.0	null	0.07349999994039536	0.054749999195337296	0.054749999195337296	0.9919999837875366	0.7771214842796326	0.0	244.0	371.0	0.0	0.0	0.0	0.0	0.0	0.0	null	null	null	null	null	null	null	null	333.0	334.0	337.0	332.0	334.0	336.0	335.0	332.0	336.0	332.0	340.0	
Mon Jun 05 22:13:00 UTC 2017	0.0	1.047281664E9	2532.939208984375	0.0	2.5731072E7	0.0	2.0	1.02322176E9	49.89670944213867	0.0	0.0	1.047130112E9	1.03856128E9	0.0	null	0.0742499977350235	0.048500001430511475	0.0494999997317791	0.9919999837875366	0.7794122695922852	0.0	244.0	371.0	0.0	0.0	0.0	0.0	0.0	0.0	null	null	null	null	null	null	null	null	339.0	336.0	333.0	335.0	334.0	335.0	334.0	337.0	332.0	336.0	333.0	
Mon Jun 05 22:12:00 UTC 2017	0.0	1.047281664E9	2532.939208984375	0.0	2.5731072E7	0.0	2.0	1.023041536E9	46.02146911621094	0.0	0.0	1.047130112E9	1.037533184E9	0.0	null	0.07900000363588333	0.052000001072883606	0.048500001430511475	0.9922500252723694	0.7770872712135315	0.0	244.0	371.0	0.0	0.0	0.0	0.0	0.0	0.0	null	null	null	null	null	null	null	null	331.0	336.0	337.0	341.0	335.0	332.0	334.0	335.0	334.0	339.0	335.0	
Mon Jun 05 22:11:00 UTC 2017	0.0	1.047281664E9	2645.39453125	0.0	2.5731072E7	0.0	2.0	1.022828544E9	50.45651626586914	0.0	0.0	1.047130112E9	1.03856128E9	0.0	null	0.10050000250339508	0.052000001072883606	0.04650000110268593	0.9922500252723694	0.7770397663116455	0.0	244.0	371.0	0.0	0.0	0.0	0.0	0.0	0.0	null	null	null	null	null	null	null	null	336.0	335.0	335.0	332.0	336.0	337.0	337.0	339.0	337.0	335.0	335.0	
Mon Jun 05 22:10:00 UTC 2017	0.0	1.047281664E9	2645.39453125	0.0	2.5731072E7	0.0	3.0	1.0231808E9	50.45651626586914	0.0	0.0	1.047130112E9	1.037533184E9	0.0	null	0.07074999809265137	0.04774999991059303	0.04899999871850014	0.9922500252723694	0.7770231366157532	0.0	244.0	371.0	0.0	0.0	0.0	0.0	0.0	0.0	null	null	null	null	null	null	null	null	336.0	339.0	336.0	336.0	338.0	336.0	337.0	334.0	332.0	334.0	334.0	
Mon Jun 05 22:09:00 UTC 2017	0.0	1.047281664E9	2416.369140625	0.0	2.5731072E7	0.0	4.0	1.022783488E9	50.45651626586914	0.0	0.0	1.047130112E9	1.03856128E9	0.0	null	0.07824999839067459	0.057750001549720764	0.045499999076128006	0.9922500252723694	0.7769860029220581	0.0	244.0	371.0	0.0	0.0	0.0	0.0	0.0	0.0	null	null	null	null	null	null	null	null	336.0	332.0	336.0	336.0	334.0	335.0	333.0	334.0	334.0	333.0	337.0	
Mon Jun 05 22:08:00 UTC 2017	0.0	1.047281664E9	2416.369140625	0.0	2.5731072E7	0.0	5.0	1.022783488E9	44.11098861694336	0.0	0.0	1.047130112E9	1.037533184E9	0.0	null	0.0807500034570694	0.04650000110268593	0.04724999889731407	0.9925000071525574	0.7769938111305237	0.0	244.0	371.0	0.0	0.0	0.0	0.0	0.0	0.0	null	null	null	null	null	null	null	null	335.0	337.0	335.0	335.0	332.0	335.0	340.0	336.0	333.0	336.0	335.0	
Mon Jun 05 22:07:00 UTC 2017	0.0	1.047281664E9	2416.369140625	0.0	2.5731072E7	0.0	3.0	1.023029248E9	44.11098861694336	0.0	0.0	1.047130112E9	1.03856128E9	0.0	null	0.07575000077486038	0.05550000071525574	0.04924999922513962	0.9925000071525574	0.7770290374755859	0.0	244.0	371.0	0.0	0.0	0.0	0.0	0.0	0.0	null	null	null	null	null	null	null	null	335.0	336.0	334.0	335.0	335.0	338.0	335.0	336.0	335.0	335.0	336.0	
Mon Jun 05 22:06:00 UTC 2017	0.0	1.047281664E9	2416.369140625	0.0	2.5731072E7	0.0	2.0	1.022570496E9	38.0087890625	0.0	0.0	1.047130112E9	1.037533184E9	0.0	null	0.06199999898672104	0.054249998182058334	0.04475000128149986	0.9925000071525574	0.7770055532455444	0.0	244.0	371.0	0.0	0.0	0.0	0.0	0.0	0.0	null	null	null	null	null	null	null	null	337.0	337.0	337.0	337.0	336.0	338.0	337.0	338.0	335.0	339.0	334.0	
Mon Jun 05 22:05:00 UTC 2017	0.0	1.047281664E9	2866.804931640625	0.0	2.5731072E7	0.0	2.0	1.022660608E9	38.0087890625	0.0	0.0	1.047130112E9	1.03856128E9	0.0	0.0	0.07900000363588333	0.04800000041723251	0.0507499985396862	0.9922500252723694	0.7770050764083862	0.0	244.0	371.0	0.0	0.0	0.0	0.0	0.0	0.0	null	null	null	null	null	null	null	null	332.0	336.0	335.0	335.0	338.0	335.0	334.0	335.0	334.0	335.0	336.0	
Mon Jun 05 22:04:00 UTC 2017	0.0	1.047281664E9	2866.804931640625	0.0	2.5731072E7	0.0	2.0	1.022570496E9	43.28723907470703	0.0	0.0	1.047130112E9	1.037533184E9	0.0	0.0	0.07925000041723251	0.054749999195337296	0.045249998569488525	0.9922500252723694	0.7792155742645264	0.0	244.0	371.0	0.0	0.0	0.0	0.0	0.0	0.0	null	null	null	null	null	null	null	null	335.0	339.0	337.0	337.0	332.0	335.0	335.0	336.0	337.0	335.0	334.0	
Mon Jun 05 22:03:00 UTC 2017	0.0	1.047281664E9	2866.804931640625	0.0	2.5731072E7	0.0	2.0	1.022570496E9	43.28723907470703	0.0	0.0	1.047130112E9	1.037533184E9	0.0	null	0.07199999690055847	0.04800000041723251	0.04724999889731407	0.9922500252723694	0.7787463665008545	0.0	244.0	371.0	0.0	0.0	0.0	0.0	0.0	0.0	null	null	null	null	null	null	null	null	335.0	332.0	337.0	331.0	336.0	337.0	336.0	336.0	334.0	334.0	333.0	
Mon Jun 05 22:02:00 UTC 2017	0.0	1.047281664E9	2866.804931640625	0.0	2.5731072E7	0.0	2.0	1.022820352E9	37.797882080078125	0.0	0.0	1.047130112E9	1.03856128E9	0.0	0.0	0.07450000196695328	0.057750001549720764	0.050999999046325684	0.9919999837875366	0.7769654393196106	0.0	244.0	371.0	0.0	0.0	0.0	0.0	0.0	0.0	null	null	null	null	null	null	null	null	337.0	336.0	335.0	335.0	335.0	332.0	337.0	334.0	337.0	335.0	337.0	
Mon Jun 05 22:01:00 UTC 2017	0.0	1.047281664E9	2866.804931640625	0.0	2.5731072E7	0.0	4.0	1.0223616E9	37.797882080078125	0.0	0.0	1.047130112E9	1.037533184E9	0.0	0.0	0.10824999958276749	0.05249999836087227	0.04699999839067459	0.9919999837875366	0.7769488096237183	0.0	244.0	371.0	0.0	0.0	0.0	0.0	0.0	0.0	null	null	null	null	null	null	null	null	333.0	336.0	336.0	335.0	337.0	334.0	336.0	337.0	335.0	334.0	333.0	
Mon Jun 05 22:00:00 UTC 2017	0.0	1.047281664E9	2897.44287109375	0.0	2.5731072E7	0.0	3.0	1.022451712E9	50.26203918457031	0.0	0.0	1.047130112E9	1.037533184E9	0.0	0.0	0.06925000250339508	0.05249999836087227	0.0494999997317791	0.9919999837875366	0.7769380211830139	0.0	244.0	371.0	0.0	0.0	0.0	0.0	0.0	0.0	null	null	null	null	null	null	null	null	335.0	333.0	337.0	338.0	336.0	335.0	334.0	334.0	338.0	337.0	335.0	
Mon Jun 05 21:59:00 UTC 2017	0.0	1.047281664E9	2953.555419921875	0.0	2.5731072E7	0.0	3.0	1.0223616E9	50.26203918457031	0.0	0.0	1.047130112E9	1.037533184E9	0.0	0.0	0.07900000363588333	0.04675000160932541	0.048250000923871994	0.9922500252723694	0.7769375443458557	0.0	244.0	371.0	0.0	0.0	0.0	0.0	0.0	0.0	null	null	null	null	null	null	null	null	336.0	334.0	335.0	332.0	333.0	336.0	334.0	336.0	336.0	334.0	336.0	
Mon Jun 05 21:58:00 UTC 2017	0.0	1.047281664E9	2459.08154296875	0.0	2.5731072E7	0.0	3.0	1.022541824E9	46.098350524902344	0.0	0.0	1.047130112E9	1.037533184E9	0.0	0.0	0.07900000363588333	0.05274999886751175	0.04699999839067459	0.9919999837875366	0.7769262790679932	0.0	244.0	371.0	0.0	0.0	0.0	0.0	0.0	0.0	null	null	null	null	null	null	null	null	334.0	335.0	337.0	338.0	333.0	335.0	335.0	335.0	336.0	331.0	334.0	
Mon Jun 05 21:57:00 UTC 2017	0.0	1.047281664E9	2867.492919921875	0.0	2.5731072E7	0.0	6.0	1.02260736E9	46.098350524902344	0.0	0.0	1.047130112E9	1.03856128E9	0.0	0.0	0.07374999672174454	0.04800000041723251	0.04800000041723251	0.9922500252723694	0.7769111394882202	0.0	244.0	371.0	0.0	0.0	0.0	0.0	0.0	0.0	null	null	null	null	null	null	null	null	331.0	336.0	338.0	335.0	338.0	339.0	337.0	337.0	335.0	337.0	336.0	
Mon Jun 05 21:56:00 UTC 2017	0.0	1.047281664E9	2759.930419921875	0.0	2.5731072E7	0.0	2.0	1.022148608E9	46.098350524902344	0.0	0.0	1.047130112E9	1.037533184E9	0.0	0.0	0.07524999976158142	0.054749999195337296	0.05050000175833702	0.9922500252723694	0.7783050537109375	0.0	244.0	371.0	0.0	0.0	0.0	0.0	0.0	0.0	null	null	null	null	null	null	null	null	337.0	339.0	334.0	332.0	334.0	334.0	335.0	337.0	333.0	334.0	334.0	
Mon Jun 05 21:55:00 UTC 2017	0.0	1.047281664E9	2557.23046875	0.0	2.5731072E7	0.0	3.0	1.02223872E9	50.406394958496094	0.0	0.0	1.047130112E9	1.037533184E9	0.0	null	0.07175000011920929	0.05400000140070915	0.04374999925494194	0.9922500252723694	0.7768157124519348	0.0	244.0	371.0	0.0	0.0	0.0	0.0	0.0	0.0	null	null	null	null	null	null	null	null	331.0	334.0	337.0	335.0	335.0	338.0	333.0	337.0	337.0	336.0	336.0	
Mon Jun 05 21:54:00 UTC 2017	0.0	1.047281664E9	2489.992919921875	0.0	2.5731072E7	0.0	2.0	1.022148608E9	50.406394958496094	0.0	0.0	1.047130112E9	1.03856128E9	0.0	0.0	0.07199999690055847	0.04650000110268593	0.05274999886751175	0.9922500252723694	0.7768945097923279	0.0	244.0	371.0	0.0	0.0	0.0	0.0	0.0	0.0	null	null	null	null	null	null	null	null	336.0	334.0	334.0	338.0	334.0	335.0	336.0	336.0	337.0	336.0	336.0	
Mon Jun 05 21:53:00 UTC 2017	0.0	1.047281664E9	2489.992919921875	0.0	2.5731072E7	0.0	2.0	1.022148608E9	50.406394958496094	0.0	0.0	1.047130112E9	1.037533184E9	0.0	null	0.0729999989271164	0.05400000140070915	0.04800000041723251	0.9919999837875366	0.7768773436546326	0.0	244.0	371.0	0.0	0.0	0.0	0.0	0.0	0.0	null	null	null	null	null	null	null	null	337.0	336.0	335.0	335.0	337.0	335.0	332.0	333.0	333.0	334.0	334.0	
Mon Jun 05 21:52:00 UTC 2017	0.0	1.047281664E9	2603.992919921875	0.0	2.5731072E7	0.0	3.0	1.022148608E9	50.406394958496094	0.0	0.0	1.047130112E9	1.037533184E9	0.0	null	0.07824999839067459	0.050999999046325684	0.04800000041723251	0.9919999837875366	0.7768592238426208	0.0	244.0	371.0	0.0	0.0	0.0	0.0	0.0	0.0	null	null	null	null	null	null	null	null	333.0	336.0	332.0	336.0	331.0	332.0	335.0	338.0	336.0	335.0	336.0	
Mon Jun 05 21:51:00 UTC 2017	0.0	1.047281664E9	2770.147216796875	0.0	2.5731072E7	0.0	2.0	1.022025728E9	49.507301330566406	0.0	0.0	1.047130112E9	1.03856128E9	0.0	0.0	0.09674999862909317	0.0507499985396862	0.04500000178813934	0.9922500252723694	0.7769365310668945	0.0	244.0	371.0	0.0	0.0	0.0	0.0	0.0	0.0	null	null	null	null	null	null	null	null	336.0	338.0	341.0	332.0	337.0	339.0	335.0	335.0	337.0	335.0	338.0	
Mon Jun 05 21:50:00 UTC 2017	0.0	1.047281664E9	2770.147216796875	0.0	2.5731072E7	0.0	2.0	1.022025728E9	38.972633361816406	0.0	0.0	1.047130112E9	1.037533184E9	0.0	0.0	0.08049999922513962	0.04874999821186066	0.0494999997317791	0.9919999837875366	0.7767873406410217	0.0	244.0	371.0	0.0	0.0	0.0	0.0	0.0	0.0	null	null	null	null	null	null	null	null	333.0	334.0	337.0	335.0	333.0	337.0	334.0	335.0	337.0	334.0	335.0	
Mon Jun 05 21:49:00 UTC 2017	0.0	1.047281664E9	2770.147216796875	0.0	2.5731072E7	0.0	3.0	1.02211584E9	40.98805236816406	0.0	0.0	1.047130112E9	1.037533184E9	0.0	0.0	0.06925000250339508	0.0572500005364418	0.04475000128149986	0.9922500252723694	0.7767677307128906	0.0	244.0	371.0	0.0	0.0	0.0	0.0	0.0	0.0	null	null	null	null	null	null	null	null	337.0	331.0	334.0	333.0	337.0	336.0	339.0	333.0	332.0	337.0	335.0	
Mon Jun 05 21:48:00 UTC 2017	0.0	1.047281664E9	2770.147216796875	0.0	2.5731072E7	0.0	2.0	1.021935616E9	50.728572845458984	0.0	0.0	1.047130112E9	1.03856128E9	0.0	0.0	0.07850000262260437	0.04874999821186066	0.05050000175833702	0.9922500252723694	0.776715874671936	0.0	244.0	371.0	0.0	0.0	0.0	0.0	0.0	0.0	null	null	null	null	null	null	null	null	333.0	339.0	338.0	336.0	333.0	333.0	334.0	337.0	338.0	335.0	340.0	
Mon Jun 05 21:47:00 UTC 2017	0.0	1.047281664E9	2770.147216796875	0.0	2.5731072E7	0.0	6.0	1.022185472E9	55.66025924682617	0.0	0.0	1.047130112E9	1.037533184E9	0.0	0.0	0.07275000214576721	0.05249999836087227	0.04699999839067459	0.9922500252723694	0.7790507078170776	0.0	244.0	371.0	0.0	0.0	0.0	0.0	0.0	0.0	null	null	null	null	null	null	null	null	334.0	336.0	334.0	335.0	337.0	337.0	336.0	333.0	337.0	333.0	336.0	
Mon Jun 05 21:46:00 UTC 2017	0.0	1.047281664E9	2539.493896484375	0.0	2.5731072E7	0.0	2.0	1.021722624E9	45.92684555053711	0.0	0.0	1.047130112E9	1.03856128E9	0.0	0.0	0.07249999791383743	0.05624999850988388	0.04749999940395355	0.9919999837875366	0.7766478657722473	0.0	244.0	371.0	0.0	0.0	0.0	0.0	0.0	0.0	null	null	null	null	null	null	null	null	338.0	335.0	334.0	337.0	334.0	336.0	333.0	339.0	334.0	338.0	337.0	
Mon Jun 05 21:45:00 UTC 2017	0.0	1.047281664E9	2903.826416015625	0.0	2.5731072E7	0.0	2.0	1.02180864E9	57.514686584472656	0.0	0.0	1.061339136E9	1.03856128E9	0.0	0.0	0.0767500028014183	0.05050000175833702	0.04774999991059303	0.9922500252723694	0.7766327261924744	0.0	244.0	371.0	0.0	0.0	0.0	0.0	0.0	0.0	null	null	null	null	null	null	null	null	333.0	337.0	334.0	334.0	335.0	335.0	338.0	336.0	336.0	332.0	333.0	
Mon Jun 05 21:44:00 UTC 2017	0.0	1.047281664E9	2903.826416015625	0.0	2.5731072E7	0.0	2.0	1.021718528E9	49.16931915283203	0.0	0.0	1.061339136E9	1.03856128E9	0.0	0.0	0.07050000131130219	0.04625000059604645	0.0494999997317791	0.9925000071525574	0.7766860723495483	0.0	244.0	371.0	0.0	0.0	0.0	0.0	0.0	0.0	null	null	null	null	null	null	null	null	339.0	338.0	337.0	338.0	337.0	342.0	336.0	337.0	334.0	336.0	340.0	
Mon Jun 05 21:43:00 UTC 2017	0.0	1.047281664E9	2903.826416015625	0.0	2.5731072E7	0.0	2.0	1.021718528E9	44.926387786865234	0.0	0.0	1.061339136E9	1.037533184E9	0.0	0.0	0.08500000089406967	0.054999999701976776	0.04500000178813934	0.9922500252723694	0.7766733169555664	0.0	244.0	371.0	0.0	0.0	0.0	0.0	0.0	0.0	null	null	null	null	null	null	null	null	331.0	333.0	333.0	331.0	335.0	334.0	331.0	331.0	339.0	334.0	336.0	
Mon Jun 05 21:42:00 UTC 2017	0.0	1.047281664E9	2903.826416015625	0.0	2.5731072E7	0.0	2.0	1.021718528E9	48.370887756347656	0.0	0.0	1.061339136E9	1.03856128E9	0.0	0.0	0.07275000214576721	0.054499998688697815	0.05025000125169754	0.9925000071525574	0.7766562104225159	0.0	244.0	371.0	0.0	0.0	0.0	0.0	0.0	0.0	null	null	null	null	null	null	null	null	338.0	337.0	335.0	336.0	333.0	333.0	336.0	333.0	335.0	340.0	335.0	
Mon Jun 05 21:41:00 UTC 2017	0.0	1.047281664E9	2661.07958984375	0.0	2.5731072E7	0.0	2.0	1.021509632E9	46.15682601928711	0.0	0.0	1.061339136E9	1.03856128E9	0.0	0.0	0.08950000256299973	0.048250000923871994	0.04574999958276749	0.9922500252723694	0.7766493558883667	0.0	244.0	371.0	0.0	0.0	0.0	0.0	0.0	0.0	null	null	null	null	null	null	null	null	337.0	337.0	334.0	334.0	332.0	335.0	336.0	337.0	335.0	336.0	336.0	
Mon Jun 05 21:40:00 UTC 2017	0.0	1.047281664E9	2661.07958984375	0.0	2.5731072E7	0.0	4.0	1.021599744E9	38.243675231933594	0.0	0.0	1.061339136E9	1.03856128E9	0.0	0.0	0.08425000309944153	0.04975000023841858	0.04874999821186066	0.9925000071525574	0.7766342163085938	0.0	244.0	371.0	0.0	0.0	0.0	0.0	0.0	0.0	null	null	null	null	null	null	null	null	335.0	340.0	335.0	336.0	337.0	341.0	335.0	333.0	335.0	336.0	333.0	
Mon Jun 05 21:39:00 UTC 2017	0.0	1.047281664E9	2953.517822265625	0.0	2.5731072E7	0.0	2.0	1.021509632E9	38.243675231933594	0.0	0.0	1.061339136E9	1.03856128E9	0.0	0.0	0.06975000351667404	0.0494999997317791	0.04625000059604645	0.9925000071525574	0.7766175270080566	0.0	244.0	371.0	0.0	0.0	0.0	0.0	0.0	0.0	null	null	null	null	null	null	null	null	336.0	336.0	335.0	337.0	333.0	336.0	334.0	334.0	340.0	337.0	336.0	
Mon Jun 05 21:38:00 UTC 2017	0.0	1.047281664E9	2953.517822265625	0.0	2.5731072E7	0.0	2.0	1.021509632E9	38.243675231933594	0.0	0.0	1.061339136E9	1.037533184E9	0.0	0.0	0.06875000149011612	0.05225000157952309	0.04899999871850014	0.9919999837875366	0.7766121625900269	0.0	244.0	371.0	0.0	0.0	0.0	0.0	0.0	0.0	null	null	null	null	null	null	null	null	335.0	335.0	336.0	335.0	332.0	333.0	336.0	335.0	335.0	335.0	334.0	
Mon Jun 05 21:37:00 UTC 2017	0.0	1.047281664E9	2468.260009765625	0.0	2.5731072E7	0.0	3.0	1.021509632E9	54.94231033325195	0.0	0.0	1.061339136E9	1.037533184E9	0.0	0.0	0.07400000095367432	0.05324999988079071	0.051750000566244125	0.9922500252723694	0.7765970230102539	0.0	244.0	371.0	0.0	0.0	0.0	0.0	0.0	0.0	null	null	null	null	null	null	null	null	335.0	334.0	339.0	334.0	336.0	338.0	333.0	334.0	334.0	337.0	338.0	
Mon Jun 05 21:36:00 UTC 2017	0.0	1.047281664E9	2621.726318359375	0.0	2.5731072E7	0.0	2.0	1.02129664E9	54.94231033325195	0.0	0.0	1.061339136E9	1.037533184E9	0.0	0.0	0.07325000315904617	0.05025000125169754	0.0442500002682209	0.9922500252723694	0.7765793800354004	0.0	244.0	371.0	0.0	0.0	0.0	0.0	0.0	0.0	null	null	null	null	null	null	null	null	338.0	340.0	334.0	338.0	333.0	334.0	337.0	338.0	336.0	336.0	336.0	
Mon Jun 05 21:35:00 UTC 2017	0.0	1.047281664E9	3324.16015625	0.0	2.5731072E7	0.0	2.0	1.021386752E9	54.94231033325195	0.0	0.0	1.061339136E9	1.037533184E9	0.0	0.0	0.07524999976158142	0.05249999836087227	0.04800000041723251	0.9919999837875366	0.776584267616272	0.0	244.0	371.0	0.0	0.0	0.0	0.0	0.0	0.0	null	null	null	null	null	null	null	null	337.0	334.0	333.0	334.0	340.0	333.0	335.0	334.0	339.0	340.0	331.0	
Mon Jun 05 21:34:00 UTC 2017	0.0	1.047281664E9	3324.16015625	0.0	2.5731072E7	0.0	2.0	1.02129664E9	54.94231033325195	0.0	0.0	1.061339136E9	1.03856128E9	0.0	0.0	0.07750000059604645	0.05550000071525574	0.04650000110268593	0.9922500252723694	0.776565670967102	0.0	244.0	371.0	0.0	0.0	0.0	0.0	0.0	0.0	null	null	null	null	null	null	null	null	331.0	334.0	337.0	333.0	333.0	334.0	334.0	337.0	335.0	332.0	339.0	
Mon Jun 05 21:33:00 UTC 2017	0.0	1.047281664E9	3324.16015625	0.0	2.5731072E7	0.0	2.0	1.02129664E9	54.94231033325195	0.0	0.0	1.061339136E9	1.03856128E9	0.0	null	0.07774999737739563	0.04774999991059303	0.04924999922513962	0.9922500252723694	0.7765432000160217	0.0	244.0	371.0	0.0	0.0	0.0	0.0	0.0	0.0	null	null	null	null	null	null	null	null	334.0	338.0	338.0	333.0	334.0	336.0	337.0	333.0	337.0	335.0	334.0	
Mon Jun 05 21:32:00 UTC 2017	0.0	1.047281664E9	2880.6982421875	0.0	2.5731072E7	0.0	3.0	1.02129664E9	54.94231033325195	0.0	0.0	1.061339136E9	1.037533184E9	0.0	null	0.06949999928474426	0.054749999195337296	0.04699999839067459	0.9922500252723694	0.7765020728111267	0.0	244.0	371.0	0.0	0.0	0.0	0.0	0.0	0.0	null	null	null	null	null	null	null	null	337.0	334.0	337.0	336.0	335.0	332.0	335.0	337.0	337.0	336.0	334.0	
Mon Jun 05 21:31:00 UTC 2017	0.0	1.047281664E9	2880.6982421875	0.0	2.5731072E7	0.0	4.0	1.021083648E9	44.381473541259766	0.0	0.0	1.061339136E9	1.03856128E9	0.0	null	0.10525000095367432	0.05550000071525574	0.04650000110268593	0.9922500252723694	0.7764644026756287	0.0	244.0	371.0	0.0	0.0	0.0	0.0	0.0	0.0	null	null	null	null	null	null	null	null	334.0	336.0	337.0	336.0	334.0	336.0	336.0	334.0	337.0	334.0	337.0	
Mon Jun 05 21:30:00 UTC 2017	0.0	1.047281664E9	3386.58203125	0.0	2.5731072E7	0.0	2.0	1.021288448E9	44.381473541259766	0.0	0.0	1.061339136E9	1.037533184E9	0.0	null	0.06575000286102295	0.05274999886751175	0.0494999997317791	0.9922500252723694	0.777589738368988	0.0	244.0	371.0	0.0	0.0	0.0	0.0	0.0	0.0	null	null	null	null	null	null	null	null	336.0	337.0	334.0	333.0	336.0	337.0	337.0	335.0	336.0	338.0	337.0	
Mon Jun 05 21:29:00 UTC 2017	0.0	1.047281664E9	3386.58203125	0.0	2.5731072E7	0.0	2.0	1.021083648E9	44.381473541259766	0.0	0.0	1.061339136E9	1.03856128E9	0.0	0.0	0.08474999666213989	0.051500000059604645	0.04724999889731407	0.9919999837875366	0.7764477729797363	0.0	244.0	371.0	0.0	0.0	0.0	0.0	0.0	0.0	null	null	null	null	null	null	null	null	338.0	332.0	335.0	335.0	340.0	332.0	335.0	337.0	338.0	332.0	335.0	
Mon Jun 05 21:28:00 UTC 2017	0.0	1.047281664E9	3386.58203125	0.0	2.5731072E7	0.0	2.0	1.021083648E9	44.81159210205078	0.0	0.0	1.061339136E9	1.037533184E9	0.0	0.0	0.06949999928474426	0.04924999922513962	0.045249998569488525	0.9922500252723694	0.7764291763305664	0.0	244.0	371.0	0.0	0.0	0.0	0.0	0.0	0.0	null	null	null	null	null	null	null	null	336.0	336.0	335.0	334.0	331.0	336.0	335.0	336.0	336.0	337.0	336.0	
Mon Jun 05 21:27:00 UTC 2017	0.0	1.047281664E9	2741.0556640625	0.0	2.5731072E7	0.0	3.0	1.021083648E9	83.17362976074219	0.0	0.0	1.061339136E9	1.037533184E9	0.0	0.0	0.07800000160932541	0.04774999991059303	0.0494999997317791	0.9919999837875366	0.7765872478485107	0.0	244.0	371.0	0.0	0.0	0.0	0.0	0.0	0.0	null	null	null	null	null	null	null	null	335.0	337.0	339.0	336.0	336.0	334.0	335.0	336.0	339.0	336.0	334.0	
Mon Jun 05 21:26:00 UTC 2017	0.0	1.047281664E9	2614.13720703125	0.0	2.5731072E7	0.0	2.0	1.020964864E9	56.763240814208984	0.0	0.0	1.061339136E9	1.03856128E9	0.0	0.0	0.06925000250339508	0.0560000017285347	0.04924999922513962	0.9922500252723694	0.7763856649398804	0.0	244.0	371.0	0.0	0.0	0.0	0.0	0.0	0.0	null	null	null	null	null	null	null	null	335.0	338.0	335.0	334.0	336.0	337.0	335.0	335.0	334.0	335.0	337.0	
Mon Jun 05 21:25:00 UTC 2017	0.0	1.047281664E9	1997.33447265625	0.0	2.5731072E7	0.0	2.0	1.020964864E9	56.763240814208984	0.0	0.0	1.061339136E9	1.03856128E9	0.0	0.0	0.07450000196695328	0.04749999940395355	0.045499999076128006	0.9922500252723694	0.7763587236404419	0.0	244.0	371.0	0.0	0.0	0.0	0.0	0.0	0.0	null	null	null	null	null	null	null	null	338.0	335.0	333.0	336.0	335.0	331.0	336.0	335.0	335.0	337.0	332.0	
Mon Jun 05 21:24:00 UTC 2017	0.0	1.047281664E9	1997.33447265625	0.0	2.5731072E7	0.0	4.0	1.020874752E9	56.763240814208984	0.0	0.0	1.061339136E9	1.03856128E9	0.0	0.0	0.08399999886751175	0.05249999836087227	0.04774999991059303	0.9922500252723694	0.7764262557029724	0.0	244.0	371.0	0.0	0.0	0.0	0.0	0.0	0.0	null	null	null	null	null	null	null	null	333.0	335.0	338.0	336.0	338.0	335.0	336.0	335.0	337.0	334.0	337.0	
Mon Jun 05 21:23:00 UTC 2017	0.0	1.047281664E9	1997.33447265625	0.0	2.5731072E7	0.0	2.0	1.020940288E9	56.763240814208984	0.0	0.0	1.061339136E9	1.03856128E9	0.0	0.0	0.0742499977350235	0.048500001430511475	0.04475000128149986	0.9922500252723694	0.7763875722885132	0.0	244.0	371.0	0.0	0.0	0.0	0.0	0.0	0.0	null	null	null	null	null	null	null	null	333.0	336.0	332.0	335.0	332.0	335.0	334.0	337.0	336.0	336.0	333.0	
Mon Jun 05 21:22:00 UTC 2017	0.0	1.047281664E9	1997.33447265625	0.0	2.5731072E7	0.0	3.0	1.020874752E9	45.848167419433594	0.0	0.0	1.061339136E9	1.03856128E9	0.0	0.0	0.07225000113248825	0.0572500005364418	0.052000001072883606	0.9922500252723694	0.7763523459434509	0.0	244.0	371.0	0.0	0.0	0.0	0.0	0.0	0.0	null	null	null	null	null	null	null	null	336.0	335.0	335.0	333.0	339.0	337.0	339.0	335.0	334.0	331.0	337.0	
Mon Jun 05 21:21:00 UTC 2017	0.0	1.047281664E9	2635.763916015625	0.0	2.5731072E7	0.0	2.0	1.02066176E9	58.62435531616211	0.0	0.0	1.061339136E9	1.03856128E9	0.0	0.0	0.10575000196695328	0.04774999991059303	0.05050000175833702	0.9922500252723694	0.7763068675994873	0.0	244.0	371.0	0.0	0.0	0.0	0.0	0.0	0.0	null	null	null	null	null	null	null	null	338.0	332.0	336.0	336.0	333.0	336.0	332.0	337.0	337.0	339.0	338.0	
Mon Jun 05 21:20:00 UTC 2017	0.0	1.047281664E9	2635.763916015625	0.0	2.5731072E7	0.0	2.0	1.020751872E9	58.62435531616211	0.0	0.0	1.061339136E9	1.037533184E9	0.0	0.0	0.07000000029802322	0.051249999552965164	0.04374999925494194	0.9922500252723694	0.7785741686820984	0.0	244.0	371.0	0.0	0.0	0.0	0.0	0.0	0.0	null	null	null	null	null	null	null	null	333.0	337.0	338.0	336.0	333.0	337.0	336.0	338.0	331.0	333.0	332.0	
Mon Jun 05 21:19:00 UTC 2017	0.0	1.047281664E9	2369.8447265625	0.0	2.5731072E7	0.0	4.0	1.02066176E9	58.62435531616211	0.0	0.0	1.061339136E9	1.037533184E9	0.0	0.0	0.07175000011920929	0.057750001549720764	0.05000000074505806	0.9919999837875366	0.7763474583625793	0.0	244.0	371.0	0.0	0.0	0.0	0.0	0.0	0.0	null	null	null	null	null	null	null	null	336.0	335.0	333.0	337.0	338.0	335.0	336.0	335.0	336.0	337.0	336.0	
Mon Jun 05 21:18:00 UTC 2017	0.0	1.047281664E9	2691.462646484375	0.0	2.5731072E7	0.0	3.0	1.02066176E9	58.62435531616211	0.0	0.0	1.061339136E9	1.037533184E9	0.0	0.0	0.07450000196695328	0.050999999046325684	0.04675000160932541	0.9919999837875366	0.7763102650642395	0.0	244.0	371.0	0.0	0.0	0.0	0.0	0.0	0.0	null	null	null	null	null	null	null	null	333.0	335.0	336.0	336.0	336.0	336.0	335.0	335.0	334.0	335.0	337.0	
Mon Jun 05 21:17:00 UTC 2017	0.0	1.047281664E9	2691.462646484375	0.0	2.5731072E7	0.0	2.0	1.02066176E9	58.62435531616211	0.0	0.0	1.061339136E9	1.037533184E9	0.0	0.0	0.07925000041723251	0.04650000110268593	0.04724999889731407	0.9925000071525574	0.7762721180915833	0.0	244.0	371.0	0.0	0.0	0.0	0.0	0.0	0.0	null	null	null	null	null	null	null	null	337.0	339.0	336.0	335.0	333.0	335.0	334.0	336.0	336.0	334.0	336.0	
Mon Jun 05 21:16:00 UTC 2017	0.0	1.047281664E9	2624.266845703125	0.0	2.5731072E7	0.0	3.0	1.020448768E9	58.62435531616211	0.0	0.0	1.061339136E9	1.037533184E9	0.0	null	0.07150000333786011	0.05824999883770943	0.04749999940395355	0.9922500252723694	0.776271641254425	0.0	244.0	371.0	0.0	0.0	0.0	0.0	0.0	0.0	null	null	null	null	null	null	null	null	335.0	334.0	335.0	337.0	335.0	335.0	337.0	333.0	335.0	330.0	335.0	
Mon Jun 05 21:15:00 UTC 2017	0.0	1.047281664E9	2939.022705078125	0.0	2.5731072E7	0.0	2.0	1.02053888E9	51.16291046142578	0.0	0.0	1.061339136E9	1.03856128E9	0.0	null	0.07500000298023224	0.04625000059604645	0.051500000059604645	0.9929999709129333	0.7762677073478699	0.0	244.0	371.0	0.0	0.0	0.0	0.0	0.0	0.0	null	null	null	null	null	null	null	null	334.0	337.0	337.0	334.0	334.0	334.0	337.0	337.0	338.0	338.0	336.0	
Mon Jun 05 21:14:00 UTC 2017	0.0	1.047281664E9	3525.22998046875	0.0	2.5731072E7	0.0	2.0	1.020448768E9	47.76642608642578	0.0	0.0	1.061339136E9	1.037533184E9	0.0	null	0.07249999791383743	0.054999999701976776	0.04450000077486038	0.9912499785423279	0.7785521149635315	0.0	244.0	371.0	0.0	0.0	0.0	0.0	0.0	0.0	null	null	null	null	null	null	null	null	336.0	337.0	337.0	339.0	338.0	335.0	337.0	335.0	339.0	332.0	335.0	
Mon Jun 05 21:13:00 UTC 2017	0.0	1.047281664E9	3525.22998046875	0.0	2.5731072E7	0.0	2.0	1.02045696E9	47.76642608642578	0.0	0.0	1.061339136E9	1.037533184E9	0.0	null	0.07524999976158142	0.05525000020861626	0.05000000074505806	0.9919999837875366	0.7762202620506287	0.0	244.0	371.0	0.0	0.0	0.0	0.0	0.0	0.0	null	null	null	null	null	null	null	null	333.0	336.0	334.0	336.0	337.0	334.0	335.0	332.0	334.0	332.0	333.0	
Mon Jun 05 21:12:00 UTC 2017	0.0	1.047281664E9	3525.22998046875	0.0	2.5731072E7	0.0	2.0	1.02045696E9	47.76642608642578	0.0	0.0	1.061339136E9	1.051193344E9	0.0	0.0	0.0807500034570694	0.04675000160932541	0.04874999821186066	0.9919999837875366	0.7761791944503784	0.0	244.0	371.0	0.0	0.0	0.0	0.0	0.0	0.0	null	null	null	null	null	null	null	null	335.0	334.0	335.0	335.0	333.0	335.0	332.0	340.0	334.0	338.0	335.0	
Mon Jun 05 21:11:00 UTC 2017	0.0	1.047281664E9	3525.22998046875	0.0	2.5731072E7	0.0	3.0	1.020248064E9	47.76642608642578	0.0	0.0	1.061339136E9	1.050165248E9	0.0	0.0	0.09099999815225601	0.05274999886751175	0.048250000923871994	0.9919999837875366	0.7761772274971008	0.0	244.0	371.0	0.0	0.0	0.0	0.0	0.0	0.0	null	null	null	null	null	null	null	null	338.0	340.0	335.0	335.0	340.0	336.0	336.0	333.0	336.0	335.0	336.0	
Mon Jun 05 21:10:00 UTC 2017	0.0	1.047281664E9	3525.22998046875	0.0	2.5731072E7	0.0	3.0	1.02060032E9	47.76642608642578	0.0	0.0	1.061339136E9	1.050165248E9	0.0	0.0	0.0742499977350235	0.051249999552965164	0.04600000008940697	0.9919999837875366	0.7779356241226196	0.0	244.0	371.0	0.0	0.0	0.0	0.0	0.0	0.0	null	null	null	null	null	null	null	null	333.0	335.0	334.0	336.0	336.0	333.0	337.0	339.0	335.0	334.0	338.0	
Mon Jun 05 21:09:00 UTC 2017	0.0	1.047281664E9	3525.22998046875	0.0	2.5731072E7	0.0	2.0	1.020071936E9	44.68968963623047	0.0	0.0	1.061339136E9	1.051193344E9	0.0	0.0	0.08174999803304672	0.054749999195337296	0.04650000110268593	0.9919999837875366	0.7785120010375977	0.0	244.0	371.0	0.0	0.0	0.0	0.0	0.0	0.0	null	null	null	null	null	null	null	null	335.0	340.0	335.0	334.0	334.0	334.0	334.0	334.0	335.0	332.0	336.0	
Mon Jun 05 21:08:00 UTC 2017	0.0	1.047281664E9	3525.22998046875	0.0	2.5731072E7	0.0	2.0	1.020071936E9	52.436607360839844	0.0	0.0	1.061339136E9	1.051193344E9	0.0	0.0	0.06650000065565109	0.04874999821186066	0.048250000923871994	0.9919999837875366	0.7762193083763123	0.0	244.0	371.0	0.0	0.0	0.0	0.0	0.0	0.0	null	null	null	null	null	null	null	null	332.0	331.0	333.0	337.0	335.0	333.0	334.0	335.0	339.0	336.0	334.0	
Mon Jun 05 21:07:00 UTC 2017	0.0	1.047281664E9	3525.22998046875	0.0	2.5731072E7	0.0	2.0	1.020317696E9	38.428104400634766	0.0	0.0	1.061339136E9	1.051193344E9	0.0	0.0	0.0820000022649765	0.05225000157952309	0.04924999922513962	0.9919999837875366	0.7784904837608337	0.0	244.0	371.0	0.0	0.0	0.0	0.0	0.0	0.0	null	null	null	null	null	null	null	null	335.0	339.0	333.0	336.0	335.0	339.0	340.0	336.0	336.0	339.0	336.0	
Mon Jun 05 21:06:00 UTC 2017	0.0	1.047281664E9	2346.001708984375	0.0	2.5731072E7	0.0	2.0	1.019858944E9	38.428104400634766	0.0	0.0	1.061339136E9	1.050165248E9	0.0	0.0	0.06599999964237213	0.05025000125169754	0.04475000128149986	0.9919999837875366	0.7761850357055664	0.0	244.0	371.0	0.0	0.0	0.0	0.0	0.0	0.0	null	null	null	null	null	null	null	null	335.0	334.0	336.0	337.0	339.0	333.0	332.0	337.0	335.0	333.0	335.0	
Mon Jun 05 21:05:00 UTC 2017	0.0	1.047281664E9	2582.131591796875	0.0	2.5731072E7	0.0	2.0	1.019949056E9	41.25822067260742	0.0	0.0	1.061339136E9	1.050165248E9	0.0	0.0	0.07750000059604645	0.051500000059604645	0.05050000175833702	0.9919999837875366	0.7762007117271423	0.0	244.0	371.0	0.0	0.0	0.0	0.0	0.0	0.0	null	null	null	null	null	null	null	null	335.0	335.0	332.0	336.0	334.0	333.0	337.0	334.0	336.0	338.0	341.0	
Mon Jun 05 21:04:00 UTC 2017	0.0	1.047281664E9	2670.10693359375	0.0	2.5731072E7	0.0	2.0	1.019858944E9	35.31915283203125	0.0	0.0	1.061339136E9	1.051193344E9	0.0	0.0	0.07500000298023224	0.05375000089406967	0.04924999922513962	0.9919999837875366	0.7761855125427246	0.0	244.0	371.0	0.0	0.0	0.0	0.0	0.0	0.0	null	null	null	null	null	null	null	null	337.0	339.0	336.0	336.0	335.0	340.0	338.0	338.0	337.0	335.0	332.0	
Mon Jun 05 21:03:00 UTC 2017	0.0	1.047281664E9	2670.10693359375	0.0	2.5731072E7	0.0	2.0	1.020039168E9	35.31915283203125	0.0	0.0	1.061339136E9	1.051193344E9	0.0	0.0	0.08049999922513962	0.050999999046325684	0.045249998569488525	0.9919999837875366	0.7761684060096741	0.0	244.0	371.0	0.0	0.0	0.0	0.0	0.0	0.0	null	null	null	null	null	null	null	null	335.0	334.0	334.0	339.0	332.0	334.0	334.0	331.0	336.0	332.0	340.0	
Mon Jun 05 21:02:00 UTC 2017	0.0	1.047281664E9	2670.10693359375	0.0	2.5731072E7	0.0	3.0	1.019858944E9	35.31915283203125	0.0	0.0	1.061339136E9	1.051193344E9	0.0	null	0.0729999989271164	0.05375000089406967	0.04899999871850014	0.9922500252723694	0.7761033177375793	0.0	244.0	371.0	0.0	0.0	0.0	0.0	0.0	0.0	null	null	null	null	null	null	null	null	335.0	337.0	335.0	335.0	334.0	340.0	337.0	335.0	335.0	338.0	335.0	
Mon Jun 05 21:01:00 UTC 2017	0.0	1.047281664E9	2370.81494140625	0.0	2.5731072E7	0.0	2.0	1.019645952E9	35.31915283203125	0.0	0.0	1.061339136E9	1.050165248E9	0.0	null	0.08799999952316284	0.04699999839067459	0.04774999991059303	0.9922500252723694	0.7760871648788452	0.0	244.0	371.0	0.0	0.0	0.0	0.0	0.0	0.0	null	null	null	null	null	null	null	null	334.0	334.0	338.0	333.0	339.0	334.0	335.0	335.0	333.0	336.0	334.0	
Mon Jun 05 21:00:00 UTC 2017	0.0	1.047281664E9	2370.81494140625	0.0	2.5731072E7	0.0	4.0	1.019736064E9	35.31915283203125	0.0	0.0	1.061339136E9	1.051193344E9	0.0	0.0	0.08275000005960464	0.05400000140070915	0.04774999991059303	0.9922500252723694	0.776080310344696	0.0	244.0	371.0	0.0	0.0	0.0	0.0	0.0	0.0	null	null	null	null	null	null	null	null	336.0	334.0	336.0	337.0	334.0	332.0	332.0	338.0	335.0	335.0	337.0	
Mon Jun 05 20:59:00 UTC 2017	0.0	1.047281664E9	2370.81494140625	0.0	2.5731072E7	0.0	2.0	1.019645952E9	46.443206787109375	0.0	0.0	1.061339136E9	1.050165248E9	0.0	0.0	0.07500000298023224	0.05400000140070915	0.04574999958276749	0.9922500252723694	0.7760617136955261	0.0	244.0	371.0	0.0	0.0	0.0	0.0	0.0	0.0	null	null	null	null	null	null	null	null	335.0	338.0	336.0	335.0	337.0	338.0	336.0	335.0	337.0	333.0	340.0	
Mon Jun 05 20:58:00 UTC 2017	0.0	1.047281664E9	2370.81494140625	0.0	2.5731072E7	0.0	2.0	1.019645952E9	46.443206787109375	0.0	0.0	1.061339136E9	1.050165248E9	0.0	0.0	0.07124999910593033	0.04874999821186066	0.05000000074505806	0.9922500252723694	0.7760186791419983	0.0	244.0	371.0	0.0	0.0	0.0	0.0	0.0	0.0	null	null	null	null	null	null	null	null	335.0	335.0	332.0	336.0	334.0	333.0	339.0	334.0	335.0	334.0	335.0	
Mon Jun 05 20:57:00 UTC 2017	0.0	1.047281664E9	2370.81494140625	0.0	2.5731072E7	0.0	3.0	1.019645952E9	46.443206787109375	0.0	0.0	1.061339136E9	1.051193344E9	0.0	0.0	0.07175000011920929	0.0507499985396862	0.04475000128149986	0.9917500019073486	0.7759966850280762	0.0	244.0	371.0	0.0	0.0	0.0	0.0	0.0	0.0	null	null	null	null	null	null	null	null	339.0	337.0	335.0	336.0	334.0	337.0	335.0	333.0	335.0	337.0	335.0	
Mon Jun 05 20:56:00 UTC 2017	0.0	1.047281664E9	2370.81494140625	0.0	2.5731072E7	0.0	4.0	1.019523072E9	46.443206787109375	0.0	0.0	1.061339136E9	1.050165248E9	0.0	0.0	0.07724999636411667	0.05000000074505806	0.04749999940395355	0.9922500252723694	0.7759951949119568	0.0	244.0	371.0	0.0	0.0	0.0	0.0	0.0	0.0	null	null	null	null	null	null	null	null	333.0	334.0	338.0	334.0	333.0	331.0	336.0	337.0	337.0	334.0	333.0	
Mon Jun 05 20:55:00 UTC 2017	0.0	1.047281664E9	3307.226318359375	0.0	2.5731072E7	0.0	2.0	1.019518976E9	46.443206787109375	0.0	0.0	1.061339136E9	1.051193344E9	0.0	0.0	0.0794999971985817	0.05050000175833702	0.04874999821186066	0.9917500019073486	0.7774806022644043	0.0	244.0	371.0	0.0	0.0	0.0	0.0	0.0	0.0	null	null	null	null	null	null	null	null	338.0	335.0	332.0	339.0	337.0	336.0	332.0	336.0	335.0	337.0	336.0	
Mon Jun 05 20:54:00 UTC 2017	0.0	1.047281664E9	3307.226318359375	0.0	2.5731072E7	0.0	2.0	1.019428864E9	46.443206787109375	0.0	0.0	1.061339136E9	1.051193344E9	0.0	0.0	0.06700000166893005	0.05274999886751175	0.04874999821186066	0.9919999837875366	0.7760847210884094	0.0	244.0	371.0	0.0	0.0	0.0	0.0	0.0	0.0	null	null	null	null	null	null	null	null	334.0	337.0	335.0	334.0	335.0	338.0	334.0	339.0	337.0	337.0	335.0	
Mon Jun 05 20:53:00 UTC 2017	0.0	1.047281664E9	3307.226318359375	0.0	2.5731072E7	0.0	2.0	1.019428864E9	46.443206787109375	0.0	0.0	1.061339136E9	1.051193344E9	0.0	0.0	0.07500000298023224	0.05299999937415123	0.04149999842047691	0.9922500252723694	0.7760617136955261	0.0	244.0	371.0	0.0	0.0	0.0	0.0	0.0	0.0	null	null	null	null	null	null	null	null	335.0	331.0	340.0	334.0	340.0	334.0	338.0	333.0	334.0	339.0	338.0	
Mon Jun 05 20:52:00 UTC 2017	0.0	1.047281664E9	3307.226318359375	0.0	2.5731072E7	0.0	5.0	1.019428864E9	48.75294876098633	0.0	0.0	1.061339136E9	1.051193344E9	0.0	0.0	0.0742499977350235	0.05400000140070915	0.0507499985396862	0.9922500252723694	0.7771464586257935	0.0	244.0	371.0	0.0	0.0	0.0	0.0	0.0	0.0	null	null	null	null	null	null	null	null	333.0	336.0	332.0	336.0	335.0	335.0	334.0	335.0	340.0	332.0	335.0	
Mon Jun 05 20:51:00 UTC 2017	0.0	1.047281664E9	3307.226318359375	0.0	2.5731072E7	0.0	4.0	1.019219968E9	33.36579513549805	0.0	0.0	1.061339136E9	1.051193344E9	0.0	0.0	0.10575000196695328	0.05025000125169754	0.04800000041723251	0.9925000071525574	0.7760240435600281	0.0	244.0	371.0	0.0	0.0	0.0	0.0	0.0	0.0	null	null	null	null	null	null	null	null	337.0	337.0	335.0	338.0	332.0	335.0	335.0	335.0	335.0	337.0	334.0	
Mon Jun 05 20:50:00 UTC 2017	0.0	1.047281664E9	3307.226318359375	0.0	2.5731072E7	0.0	2.0	1.01931008E9	33.36579513549805	0.0	0.0	1.061339136E9	1.051193344E9	0.0	0.0	0.07349999994039536	0.04874999821186066	0.04899999871850014	0.9922500252723694	0.7760264873504639	0.0	244.0	371.0	0.0	0.0	0.0	0.0	0.0	0.0	null	null	null	null	null	null	null	null	335.0	337.0	337.0	337.0	333.0	333.0	335.0	335.0	337.0	336.0	337.0	
Mon Jun 05 20:49:00 UTC 2017	0.0	1.047281664E9	2474.249755859375	0.0	2.5731072E7	0.0	2.0	1.019219968E9	42.79831314086914	0.0	0.0	1.061339136E9	1.050165248E9	0.0	0.0	0.07474999874830246	0.05225000157952309	0.04475000128149986	0.9922500252723694	0.7760089039802551	0.0	244.0	371.0	0.0	0.0	0.0	0.0	0.0	0.0	null	null	null	null	null	null	null	null	334.0	332.0	334.0	334.0	336.0	335.0	338.0	331.0	334.0	334.0	338.0	
Mon Jun 05 20:48:00 UTC 2017	0.0	1.047281664E9	2474.249755859375	0.0	2.5731072E7	0.0	3.0	1.019219968E9	42.79831314086914	0.0	0.0	1.061339136E9	1.050165248E9	0.0	0.0	0.07524999976158142	0.0507499985396862	0.050999999046325684	0.9922500252723694	0.7759634256362915	0.0	244.0	371.0	0.0	0.0	0.0	0.0	0.0	0.0	null	null	null	null	null	null	null	null	337.0	336.0	336.0	333.0	335.0	336.0	334.0	335.0	337.0	338.0	330.0	
Mon Jun 05 20:47:00 UTC 2017	0.0	1.047281664E9	2474.249755859375	0.0	2.5731072E7	0.0	2.0	1.019219968E9	42.79831314086914	0.0	0.0	1.061339136E9	1.051193344E9	0.0	0.0	0.07249999791383743	0.051249999552965164	0.04574999958276749	0.9919999837875366	0.7764335870742798	0.0	244.0	371.0	0.0	0.0	0.0	0.0	0.0	0.0	null	null	null	null	null	null	null	null	340.0	337.0	333.0	333.0	334.0	336.0	335.0	335.0	334.0	339.0	336.0	
Mon Jun 05 20:46:00 UTC 2017	0.0	1.047281664E9	2474.249755859375	0.0	2.5731072E7	0.0	3.0	1.018990592E9	63.55585861206055	0.0	0.0	1.061339136E9	1.050165248E9	0.0	0.0	0.06875000149011612	0.05274999886751175	0.04774999991059303	0.9922500252723694	0.7759687900543213	0.0	244.0	371.0	0.0	0.0	0.0	0.0	0.0	0.0	null	null	null	null	null	null	null	null	335.0	332.0	338.0	335.0	337.0	338.0	337.0	331.0	333.0	334.0	332.0	
Mon Jun 05 20:45:00 UTC 2017	0.0	1.047281664E9	2474.249755859375	0.0	2.5731072E7	0.0	4.0	1.019080704E9	60.88860321044922	0.0	0.0	1.061339136E9	1.050165248E9	0.0	0.0	0.0767500028014183	0.05400000140070915	0.052000001072883606	0.9919999837875366	0.776528000831604	0.0	244.0	371.0	0.0	0.0	0.0	0.0	0.0	0.0	null	null	null	null	null	null	null	null	335.0	335.0	332.0	334.0	334.0	335.0	335.0	337.0	336.0	336.0	336.0	
Mon Jun 05 20:44:00 UTC 2017	0.0	1.047281664E9	2474.249755859375	0.0	2.5731072E7	0.0	2.0	1.018990592E9	60.88860321044922	0.0	0.0	1.061339136E9	1.051193344E9	0.0	0.0	0.07349999994039536	0.05375000089406967	0.04874999821186066	0.9917500019073486	0.7759462594985962	0.0	244.0	371.0	0.0	0.0	0.0	0.0	0.0	0.0	null	null	null	null	null	null	null	null	336.0	335.0	336.0	335.0	334.0	335.0	333.0	335.0	338.0	335.0	333.0	
Mon Jun 05 20:43:00 UTC 2017	0.0	1.047281664E9	2474.249755859375	0.0	2.5731072E7	0.0	2.0	1.018990592E9	36.560848236083984	0.0	0.0	1.061339136E9	1.051193344E9	0.0	0.0	0.07225000113248825	0.04600000008940697	0.04399999976158142	0.9919999837875366	0.7759291529655457	0.0	244.0	371.0	0.0	0.0	0.0	0.0	0.0	0.0	null	null	null	null	null	null	null	null	338.0	337.0	331.0	336.0	335.0	335.0	339.0	332.0	333.0	334.0	334.0	
Mon Jun 05 20:42:00 UTC 2017	0.0	1.047281664E9	2596.1923828125	0.0	2.5731072E7	0.0	3.0	1.019301888E9	36.560848236083984	0.0	0.0	1.061339136E9	1.051193344E9	0.0	0.0	0.07524999976158142	0.05324999988079071	0.04774999991059303	0.9919999837875366	0.7759281992912292	0.0	244.0	371.0	0.0	0.0	0.0	0.0	0.0	0.0	null	null	null	null	null	null	null	null	340.0	334.0	336.0	335.0	337.0	336.0	336.0	335.0	335.0	332.0	334.0	
Mon Jun 05 20:41:00 UTC 2017	0.0	1.047281664E9	2441.79638671875	0.0	2.5731072E7	0.0	2.0	1.0187776E9	40.393310546875	0.0	0.0	1.061339136E9	1.051193344E9	0.0	0.0	0.0989999994635582	0.05375000089406967	0.051750000566244125	0.9922500252723694	0.7759056687355042	0.0	244.0	371.0	0.0	0.0	0.0	0.0	0.0	0.0	null	null	null	null	null	null	null	null	331.0	335.0	337.0	337.0	336.0	335.0	337.0	334.0	336.0	337.0	335.0	
Mon Jun 05 20:40:00 UTC 2017	0.0	1.047281664E9	2441.79638671875	0.0	2.5731072E7	0.0	2.0	1.018867712E9	57.586212158203125	0.0	0.0	1.061339136E9	1.051193344E9	0.0	0.0	0.0637499988079071	0.048500001430511475	0.04899999871850014	0.9922500252723694	0.7758675217628479	0.0	244.0	371.0	0.0	0.0	0.0	0.0	0.0	0.0	null	null	null	null	null	null	null	null	336.0	336.0	336.0	336.0	333.0	331.0	335.0	337.0	336.0	337.0	337.0	
Mon Jun 05 20:39:00 UTC 2017	0.0	1.047281664E9	3002.3466796875	0.0	2.5731072E7	0.0	2.0	1.018957824E9	66.52030181884766	0.0	0.0	1.061339136E9	1.051193344E9	0.0	0.0	0.07524999976158142	0.05624999850988388	0.045499999076128006	0.9919999837875366	0.7771161198616028	0.0	244.0	371.0	0.0	0.0	0.0	0.0	0.0	0.0	null	null	null	null	null	null	null	null	335.0	333.0	334.0	333.0	336.0	340.0	337.0	335.0	333.0	332.0	332.0	
Mon Jun 05 20:38:00 UTC 2017	0.0	1.047281664E9	3053.7724609375	0.0	2.5731072E7	0.0	2.0	1.0187776E9	66.52030181884766	0.0	0.0	1.061339136E9	1.051193344E9	0.0	null	0.07374999672174454	0.04574999958276749	0.04924999922513962	0.9919999837875366	0.7758567333221436	0.0	244.0	371.0	0.0	0.0	0.0	0.0	0.0	0.0	null	null	null	null	null	null	null	null	336.0	335.0	337.0	336.0	336.0	331.0	336.0	334.0	338.0	336.0	336.0	
Mon Jun 05 20:37:00 UTC 2017	0.0	1.047281664E9	2304.211181640625	0.0	2.5731072E7	0.0	4.0	1.0187776E9	66.52030181884766	0.0	0.0	1.061339136E9	1.050165248E9	0.0	0.0	0.07500000298023224	0.057999998331069946	0.04475000128149986	0.9922500252723694	0.7758420705795288	0.0	244.0	371.0	0.0	0.0	0.0	0.0	0.0	0.0	null	null	null	null	null	null	null	null	335.0	335.0	333.0	335.0	335.0	338.0	334.0	338.0	333.0	339.0	333.0	
Mon Jun 05 20:36:00 UTC 2017	0.0	1.047281664E9	3198.381103515625	0.0	2.5731072E7	0.0	2.0	1.018568704E9	72.87073516845703	0.0	0.0	1.061339136E9	1.051193344E9	0.0	null	0.08124999701976776	0.04675000160932541	0.04975000023841858	0.9922500252723694	0.7758386135101318	0.0	244.0	371.0	0.0	0.0	0.0	0.0	0.0	0.0	null	null	null	null	null	null	null	null	337.0	333.0	335.0	336.0	335.0	334.0	335.0	337.0	335.0	336.0	338.0	
Mon Jun 05 20:35:00 UTC 2017	0.0	1.047281664E9	2577.740478515625	0.0	2.5731072E7	0.0	2.0	1.018658816E9	72.87073516845703	0.0	0.0	1.061339136E9	1.051193344E9	0.0	null	0.07050000131130219	0.054499998688697815	0.04574999958276749	0.9922500252723694	0.7758210301399231	0.0	244.0	371.0	0.0	0.0	0.0	0.0	0.0	0.0	null	null	null	null	null	null	null	null	335.0	337.0	340.0	336.0	339.0	336.0	336.0	335.0	337.0	338.0	334.0	
Mon Jun 05 20:34:00 UTC 2017	0.0	1.047281664E9	2577.740478515625	0.0	2.5731072E7	0.0	2.0	1.018568704E9	72.87073516845703	0.0	0.0	1.061339136E9	1.050165248E9	0.0	null	0.07524999976158142	0.0507499985396862	0.05050000175833702	0.9922500252723694	0.7757661938667297	0.0	244.0	371.0	0.0	0.0	0.0	0.0	0.0	0.0	null	null	null	null	null	null	null	null	338.0	334.0	335.0	336.0	334.0	333.0	339.0	337.0	336.0	330.0	333.0	
Mon Jun 05 20:33:00 UTC 2017	0.0	1.047281664E9	3272.71533203125	0.0	2.5731072E7	0.0	2.0	1.018568704E9	49.27297592163086	0.0	0.0	1.061339136E9	1.051193344E9	0.0	null	0.0754999965429306	0.052000001072883606	0.04625000059604645	0.9919999837875366	0.7757495641708374	0.0	244.0	371.0	0.0	0.0	0.0	0.0	0.0	0.0	null	null	null	null	null	null	null	null	336.0	334.0	333.0	333.0	336.0	338.0	335.0	335.0	337.0	339.0	335.0	
Mon Jun 05 20:32:00 UTC 2017	0.0	1.047281664E9	3272.71533203125	0.0	2.5731072E7	0.0	4.0	1.018568704E9	49.27297592163086	0.0	0.0	1.061339136E9	1.050165248E9	0.0	0.0	0.06949999928474426	0.05575000122189522	0.05050000175833702	0.9922500252723694	0.7757539749145508	0.0	244.0	371.0	0.0	0.0	0.0	0.0	0.0	0.0	null	null	null	null	null	null	null	null	338.0	334.0	336.0	338.0	335.0	333.0	335.0	334.0	335.0	334.0	337.0	
Mon Jun 05 20:31:00 UTC 2017	0.0	1.047281664E9	3059.07373046875	0.0	2.5731072E7	0.0	2.0	1.018445824E9	49.27297592163086	0.0	0.0	1.061339136E9	1.051193344E9	0.0	0.0	0.1002499982714653	0.04975000023841858	0.04724999889731407	0.9919999837875366	0.7756189703941345	0.0	244.0	371.0	0.0	0.0	0.0	0.0	0.0	0.0	null	null	null	null	null	null	null	null	334.0	336.0	335.0	337.0	337.0	339.0	338.0	336.0	334.0	338.0	332.0	
Mon Jun 05 20:30:00 UTC 2017	0.0	1.047281664E9	3059.07373046875	0.0	2.5731072E7	0.0	2.0	1.018445824E9	49.79951858520508	0.0	0.0	1.061339136E9	1.051193344E9	0.0	null	0.06949999928474426	0.04625000059604645	0.04699999839067459	0.9919999837875366	0.776913583278656	0.0	244.0	371.0	0.0	0.0	0.0	0.0	0.0	0.0	null	null	null	null	null	null	null	null	340.0	335.0	330.0	335.0	332.0	332.0	335.0	334.0	336.0	334.0	334.0	
Mon Jun 05 20:29:00 UTC 2017	0.0	1.047281664E9	3059.07373046875	0.0	2.5731072E7	0.0	2.0	1.018355712E9	49.79951858520508	0.0	0.0	1.061339136E9	1.050165248E9	0.0	null	0.08124999701976776	0.051249999552965164	0.04924999922513962	0.9919999837875366	0.7776655554771423	0.0	244.0	371.0	0.0	0.0	0.0	0.0	0.0	0.0	null	null	null	null	null	null	null	null	336.0	338.0	338.0	336.0	338.0	339.0	335.0	337.0	337.0	333.0	334.0	
Mon Jun 05 20:28:00 UTC 2017	0.0	1.047281664E9	3059.07373046875	0.0	2.5731072E7	0.0	2.0	1.018355712E9	49.79951858520508	0.0	0.0	1.061339136E9	1.050165248E9	0.0	null	0.07400000095367432	0.051500000059604645	0.04924999922513962	0.9919999837875366	0.7776665687561035	0.0	244.0	371.0	0.0	0.0	0.0	0.0	0.0	0.0	null	null	null	null	null	null	null	null	334.0	334.0	333.0	332.0	333.0	332.0	334.0	331.0	335.0	333.0	336.0	
Mon Jun 05 20:27:00 UTC 2017	0.0	1.047281664E9	3059.07373046875	0.0	2.5731072E7	0.0	6.0	1.018601472E9	49.79951858520508	0.0	0.0	1.061339136E9	1.050165248E9	0.0	null	0.06849999725818634	0.05225000157952309	0.04574999958276749	0.9917500019073486	0.7757285237312317	0.0	244.0	371.0	0.0	0.0	0.0	0.0	0.0	0.0	null	null	null	null	null	null	null	null	335.0	334.0	340.0	338.0	337.0	339.0	336.0	336.0	335.0	337.0	337.0	
Mon Jun 05 20:26:00 UTC 2017	0.0	1.047281664E9	3059.07373046875	0.0	2.5731072E7	0.0	2.0	1.018232832E9	49.79951858520508	0.0	0.0	1.061339136E9	1.051193344E9	0.0	0.0	0.07100000232458115	0.05649999901652336	0.050999999046325684	0.9919999837875366	0.7757241725921631	0.0	244.0	371.0	0.0	0.0	0.0	0.0	0.0	0.0	null	null	null	null	null	null	null	null	337.0	338.0	334.0	333.0	334.0	336.0	337.0	339.0	334.0	333.0	334.0	
Mon Jun 05 20:25:00 UTC 2017	0.0	1.047281664E9	3059.07373046875	0.0	2.5731072E7	0.0	2.0	1.018232832E9	49.79951858520508	0.0	0.0	1.061339136E9	1.050165248E9	0.0	0.0	0.08174999803304672	0.04899999871850014	0.04475000128149986	0.9917500019073486	0.7759770750999451	0.0	244.0	371.0	0.0	0.0	0.0	0.0	0.0	0.0	null	null	null	null	null	null	null	null	340.0	332.0	337.0	339.0	337.0	334.0	338.0	335.0	338.0	336.0	341.0	
Mon Jun 05 20:24:00 UTC 2017	0.0	1.047281664E9	3059.07373046875	0.0	2.5731072E7	0.0	2.0	1.01814272E9	36.3034782409668	0.0	0.0	1.061339136E9	1.050165248E9	0.0	0.0	0.06925000250339508	0.051249999552965164	0.05000000074505806	0.9922500252723694	0.7756864428520203	0.0	244.0	371.0	0.0	0.0	0.0	0.0	0.0	0.0	null	null	null	null	null	null	null	null	332.0	337.0	336.0	332.0	333.0	337.0	334.0	335.0	334.0	334.0	336.0	
Mon Jun 05 20:23:00 UTC 2017	0.0	1.047281664E9	2906.202880859375	0.0	2.5731072E7	0.0	2.0	1.01814272E9	48.815555572509766	0.0	0.0	1.061339136E9	1.050165248E9	0.0	null	0.08375000208616257	0.05400000140070915	0.04500000178813934	0.9919999837875366	0.7779723405838013	0.0	244.0	371.0	0.0	0.0	0.0	0.0	0.0	0.0	null	null	null	null	null	null	null	null	336.0	333.0	333.0	335.0	337.0	335.0	334.0	336.0	336.0	337.0	337.0	
Mon Jun 05 20:22:00 UTC 2017	0.0	1.047281664E9	2906.202880859375	0.0	2.5731072E7	0.0	3.0	1.018392576E9	48.815555572509766	0.0	0.0	1.061339136E9	1.051193344E9	0.0	0.0	0.06274999678134918	0.051249999552965164	0.048250000923871994	0.9922500252723694	0.7756537199020386	0.0	244.0	371.0	0.0	0.0	0.0	0.0	0.0	0.0	null	null	null	null	null	null	null	null	335.0	338.0	333.0	335.0	336.0	332.0	334.0	337.0	337.0	332.0	334.0	
Mon Jun 05 20:21:00 UTC 2017	0.0	1.047281664E9	2906.202880859375	0.0	2.5731072E7	0.0	6.0	1.017933824E9	56.48493957519531	0.0	0.0	1.061339136E9	1.050165248E9	0.0	0.0	0.10374999791383743	0.05299999937415123	0.04774999991059303	0.9919999837875366	0.7756223678588867	0.0	244.0	371.0	0.0	0.0	0.0	0.0	0.0	0.0	null	null	null	null	null	null	null	null	336.0	335.0	337.0	334.0	335.0	336.0	336.0	335.0	338.0	337.0	333.0	
Mon Jun 05 20:20:00 UTC 2017	0.0	1.047281664E9	2906.202880859375	0.0	2.5731072E7	0.0	2.0	1.018023936E9	44.12778854370117	0.0	0.0	1.061339136E9	1.051193344E9	0.0	0.0	0.06949999928474426	0.05050000175833702	0.04874999821186066	0.9922500252723694	0.7755876183509827	0.0	244.0	371.0	0.0	0.0	0.0	0.0	0.0	0.0	null	null	null	null	null	null	null	null	337.0	335.0	335.0	335.0	336.0	336.0	336.0	335.0	335.0	332.0	335.0	
Mon Jun 05 20:19:00 UTC 2017	0.0	1.047281664E9	2906.202880859375	0.0	2.5731072E7	0.0	2.0	1.017933824E9	44.12778854370117	0.0	0.0	1.061339136E9	1.051193344E9	0.0	0.0	0.07275000214576721	0.0507499985396862	0.051750000566244125	0.9925000071525574	0.7756184339523315	0.0	244.0	371.0	0.0	0.0	0.0	0.0	0.0	0.0	null	null	null	null	null	null	null	null	333.0	335.0	336.0	336.0	335.0	338.0	335.0	337.0	336.0	339.0	340.0	
Mon Jun 05 20:18:00 UTC 2017	0.0	1.047281664E9	2906.202880859375	0.0	2.5731072E7	0.0	2.0	1.017933824E9	44.12778854370117	0.0	0.0	1.061339136E9	1.051193344E9	0.0	0.0	0.07150000333786011	0.0507499985396862	0.0442500002682209	0.9922500252723694	0.7755979299545288	0.0	244.0	371.0	0.0	0.0	0.0	0.0	0.0	0.0	null	null	null	null	null	null	null	null	336.0	334.0	337.0	336.0	338.0	338.0	337.0	336.0	334.0	333.0	332.0	
Mon Jun 05 20:17:00 UTC 2017	0.0	1.047281664E9	2463.36376953125	0.0	2.5731072E7	0.0	3.0	1.017933824E9	44.12778854370117	0.0	0.0	1.061339136E9	1.051193344E9	0.0	0.0	0.07625000178813934	0.05624999850988388	0.0507499985396862	0.9922500252723694	0.7755979299545288	0.0	244.0	371.0	0.0	0.0	0.0	0.0	0.0	0.0	null	null	null	null	null	null	null	null	335.0	337.0	334.0	334.0	332.0	332.0	336.0	333.0	337.0	337.0	336.0	
Mon Jun 05 20:16:00 UTC 2017	0.0	1.047281664E9	2463.36376953125	0.0	2.5731072E7	0.0	5.0	1.017720832E9	44.12778854370117	0.0	0.0	1.061339136E9	1.050165248E9	0.0	0.0	0.07724999636411667	0.04874999821186066	0.04899999871850014	0.9919999837875366	0.7772722244262695	0.0	244.0	371.0	0.0	0.0	0.0	0.0	0.0	0.0	null	null	null	null	null	null	null	null	336.0	332.0	331.0	337.0	336.0	338.0	333.0	335.0	335.0	334.0	335.0	
Mon Jun 05 20:15:00 UTC 2017	0.0	1.047281664E9	3720.96337890625	0.0	2.5731072E7	0.0	3.0	1.017810944E9	44.12778854370117	0.0	0.0	1.061339136E9	1.051193344E9	0.0	0.0	0.07124999910593033	0.048250000923871994	0.04149999842047691	0.9919999837875366	0.7755744457244873	0.0	244.0	371.0	0.0	0.0	0.0	0.0	0.0	0.0	null	null	null	null	null	null	null	null	336.0	336.0	337.0	334.0	335.0	339.0	335.0	336.0	337.0	336.0	336.0	
Mon Jun 05 20:14:00 UTC 2017	0.0	1.047281664E9	3720.96337890625	0.0	2.5731072E7	0.0	6.0	1.017720832E9	44.12778854370117	0.0	0.0	1.061339136E9	1.050165248E9	0.0	0.0	0.0742499977350235	0.052000001072883606	0.05274999886751175	0.9922500252723694	0.7755764126777649	0.0	244.0	371.0	0.0	0.0	0.0	0.0	0.0	0.0	null	null	null	null	null	null	null	null	335.0	334.0	331.0	335.0	334.0	335.0	336.0	336.0	333.0	336.0	334.0	
Mon Jun 05 20:13:00 UTC 2017	0.0	1.047281664E9	3720.96337890625	0.0	2.5731072E7	0.0	4.0	1.017720832E9	50.75190353393555	0.0	0.0	1.061339136E9	1.050165248E9	0.0	0.0	0.08425000309944153	0.054249998182058334	0.048500001430511475	0.9919999837875366	0.7773181796073914	0.0	244.0	371.0	0.0	0.0	0.0	0.0	0.0	0.0	null	null	null	null	null	null	null	null	335.0	335.0	334.0	333.0	337.0	332.0	335.0	336.0	336.0	335.0	336.0	
Mon Jun 05 20:12:00 UTC 2017	0.0	1.047281664E9	3720.96337890625	0.0	2.5731072E7	0.0	3.0	1.017966592E9	50.75190353393555	0.0	0.0	1.061339136E9	1.050165248E9	0.0	0.0	0.07124999910593033	0.054749999195337296	0.04800000041723251	0.9922500252723694	0.7755406498908997	0.0	244.0	371.0	0.0	0.0	0.0	0.0	0.0	0.0	null	null	null	null	null	null	null	null	337.0	335.0	334.0	334.0	333.0	338.0	335.0	333.0	333.0	335.0	336.0	
Mon Jun 05 20:11:00 UTC 2017	0.0	1.047281664E9	2247.006591796875	0.0	2.5731072E7	0.0	4.0	1.01750784E9	50.75190353393555	0.0	0.0	1.061339136E9	1.051193344E9	0.0	0.0	0.09974999725818634	0.04924999922513962	0.05025000125169754	0.9919999837875366	0.7755225896835327	0.0	244.0	371.0	0.0	0.0	0.0	0.0	0.0	0.0	null	null	null	null	null	null	null	null	336.0	336.0	336.0	337.0	337.0	337.0	336.0	336.0	336.0	336.0	333.0	
Mon Jun 05 20:10:00 UTC 2017	0.0	1.047281664E9	2771.170166015625	0.0	2.5731072E7	0.0	4.0	1.017892864E9	50.75190353393555	0.0	0.0	1.061339136E9	1.051193344E9	0.0	0.0	0.07925000041723251	0.05025000125169754	0.04475000128149986	0.9922500252723694	0.7754056453704834	0.0	244.0	371.0	0.0	0.0	0.0	0.0	0.0	0.0	null	null	null	null	null	null	null	null	333.0	334.0	340.0	336.0	336.0	336.0	337.0	337.0	335.0	334.0	335.0	
Mon Jun 05 20:09:00 UTC 2017	0.0	1.047281664E9	3032.886962890625	0.0	2.5731072E7	0.0	3.0	1.017577472E9	74.36369323730469	0.0	0.0	1.061339136E9	1.050165248E9	0.0	0.0	0.07050000131130219	0.04650000110268593	0.04749999940395355	0.9922500252723694	0.7764957547187805	0.0	244.0	371.0	0.0	0.0	0.0	0.0	0.0	0.0	null	null	null	null	null	null	null	null	338.0	338.0	331.0	335.0	337.0	334.0	332.0	334.0	337.0	336.0	335.0	
Mon Jun 05 20:08:00 UTC 2017	0.0	1.047281664E9	3032.886962890625	0.0	2.5731072E7	0.0	2.0	1.017577472E9	74.36369323730469	0.0	0.0	1.061339136E9	1.050165248E9	0.0	0.0	0.0820000022649765	0.057750001549720764	0.05225000157952309	0.9922500252723694	0.7753826379776001	0.0	244.0	371.0	0.0	0.0	0.0	0.0	0.0	0.0	null	null	null	null	null	null	null	null	331.0	332.0	335.0	337.0	334.0	337.0	335.0	334.0	336.0	339.0	337.0	
Mon Jun 05 20:07:00 UTC 2017	0.0	1.047281664E9	2543.069580078125	0.0	2.5731072E7	0.0	3.0	1.017823232E9	43.89060592651367	0.0	0.0	1.061339136E9	1.051193344E9	0.0	0.0	0.07850000262260437	0.05225000157952309	0.04874999821186066	0.9922500252723694	0.7753615975379944	0.0	244.0	371.0	0.0	0.0	0.0	0.0	0.0	0.0	null	null	null	null	null	null	null	null	338.0	335.0	336.0	335.0	335.0	337.0	337.0	337.0	336.0	334.0	336.0	
Mon Jun 05 20:06:00 UTC 2017	0.0	1.047281664E9	2543.069580078125	0.0	2.5731072E7	0.0	2.0	1.017360384E9	64.39274597167969	0.0	0.0	1.061339136E9	1.050165248E9	0.0	0.0	0.07074999809265137	0.05025000125169754	0.04475000128149986	0.9922500252723694	0.7753552198410034	0.0	244.0	371.0	0.0	0.0	0.0	0.0	0.0	0.0	null	null	null	null	null	null	null	null	335.0	336.0	334.0	332.0	333.0	337.0	334.0	334.0	334.0	334.0	339.0	
Mon Jun 05 20:05:00 UTC 2017	0.0	1.047281664E9	2908.8251953125	0.0	2.5731072E7	0.0	2.0	1.017450496E9	74.1594467163086	0.0	0.0	1.061339136E9	1.051193344E9	0.0	0.0	0.07824999839067459	0.051750000566244125	0.04675000160932541	0.9922500252723694	0.7753434777259827	0.0	244.0	371.0	0.0	0.0	0.0	0.0	0.0	0.0	null	null	null	null	null	null	null	null	337.0	335.0	336.0	334.0	337.0	334.0	336.0	336.0	337.0	335.0	335.0	
Mon Jun 05 20:04:00 UTC 2017	0.0	1.047281664E9	3144.936767578125	0.0	2.5731072E7	0.0	3.0	1.017360384E9	74.1594467163086	0.0	0.0	1.061339136E9	1.050165248E9	0.0	0.0	0.07249999791383743	0.05375000089406967	0.051500000059604645	0.9922500252723694	0.7752989530563354	0.0	244.0	371.0	0.0	0.0	0.0	0.0	0.0	0.0	null	null	null	null	null	null	null	null	337.0	333.0	335.0	337.0	338.0	337.0	336.0	337.0	334.0	337.0	337.0	
Mon Jun 05 20:03:00 UTC 2017	0.0	1.047281664E9	3144.936767578125	0.0	2.5731072E7	0.0	2.0	1.017360384E9	74.1594467163086	0.0	0.0	1.061339136E9	1.050165248E9	0.0	0.0	0.06949999928474426	0.051750000566244125	0.048250000923871994	0.9922500252723694	0.7775784730911255	0.0	244.0	371.0	0.0	0.0	0.0	0.0	0.0	0.0	null	null	null	null	null	null	null	null	334.0	337.0	332.0	334.0	332.0	335.0	335.0	333.0	337.0	332.0	333.0	
Mon Jun 05 20:02:00 UTC 2017	0.0	1.047281664E9	2761.67724609375	0.0	2.5731072E7	0.0	3.0	1.017360384E9	74.1594467163086	0.0	0.0	1.061339136E9	1.051193344E9	0.0	0.0	0.0754999965429306	0.04500000178813934	0.05225000157952309	0.9922500252723694	0.7752798795700073	0.0	244.0	371.0	0.0	0.0	0.0	0.0	0.0	0.0	null	null	null	null	null	null	null	null	335.0	335.0	339.0	337.0	337.0	336.0	334.0	337.0	336.0	337.0	333.0	
Mon Jun 05 20:01:00 UTC 2017	0.0	1.047281664E9	2423.504150390625	0.0	2.5731072E7	0.0	2.0	1.0172416E9	54.76532745361328	0.0	0.0	1.061339136E9	1.051193344E9	0.0	0.0	0.0989999994635582	0.05624999850988388	0.04574999958276749	0.9922500252723694	0.7775471806526184	0.0	244.0	371.0	0.0	0.0	0.0	0.0	0.0	0.0	null	null	null	null	null	null	null	null	337.0	337.0	336.0	336.0	334.0	334.0	335.0	335.0	337.0	334.0	336.0	
Mon Jun 05 20:00:00 UTC 2017	0.0	1.047281664E9	2443.85595703125	0.0	2.5731072E7	0.0	6.0	1.0172416E9	59.19121170043945	0.0	0.0	1.061339136E9	1.051193344E9	0.0	null	0.07975000143051147	0.052000001072883606	0.04975000023841858	0.9919999837875366	0.7752544283866882	0.0	244.0	371.0	0.0	0.0	0.0	0.0	0.0	0.0	null	null	null	null	null	null	null	null	336.0	336.0	335.0	335.0	336.0	334.0	333.0	334.0	336.0	334.0	335.0	
Mon Jun 05 19:59:00 UTC 2017	0.0	1.047281664E9	2260.182373046875	0.0	2.5731072E7	0.0	2.0	1.017151488E9	59.19121170043945	0.0	0.0	1.061339136E9	1.050165248E9	0.0	0.0	0.06949999928474426	0.04650000110268593	0.0507499985396862	0.9922500252723694	0.7752382755279541	0.0	244.0	371.0	0.0	0.0	0.0	0.0	0.0	0.0	null	null	null	null	null	null	null	null	338.0	336.0	340.0	334.0	334.0	335.0	337.0	336.0	338.0	339.0	336.0	
Mon Jun 05 19:58:00 UTC 2017	0.0	1.047281664E9	2260.182373046875	0.0	2.5731072E7	0.0	2.0	1.017151488E9	59.19121170043945	0.0	0.0	1.061339136E9	1.051193344E9	0.0	0.0	0.07199999690055847	0.05674999952316284	0.04874999821186066	0.9919999837875366	0.7752285003662109	0.0	244.0	371.0	0.0	0.0	0.0	0.0	0.0	0.0	null	null	null	null	null	null	null	null	333.0	336.0	335.0	335.0	338.0	333.0	337.0	333.0	334.0	335.0	336.0	
Mon Jun 05 19:57:00 UTC 2017	0.0	1.047281664E9	2260.182373046875	0.0	2.5731072E7	0.0	3.0	1.017151488E9	59.19121170043945	0.0	0.0	1.061339136E9	1.051193344E9	0.0	0.0	0.07925000041723251	0.048500001430511475	0.042500000447034836	0.9922500252723694	0.7764360308647156	0.0	244.0	371.0	0.0	0.0	0.0	0.0	0.0	0.0	null	null	null	null	null	null	null	null	337.0	335.0	333.0	335.0	333.0	335.0	332.0	336.0	336.0	336.0	334.0	
Mon Jun 05 19:56:00 UTC 2017	0.0	1.047281664E9	2260.182373046875	0.0	2.5731072E7	0.0	2.0	1.016938496E9	44.10332107543945	0.0	0.0	1.061339136E9	1.051193344E9	0.0	0.0	0.07699999958276749	0.0507499985396862	0.05324999988079071	0.9919999837875366	0.7751947641372681	0.0	244.0	371.0	0.0	0.0	0.0	0.0	0.0	0.0	null	null	null	null	null	null	null	null	334.0	334.0	336.0	336.0	339.0	337.0	341.0	336.0	337.0	335.0	337.0	
Mon Jun 05 19:55:00 UTC 2017	0.0	1.047281664E9	2608.202392578125	0.0	2.5731072E7	0.0	2.0	1.017028608E9	44.10332107543945	0.0	0.0	1.061339136E9	1.050165248E9	0.0	0.0	0.0729999989271164	0.05274999886751175	0.04450000077486038	0.9922500252723694	0.7751805782318115	0.0	244.0	371.0	0.0	0.0	0.0	0.0	0.0	0.0	null	null	null	null	null	null	null	null	339.0	334.0	339.0	337.0	335.0	333.0	333.0	334.0	335.0	332.0	336.0	
Mon Jun 05 19:54:00 UTC 2017	0.0	1.047281664E9	2608.202392578125	0.0	2.5731072E7	0.0	3.0	1.016938496E9	48.29352569580078	0.0	0.0	1.061339136E9	1.050165248E9	0.0	0.0	0.07649999856948853	0.05674999952316284	0.0507499985396862	0.9919999837875366	0.7751120924949646	0.0	244.0	371.0	0.0	0.0	0.0	0.0	0.0	0.0	null	null	null	null	null	null	null	null	334.0	337.0	334.0	337.0	336.0	335.0	333.0	335.0	338.0	335.0	336.0	
Mon Jun 05 19:53:00 UTC 2017	0.0	1.047281664E9	2412.68603515625	0.0	2.5731072E7	0.0	2.0	1.016938496E9	48.29352569580078	0.0	0.0	1.061339136E9	1.050165248E9	0.0	0.0	0.07524999976158142	0.04899999871850014	0.045499999076128006	0.9922500252723694	0.7750929594039917	0.0	244.0	371.0	0.0	0.0	0.0	0.0	0.0	0.0	null	null	null	null	null	null	null	null	339.0	333.0	333.0	336.0	334.0	336.0	334.0	335.0	335.0	336.0	333.0	
Mon Jun 05 19:52:00 UTC 2017	0.0	1.047281664E9	3502.267578125	0.0	2.5731072E7	0.0	2.0	1.016938496E9	67.99393463134766	0.0	0.0	1.061339136E9	1.051193344E9	0.0	0.0	0.06599999964237213	0.05350000038743019	0.05025000125169754	0.9922500252723694	0.7751580476760864	0.0	244.0	371.0	0.0	0.0	0.0	0.0	0.0	0.0	null	null	null	null	null	null	null	null	337.0	339.0	339.0	336.0	336.0	336.0	336.0	335.0	333.0	335.0	337.0	
Mon Jun 05 19:51:00 UTC 2017	0.0	1.047281664E9	3345.791259765625	0.0	2.5731072E7	0.0	6.0	1.016725504E9	46.792213439941406	0.0	0.0	1.061339136E9	1.051193344E9	0.0	0.0	0.10499999672174454	0.05324999988079071	0.04899999871850014	0.9917500019073486	0.7751414179801941	0.0	244.0	371.0	0.0	0.0	0.0	0.0	0.0	0.0	null	null	null	null	null	null	null	null	336.0	335.0	334.0	337.0	336.0	336.0	333.0	333.0	337.0	337.0	335.0	
Mon Jun 05 19:50:00 UTC 2017	0.0	1.047281664E9	3345.791259765625	0.0	2.5731072E7	0.0	3.0	1.016815616E9	46.792213439941406	0.0	0.0	1.061339136E9	1.050165248E9	0.0	0.0	0.06674999743700027	0.052000001072883606	0.04475000128149986	0.9919999837875366	0.7766175270080566	0.0	244.0	371.0	0.0	0.0	0.0	0.0	0.0	0.0	null	null	null	null	null	null	null	null	336.0	334.0	336.0	336.0	335.0	337.0	332.0	333.0	334.0	337.0	336.0	
Mon Jun 05 19:49:00 UTC 2017	0.0	1.047281664E9	3345.791259765625	0.0	2.5731072E7	0.0	2.0	1.016725504E9	49.500038146972656	0.0	0.0	1.061339136E9	1.051193344E9	0.0	0.0	0.07874999940395355	0.04774999991059303	0.04800000041723251	0.9919999837875366	0.7751511931419373	0.0	244.0	371.0	0.0	0.0	0.0	0.0	0.0	0.0	null	null	null	null	null	null	null	null	333.0	331.0	333.0	332.0	336.0	342.0	334.0	333.0	338.0	335.0	335.0	
Mon Jun 05 19:48:00 UTC 2017	0.0	1.047281664E9	3345.791259765625	0.0	2.5731072E7	0.0	2.0	1.016725504E9	71.56623840332031	0.0	0.0	1.061339136E9	1.051193344E9	0.0	null	0.07349999994039536	0.0494999997317791	0.04749999940395355	0.9919999837875366	0.77623051404953	0.0	244.0	371.0	0.0	0.0	0.0	0.0	0.0	0.0	null	null	null	null	null	null	null	null	336.0	337.0	334.0	335.0	336.0	332.0	336.0	339.0	334.0	333.0	335.0	
Mon Jun 05 19:47:00 UTC 2017	0.0	1.047281664E9	3345.791259765625	0.0	2.5731072E7	0.0	2.0	1.01697536E9	66.18949127197266	0.0	0.0	1.061339136E9	1.050165248E9	0.0	null	0.07925000041723251	0.05624999850988388	0.04699999839067459	0.9917500019073486	0.7750846743583679	0.0	244.0	371.0	0.0	0.0	0.0	0.0	0.0	0.0	null	null	null	null	null	null	null	null	339.0	334.0	336.0	339.0	333.0	339.0	332.0	333.0	333.0	336.0	336.0	
Mon Jun 05 19:46:00 UTC 2017	0.0	1.047281664E9	3345.791259765625	0.0	2.5731072E7	0.0	2.0	1.016516608E9	66.18949127197266	0.0	0.0	1.061339136E9	1.051193344E9	0.0	0.0	0.06750000268220901	0.04600000008940697	0.04800000041723251	0.9925000071525574	0.7750831842422485	0.0	244.0	371.0	0.0	0.0	0.0	0.0	0.0	0.0	null	null	null	null	null	null	null	null	333.0	335.0	339.0	334.0	338.0	333.0	340.0	333.0	336.0	336.0	336.0	
Mon Jun 05 19:45:00 UTC 2017	0.0	1.047281664E9	2843.395263671875	0.0	2.5731072E7	0.0	2.0	1.01660672E9	66.18949127197266	0.0	0.0	1.061339136E9	1.050165248E9	0.0	0.0	0.08150000125169754	0.05000000074505806	0.048500001430511475	0.9922500252723694	0.7750641107559204	0.0	244.0	371.0	0.0	0.0	0.0	0.0	0.0	0.0	null	null	null	null	null	null	null	null	335.0	337.0	333.0	335.0	336.0	337.0	337.0	339.0	339.0	332.0	336.0	
Mon Jun 05 19:44:00 UTC 2017	0.0	1.047281664E9	3215.6943359375	0.0	2.5731072E7	0.0	2.0	1.016516608E9	46.522918701171875	0.0	0.0	1.061339136E9	1.050165248E9	0.0	0.0	0.07275000214576721	0.05925000086426735	0.05225000157952309	0.9922500252723694	0.7750704884529114	0.0	244.0	371.0	0.0	0.0	0.0	0.0	0.0	0.0	null	null	null	null	null	null	null	null	337.0	334.0	335.0	338.0	335.0	337.0	333.0	333.0	333.0	336.0	336.0	
Mon Jun 05 19:43:00 UTC 2017	0.0	1.047281664E9	3215.6943359375	0.0	2.5731072E7	0.0	3.0	1.016696832E9	56.69585418701172	0.0	0.0	1.061339136E9	1.050165248E9	0.0	0.0	0.06975000351667404	0.048250000923871994	0.0442500002682209	0.9919999837875366	0.7750548124313354	0.0	244.0	371.0	0.0	0.0	0.0	0.0	0.0	0.0	null	null	null	null	null	null	null	null	333.0	337.0	340.0	335.0	335.0	334.0	334.0	337.0	335.0	336.0	336.0	
Mon Jun 05 19:42:00 UTC 2017	0.0	1.047281664E9	2590.6572265625	0.0	2.5731072E7	0.0	2.0	1.016762368E9	54.40232849121094	0.0	0.0	1.061339136E9	1.051193344E9	0.0	0.0	0.0767500028014183	0.04874999821186066	0.04749999940395355	0.9917500019073486	0.7750381827354431	0.0	244.0	371.0	0.0	0.0	0.0	0.0	0.0	0.0	null	null	null	null	null	null	null	null	334.0	333.0	332.0	334.0	335.0	333.0	334.0	337.0	335.0	333.0	336.0	
Mon Jun 05 19:41:00 UTC 2017	0.0	1.047281664E9	2562.187744140625	0.0	2.5731072E7	0.0	2.0	1.016303616E9	54.40232849121094	0.0	0.0	1.061339136E9	1.051193344E9	0.0	0.0	0.09700000286102295	0.0560000017285347	0.04650000110268593	0.9919999837875366	0.7750342488288879	0.0	244.0	371.0	0.0	0.0	0.0	0.0	0.0	0.0	null	null	null	null	null	null	null	null	338.0	336.0	335.0	333.0	336.0	336.0	338.0	334.0	335.0	335.0	337.0	
Mon Jun 05 19:40:00 UTC 2017	0.0	1.047281664E9	2562.187744140625	0.0	2.5731072E7	0.0	2.0	1.016393728E9	54.40232849121094	0.0	0.0	1.061339136E9	1.051193344E9	0.0	0.0	0.07975000143051147	0.04650000110268593	0.05249999836087227	0.9919999837875366	0.7750117778778076	0.0	244.0	371.0	0.0	0.0	0.0	0.0	0.0	0.0	null	null	null	null	null	null	null	null	333.0	332.0	336.0	337.0	334.0	337.0	333.0	335.0	332.0	335.0	332.0	
Mon Jun 05 19:39:00 UTC 2017	0.0	1.047281664E9	2562.187744140625	0.0	2.5731072E7	0.0	2.0	1.016303616E9	54.40232849121094	0.0	0.0	1.061339136E9	1.051193344E9	0.0	0.0	0.07750000059604645	0.051500000059604645	0.04324999824166298	0.9917500019073486	0.7772760987281799	0.0	244.0	371.0	0.0	0.0	0.0	0.0	0.0	0.0	null	null	null	null	null	null	null	null	336.0	337.0	335.0	337.0	334.0	334.0	333.0	334.0	336.0	336.0	335.0	
Mon Jun 05 19:38:00 UTC 2017	0.0	1.047281664E9	3098.8447265625	0.0	2.5731072E7	0.0	2.0	1.016303616E9	54.40232849121094	0.0	0.0	1.061339136E9	1.051193344E9	0.0	0.0	0.06724999845027924	0.05225000157952309	0.0507499985396862	0.9917500019073486	0.7749863266944885	0.0	244.0	371.0	0.0	0.0	0.0	0.0	0.0	0.0	null	null	null	null	null	null	null	null	336.0	334.0	336.0	336.0	337.0	333.0	336.0	337.0	334.0	337.0	336.0	
Mon Jun 05 19:37:00 UTC 2017	0.0	1.047281664E9	3098.8447265625	0.0	2.5731072E7	0.0	2.0	1.016303616E9	54.40232849121094	0.0	0.0	1.061339136E9	1.051193344E9	0.0	0.0	0.08425000309944153	0.0572500005364418	0.04749999940395355	0.9922500252723694	0.7749633193016052	0.0	244.0	371.0	0.0	0.0	0.0	0.0	0.0	0.0	null	null	null	null	null	null	null	null	335.0	332.0	334.0	334.0	334.0	334.0	332.0	337.0	337.0	334.0	336.0	
Mon Jun 05 19:36:00 UTC 2017	0.0	1.047281664E9	3098.8447265625	0.0	2.5731072E7	0.0	3.0	1.016090624E9	47.42055892944336	0.0	0.0	1.061339136E9	1.051193344E9	0.0	0.0	0.07524999976158142	0.04724999889731407	0.04774999991059303	0.9919999837875366	0.7749466896057129	0.0	244.0	371.0	0.0	0.0	0.0	0.0	0.0	0.0	null	null	null	null	null	null	null	null	336.0	338.0	336.0	337.0	337.0	336.0	332.0	333.0	333.0	337.0	334.0	
Mon Jun 05 19:35:00 UTC 2017	0.0	1.047281664E9	2512.0888671875	0.0	2.5731072E7	0.0	2.0	1.016180736E9	47.42055892944336	0.0	0.0	1.061339136E9	1.050165248E9	0.0	0.0	0.06525000184774399	0.05824999883770943	0.04899999871850014	0.9922500252723694	0.7772154211997986	0.0	244.0	371.0	0.0	0.0	0.0	0.0	0.0	0.0	null	null	null	null	null	null	null	null	336.0	335.0	334.0	334.0	332.0	337.0	338.0	337.0	337.0	334.0	335.0	
Mon Jun 05 19:34:00 UTC 2017	0.0	1.047281664E9	2570.003173828125	0.0	2.5731072E7	0.0	3.0	1.016090624E9	35.36099624633789	0.0	0.0	1.061339136E9	1.051193344E9	0.0	0.0	0.08049999922513962	0.04975000023841858	0.04574999958276749	0.9922500252723694	0.7749437689781189	0.0	244.0	371.0	0.0	0.0	0.0	0.0	0.0	0.0	null	null	null	null	null	null	null	null	335.0	334.0	336.0	337.0	334.0	338.0	337.0	330.0	331.0	338.0	332.0	
Mon Jun 05 19:33:00 UTC 2017	0.0	1.047281664E9	2355.06494140625	0.0	2.5731072E7	0.0	2.0	1.016090624E9	31.02869415283203	0.0	0.0	1.061339136E9	1.051193344E9	0.0	0.0	0.06925000250339508	0.051249999552965164	0.04924999922513962	0.9919999837875366	0.7749295830726624	0.0	244.0	371.0	0.0	0.0	0.0	0.0	0.0	0.0	null	null	null	null	null	null	null	null	339.0	338.0	337.0	333.0	335.0	332.0	334.0	338.0	334.0	333.0	333.0	
Mon Jun 05 19:32:00 UTC 2017	0.0	1.047281664E9	2355.06494140625	0.0	2.5731072E7	0.0	3.0	1.016090624E9	46.2174186706543	0.0	0.0	1.061339136E9	1.051193344E9	0.0	0.0	0.08524999767541885	0.05575000122189522	0.04675000160932541	0.9922500252723694	0.7749373912811279	0.0	244.0	371.0	0.0	0.0	0.0	0.0	0.0	0.0	null	null	null	null	null	null	null	null	332.0	336.0	338.0	334.0	336.0	334.0	336.0	332.0	333.0	336.0	338.0	
Mon Jun 05 19:31:00 UTC 2017	0.0	1.047281664E9	2641.587646484375	0.0	2.5731072E7	0.0	3.0	1.015877632E9	47.768436431884766	0.0	0.0	1.061339136E9	1.051193344E9	0.0	0.0	0.09749999642372131	0.04625000059604645	0.04699999839067459	0.9922500252723694	0.7749183177947998	0.0	244.0	371.0	0.0	0.0	0.0	0.0	0.0	0.0	null	null	null	null	null	null	null	null	339.0	336.0	334.0	336.0	337.0	337.0	334.0	340.0	336.0	333.0	338.0	
Mon Jun 05 19:30:00 UTC 2017	0.0	1.047281664E9	2641.587646484375	0.0	2.5731072E7	0.0	2.0	1.015967744E9	47.768436431884766	0.0	0.0	1.061339136E9	1.050165248E9	0.0	0.0	0.07349999994039536	0.054999999701976776	0.051750000566244125	0.9922500252723694	0.7749804258346558	0.0	244.0	371.0	0.0	0.0	0.0	0.0	0.0	0.0	null	null	null	null	null	null	null	null	335.0	336.0	336.0	337.0	333.0	336.0	338.0	334.0	334.0	336.0	334.0	
Mon Jun 05 19:29:00 UTC 2017	0.0	1.047281664E9	3297.275146484375	0.0	2.5731072E7	0.0	2.0	1.01586944E9	47.768436431884766	0.0	0.0	1.061339136E9	1.051193344E9	0.0	0.0	0.07900000363588333	0.0507499985396862	0.0430000014603138	0.9919999837875366	0.7748972773551941	0.0	244.0	371.0	0.0	0.0	0.0	0.0	0.0	0.0	null	null	null	null	null	null	null	null	334.0	337.0	334.0	333.0	335.0	332.0	334.0	332.0	335.0	335.0	335.0	
Mon Jun 05 19:28:00 UTC 2017	0.0	1.047281664E9	3297.275146484375	0.0	2.5731072E7	0.0	3.0	1.01586944E9	47.768436431884766	0.0	0.0	1.061339136E9	1.051193344E9	0.0	0.0	0.07349999994039536	0.04774999991059303	0.050999999046325684	0.9922500252723694	0.7748806476593018	0.0	244.0	371.0	0.0	0.0	0.0	0.0	0.0	0.0	null	null	null	null	null	null	null	null	337.0	337.0	335.0	337.0	335.0	339.0	334.0	333.0	334.0	339.0	334.0	
Mon Jun 05 19:27:00 UTC 2017	0.0	1.047281664E9	3297.275146484375	0.0	2.5731072E7	0.0	8.0	1.016119296E9	55.45755386352539	0.0	0.0	1.061339136E9	1.051193344E9	0.0	null	0.07325000315904617	0.054999999701976776	0.04874999821186066	0.9922500252723694	0.775704562664032	0.0	244.0	371.0	0.0	0.0	0.0	0.0	0.0	0.0	null	null	null	null	null	null	null	null	337.0	336.0	335.0	336.0	334.0	335.0	336.0	337.0	335.0	335.0	336.0	
Mon Jun 05 19:26:00 UTC 2017	0.0	1.047281664E9	3297.275146484375	0.0	2.5731072E7	0.0	2.0	1.015750656E9	47.628150939941406	0.0	0.0	1.061339136E9	1.051193344E9	0.0	null	0.06650000065565109	0.04800000041723251	0.04874999821186066	0.9922500252723694	0.7760049700737	0.0	244.0	371.0	0.0	0.0	0.0	0.0	0.0	0.0	null	null	null	null	null	null	null	null	334.0	336.0	333.0	336.0	336.0	336.0	335.0	336.0	336.0	336.0	335.0	
Mon Jun 05 19:25:00 UTC 2017	0.0	1.047281664E9	3297.275146484375	0.0	2.5731072E7	0.0	2.0	1.015750656E9	47.63299560546875	0.0	0.0	1.061339136E9	1.051193344E9	0.0	null	0.08375000208616257	0.054999999701976776	0.04774999991059303	0.9919999837875366	0.7747421860694885	0.0	244.0	371.0	0.0	0.0	0.0	0.0	0.0	0.0	null	null	null	null	null	null	null	null	333.0	335.0	340.0	334.0	333.0	336.0	337.0	335.0	333.0	334.0	339.0	
Mon Jun 05 19:24:00 UTC 2017	0.0	1.047281664E9	3465.021240234375	0.0	2.5731072E7	0.0	2.0	1.015660544E9	47.63299560546875	0.0	0.0	1.061339136E9	1.050165248E9	0.0	null	0.07400000095367432	0.051750000566244125	0.048500001430511475	0.9925000071525574	0.7762545347213745	0.0	244.0	371.0	0.0	0.0	0.0	0.0	0.0	0.0	null	null	null	null	null	null	null	null	336.0	335.0	336.0	334.0	341.0	332.0	334.0	337.0	334.0	339.0	336.0	
Mon Jun 05 19:23:00 UTC 2017	0.0	1.047281664E9	3465.021240234375	0.0	2.5731072E7	0.0	2.0	1.015660544E9	47.63299560546875	0.0	0.0	1.061339136E9	1.051193344E9	0.0	null	0.07774999737739563	0.05324999988079071	0.04924999922513962	0.9922500252723694	0.77473384141922	0.0	244.0	371.0	0.0	0.0	0.0	0.0	0.0	0.0	null	null	null	null	null	null	null	null	335.0	332.0	334.0	339.0	332.0	340.0	336.0	334.0	334.0	335.0	335.0	
Mon Jun 05 19:22:00 UTC 2017	0.0	1.047281664E9	3465.021240234375	0.0	2.5731072E7	0.0	3.0	1.015660544E9	47.63299560546875	0.0	0.0	1.061339136E9	1.051193344E9	0.0	null	0.06700000166893005	0.04800000041723251	0.04800000041723251	0.9922500252723694	0.7746893167495728	0.0	244.0	371.0	0.0	0.0	0.0	0.0	0.0	0.0	null	null	null	null	null	null	null	null	338.0	337.0	335.0	333.0	336.0	334.0	336.0	337.0	334.0	332.0	334.0	
Mon Jun 05 19:21:00 UTC 2017	0.0	1.047281664E9	2384.89892578125	0.0	2.5731072E7	0.0	2.0	1.015447552E9	47.63299560546875	0.0	0.0	1.061339136E9	1.050165248E9	0.0	null	0.09849999845027924	0.054499998688697815	0.04699999839067459	0.9919999837875366	0.774681031703949	0.0	244.0	371.0	0.0	0.0	0.0	0.0	0.0	0.0	null	null	null	null	null	null	null	null	335.0	338.0	337.0	339.0	335.0	337.0	334.0	333.0	337.0	337.0	336.0	
Mon Jun 05 19:20:00 UTC 2017	0.0	1.047281664E9	2767.208740234375	0.0	2.5731072E7	0.0	2.0	1.015537664E9	47.63299560546875	0.0	0.0	1.061339136E9	1.051193344E9	0.0	0.0	0.07925000041723251	0.051500000059604645	0.04699999839067459	0.9922500252723694	0.7769399881362915	0.0	244.0	371.0	0.0	0.0	0.0	0.0	0.0	0.0	null	null	null	null	null	null	null	null	335.0	335.0	336.0	333.0	336.0	335.0	339.0	338.0	338.0	334.0	334.0	
Mon Jun 05 19:19:00 UTC 2017	0.0	1.047281664E9	2767.208740234375	0.0	2.5731072E7	0.0	2.0	1.015447552E9	47.63299560546875	0.0	0.0	1.061339136E9	1.050165248E9	0.0	0.0	0.06975000351667404	0.04574999958276749	0.04774999991059303	0.9919999837875366	0.777006983757019	0.0	244.0	371.0	0.0	0.0	0.0	0.0	0.0	0.0	null	null	null	null	null	null	null	null	335.0	333.0	335.0	335.0	338.0	336.0	335.0	333.0	334.0	339.0	336.0	
Mon Jun 05 19:18:00 UTC 2017	0.0	1.047281664E9	2767.208740234375	0.0	2.5731072E7	0.0	2.0	1.015447552E9	47.63299560546875	0.0	0.0	1.061339136E9	1.050165248E9	0.0	0.0	0.0794999971985817	0.05550000071525574	0.051500000059604645	0.9919999837875366	0.7747304439544678	0.0	244.0	371.0	0.0	0.0	0.0	0.0	0.0	0.0	null	null	null	null	null	null	null	null	332.0	340.0	339.0	334.0	336.0	334.0	333.0	336.0	335.0	336.0	334.0	
Mon Jun 05 19:17:00 UTC 2017	0.0	1.047281664E9	2767.208740234375	0.0	2.5731072E7	0.0	3.0	1.015447552E9	51.80989456176758	0.0	0.0	1.061339136E9	1.051193344E9	0.0	0.0	0.06449999660253525	0.051500000059604645	0.0494999997317791	0.9925000071525574	0.7747138142585754	0.0	244.0	371.0	0.0	0.0	0.0	0.0	0.0	0.0	null	null	null	null	null	null	null	null	334.0	333.0	333.0	335.0	334.0	335.0	334.0	339.0	337.0	337.0	335.0	
Mon Jun 05 19:16:00 UTC 2017	0.0	1.047281664E9	2767.208740234375	0.0	2.5731072E7	0.0	3.0	1.015230464E9	45.12456512451172	0.0	0.0	1.061339136E9	1.051193344E9	0.0	0.0	0.08124999701976776	0.04924999922513962	0.04450000077486038	0.9922500252723694	0.7762643098831177	0.0	244.0	371.0	0.0	0.0	0.0	0.0	0.0	0.0	null	null	null	null	null	null	null	null	337.0	339.0	340.0	336.0	337.0	334.0	335.0	334.0	334.0	333.0	338.0	
Mon Jun 05 19:15:00 UTC 2017	0.0	1.047281664E9	2299.61083984375	0.0	2.5731072E7	0.0	2.0	1.015320576E9	45.12456512451172	0.0	0.0	1.061339136E9	1.051193344E9	0.0	null	0.06700000166893005	0.052000001072883606	0.04899999871850014	0.9919999837875366	0.7747005820274353	0.0	244.0	371.0	0.0	0.0	0.0	0.0	0.0	0.0	null	null	null	null	null	null	null	null	332.0	337.0	332.0	338.0	335.0	334.0	334.0	334.0	339.0	335.0	334.0	
Mon Jun 05 19:14:00 UTC 2017	0.0	1.047281664E9	3396.279296875	0.0	2.5731072E7	0.0	3.0	1.015410688E9	45.12456512451172	0.0	0.0	1.061339136E9	1.050165248E9	0.0	null	0.0754999965429306	0.051249999552965164	0.05025000125169754	0.9919999837875366	0.774662435054779	0.0	244.0	371.0	0.0	0.0	0.0	0.0	0.0	0.0	null	null	null	null	null	null	null	null	339.0	337.0	337.0	337.0	334.0	340.0	334.0	336.0	335.0	335.0	337.0	
Mon Jun 05 19:13:00 UTC 2017	0.0	1.047281664E9	2513.327880859375	0.0	2.5731072E7	0.0	2.0	1.015230464E9	45.12456512451172	0.0	0.0	1.061339136E9	1.050165248E9	0.0	null	0.0754999965429306	0.051500000059604645	0.04874999821186066	0.9922500252723694	0.7759149670600891	0.0	244.0	371.0	0.0	0.0	0.0	0.0	0.0	0.0	null	null	null	null	null	null	null	null	335.0	333.0	330.0	335.0	335.0	334.0	335.0	334.0	333.0	335.0	335.0	
Mon Jun 05 19:12:00 UTC 2017	0.0	1.047281664E9	2945.3779296875	0.0	2.5731072E7	0.0	3.0	1.01548032E9	45.12456512451172	0.0	0.0	1.061339136E9	1.051193344E9	0.0	0.0	0.08124999701976776	0.05324999988079071	0.04800000041723251	0.9919999837875366	0.7746301293373108	0.0	244.0	371.0	0.0	0.0	0.0	0.0	0.0	0.0	null	null	null	null	null	null	null	null	334.0	336.0	337.0	335.0	338.0	334.0	335.0	335.0	333.0	333.0	335.0	
Mon Jun 05 19:11:00 UTC 2017	0.0	1.047281664E9	2575.731689453125	0.0	2.5731072E7	0.0	5.0	1.015021568E9	64.4359359741211	0.0	0.0	1.061339136E9	1.050165248E9	0.0	0.0	0.09674999862909317	0.051249999552965164	0.04450000077486038	0.9919999837875366	0.7746022343635559	0.0	244.0	371.0	0.0	0.0	0.0	0.0	0.0	0.0	null	null	null	null	null	null	null	null	335.0	338.0	333.0	333.0	334.0	335.0	337.0	331.0	337.0	335.0	338.0	
Mon Jun 05 19:10:00 UTC 2017	0.0	1.047281664E9	2575.731689453125	0.0	2.5731072E7	0.0	2.0	1.0150912E9	64.4359359741211	0.0	0.0	1.061339136E9	1.050165248E9	0.0	0.0	0.0767500028014183	0.04774999991059303	0.05375000089406967	0.9922500252723694	0.7744789719581604	0.0	244.0	371.0	0.0	0.0	0.0	0.0	0.0	0.0	null	null	null	null	null	null	null	null	336.0	334.0	337.0	337.0	337.0	337.0	332.0	336.0	333.0	334.0	334.0	
Mon Jun 05 19:09:00 UTC 2017	0.0	1.047281664E9	2575.731689453125	0.0	2.5731072E7	0.0	2.0	1.015001088E9	42.91219711303711	0.0	0.0	1.061339136E9	1.051193344E9	0.0	0.0	0.06875000149011612	0.05624999850988388	0.048500001430511475	0.9922500252723694	0.7745567560195923	0.0	244.0	371.0	0.0	0.0	0.0	0.0	0.0	0.0	null	null	null	null	null	null	null	null	338.0	333.0	333.0	336.0	334.0	340.0	335.0	334.0	337.0	335.0	335.0	
Mon Jun 05 19:08:00 UTC 2017	0.0	1.047281664E9	2575.731689453125	0.0	2.5731072E7	0.0	2.0	1.015001088E9	42.91219711303711	0.0	0.0	1.061339136E9	1.050165248E9	0.0	null	0.07374999672174454	0.04774999991059303	0.045249998569488525	0.9919999837875366	0.7745640873908997	0.0	244.0	371.0	0.0	0.0	0.0	0.0	0.0	0.0	null	null	null	null	null	null	null	null	334.0	335.0	336.0	333.0	334.0	336.0	337.0	332.0	337.0	336.0	333.0	
Mon Jun 05 19:07:00 UTC 2017	0.0	1.047281664E9	2852.6982421875	0.0	2.5731072E7	0.0	2.0	1.015250944E9	42.91219711303711	0.0	0.0	1.061339136E9	1.050165248E9	0.0	null	0.06975000351667404	0.05324999988079071	0.05050000175833702	0.9922500252723694	0.7745459675788879	0.0	244.0	371.0	0.0	0.0	0.0	0.0	0.0	0.0	null	null	null	null	null	null	null	null	336.0	335.0	336.0	334.0	332.0	335.0	336.0	335.0	332.0	335.0	337.0	
Mon Jun 05 19:06:00 UTC 2017	0.0	1.047281664E9	2454.084228515625	0.0	2.5731072E7	0.0	2.0	1.014792192E9	42.91219711303711	0.0	0.0	1.061339136E9	1.051193344E9	0.0	null	0.08349999785423279	0.04899999871850014	0.04650000110268593	0.9922500252723694	0.7759276628494263	0.0	244.0	371.0	0.0	0.0	0.0	0.0	0.0	0.0	null	null	null	null	null	null	null	null	335.0	339.0	335.0	337.0	336.0	333.0	338.0	337.0	337.0	336.0	338.0	
Mon Jun 05 19:05:00 UTC 2017	0.0	1.047281664E9	2415.28662109375	0.0	2.5731072E7	0.0	3.0	1.014882304E9	42.91219711303711	0.0	0.0	1.061339136E9	1.050165248E9	0.0	null	0.07349999994039536	0.054999999701976776	0.04625000059604645	0.9922500252723694	0.7745190858840942	0.0	244.0	371.0	0.0	0.0	0.0	0.0	0.0	0.0	null	null	null	null	null	null	null	null	333.0	337.0	336.0	332.0	334.0	336.0	330.0	338.0	334.0	334.0	336.0	
Mon Jun 05 19:04:00 UTC 2017	0.0	1.047281664E9	2415.28662109375	0.0	2.5731072E7	0.0	2.0	1.014792192E9	53.572776794433594	0.0	0.0	1.061339136E9	1.051193344E9	0.0	null	0.06875000149011612	0.05400000140070915	0.05025000125169754	0.9925000071525574	0.7745058536529541	0.0	244.0	371.0	0.0	0.0	0.0	0.0	0.0	0.0	null	null	null	null	null	null	null	null	338.0	336.0	336.0	337.0	338.0	337.0	336.0	335.0	338.0	337.0	334.0	
Mon Jun 05 19:03:00 UTC 2017	0.0	1.047281664E9	2415.28662109375	0.0	2.5731072E7	0.0	4.0	1.014792192E9	49.3365592956543	0.0	0.0	1.061339136E9	1.051193344E9	0.0	null	0.07800000160932541	0.05274999886751175	0.04600000008940697	0.9922500252723694	0.7744647860527039	0.0	244.0	371.0	0.0	0.0	0.0	0.0	0.0	0.0	null	null	null	null	null	null	null	null	330.0	335.0	334.0	335.0	335.0	336.0	335.0	333.0	333.0	335.0	335.0	
Mon Jun 05 19:02:00 UTC 2017	0.0	1.047281664E9	3202.431884765625	0.0	2.5731072E7	0.0	3.0	1.015037952E9	39.26096725463867	0.0	0.0	1.061339136E9	1.050165248E9	0.0	0.0	0.07175000011920929	0.05225000157952309	0.051500000059604645	0.9919999837875366	0.7744647860527039	0.0	244.0	371.0	0.0	0.0	0.0	0.0	0.0	0.0	null	null	null	null	null	null	null	null	337.0	339.0	334.0	340.0	336.0	332.0	333.0	332.0	338.0	335.0	330.0	
Mon Jun 05 19:01:00 UTC 2017	0.0	1.047281664E9	2690.038818359375	0.0	2.5731072E7	0.0	2.0	1.0145792E9	37.97904968261719	0.0	0.0	1.061339136E9	1.051193344E9	0.0	0.0	0.09724999964237213	0.051750000566244125	0.04574999958276749	0.9919999837875366	0.7761282920837402	0.0	244.0	371.0	0.0	0.0	0.0	0.0	0.0	0.0	null	null	null	null	null	null	null	null	334.0	334.0	335.0	332.0	337.0	337.0	336.0	336.0	338.0	335.0	338.0	
Mon Jun 05 19:00:00 UTC 2017	0.0	1.047281664E9	2994.033203125	0.0	2.5731072E7	0.0	4.0	1.014669312E9	37.97904968261719	0.0	0.0	1.06133504E9	1.051193344E9	0.0	0.0	0.07374999672174454	0.04975000023841858	0.04874999821186066	0.9919999837875366	0.774418294429779	0.0	244.0	371.0	0.0	0.0	0.0	0.0	0.0	0.0	null	null	null	null	null	null	null	null	336.0	338.0	337.0	335.0	335.0	333.0	332.0	332.0	335.0	331.0	332.0	
Mon Jun 05 18:59:00 UTC 2017	0.0	1.047281664E9	2314.908203125	0.0	2.5731072E7	0.0	2.0	1.0145792E9	37.97904968261719	0.0	0.0	1.06133504E9	1.051193344E9	0.0	0.0	0.0702499970793724	0.051249999552965164	0.04625000059604645	0.9917500019073486	0.7744168043136597	0.0	244.0	371.0	0.0	0.0	0.0	0.0	0.0	0.0	null	null	null	null	null	null	null	null	336.0	335.0	335.0	335.0	331.0	336.0	339.0	337.0	335.0	337.0	335.0	
Mon Jun 05 18:58:00 UTC 2017	0.0	1.047281664E9	2762.37109375	0.0	2.5731072E7	0.0	2.0	1.0145792E9	66.20159912109375	0.0	0.0	1.06133504E9	1.050165248E9	0.0	0.0	0.06750000268220901	0.04874999821186066	0.05025000125169754	0.9922500252723694	0.7743855118751526	0.0	244.0	371.0	0.0	0.0	0.0	0.0	0.0	0.0	null	null	null	null	null	null	null	null	334.0	333.0	333.0	333.0	337.0	336.0	334.0	335.0	337.0	334.0	337.0	
Mon Jun 05 18:57:00 UTC 2017	0.0	1.047281664E9	2843.554931640625	0.0	2.5731072E7	0.0	2.0	1.0145792E9	41.75167465209961	0.0	0.0	1.06133504E9	1.050165248E9	0.0	0.0	0.07724999636411667	0.051750000566244125	0.04899999871850014	0.9917500019073486	0.7743659019470215	0.0	244.0	371.0	0.0	0.0	0.0	0.0	0.0	0.0	null	null	null	null	null	null	null	null	334.0	336.0	337.0	331.0	336.0	337.0	332.0	335.0	333.0	338.0	334.0	
Mon Jun 05 18:56:00 UTC 2017	0.0	1.047281664E9	2570.675537109375	0.0	2.5731072E7	0.0	2.0	1.01445632E9	47.149803161621094	0.0	0.0	1.06133504E9	1.050165248E9	0.0	0.0	0.07400000095367432	0.05274999886751175	0.04724999889731407	0.9919999837875366	0.7743644714355469	0.0	244.0	371.0	0.0	0.0	0.0	0.0	0.0	0.0	null	null	null	null	null	null	null	null	335.0	336.0	336.0	333.0	336.0	332.0	339.0	336.0	334.0	335.0	339.0	
Mon Jun 05 18:55:00 UTC 2017	0.0	1.047281664E9	2570.675537109375	0.0	2.5731072E7	0.0	4.0	1.01445632E9	39.20277786254883	0.0	0.0	1.06133504E9	1.050165248E9	0.0	0.0	0.07374999672174454	0.04650000110268593	0.04574999958276749	0.9922500252723694	0.7766322493553162	0.0	244.0	371.0	0.0	0.0	0.0	0.0	0.0	0.0	null	null	null	null	null	null	null	null	335.0	336.0	336.0	338.0	337.0	337.0	334.0	334.0	338.0	338.0	335.0	
Mon Jun 05 18:54:00 UTC 2017	0.0	1.047281664E9	2765.124755859375	0.0	2.5731072E7	0.0	2.0	1.014366208E9	39.20277786254883	0.0	0.0	1.06133504E9	1.050165248E9	0.0	0.0	0.0794999971985817	0.054499998688697815	0.04724999889731407	0.9922500252723694	0.7743815779685974	0.0	244.0	371.0	0.0	0.0	0.0	0.0	0.0	0.0	null	null	null	null	null	null	null	null	333.0	335.0	335.0	335.0	335.0	332.0	337.0	334.0	334.0	335.0	333.0	
Mon Jun 05 18:53:00 UTC 2017	0.0	1.047281664E9	2765.124755859375	0.0	2.5731072E7	0.0	2.0	1.014366208E9	54.46406173706055	0.0	0.0	1.06133504E9	1.050165248E9	0.0	0.0	0.06300000101327896	0.05000000074505806	0.04675000160932541	0.9922500252723694	0.7766909599304199	0.0	244.0	371.0	0.0	0.0	0.0	0.0	0.0	0.0	null	null	null	null	null	null	null	null	337.0	335.0	336.0	335.0	336.0	340.0	332.0	337.0	335.0	336.0	335.0	
Mon Jun 05 18:52:00 UTC 2017	0.0	1.047281664E9	2756.3125	0.0	2.5731072E7	0.0	4.0	1.014366208E9	54.46406173706055	0.0	0.0	1.06133504E9	1.051193344E9	0.0	0.0	0.08524999767541885	0.05324999988079071	0.05050000175833702	0.9919999837875366	0.7743678689002991	0.0	244.0	371.0	0.0	0.0	0.0	0.0	0.0	0.0	null	null	null	null	null	null	null	null	334.0	333.0	333.0	335.0	338.0	337.0	337.0	334.0	337.0	335.0	340.0	
Mon Jun 05 18:51:00 UTC 2017	0.0	1.047281664E9	2756.3125	0.0	2.5731072E7	0.0	2.0	1.014247424E9	45.082366943359375	0.0	0.0	1.06133504E9	1.050165248E9	0.0	null	0.09350000321865082	0.048500001430511475	0.042249999940395355	0.9919999837875366	0.7743522524833679	0.0	244.0	371.0	0.0	0.0	0.0	0.0	0.0	0.0	null	null	null	null	null	null	null	null	340.0	337.0	335.0	334.0	338.0	335.0	337.0	339.0	334.0	333.0	333.0	
Mon Jun 05 18:50:00 UTC 2017	0.0	1.047281664E9	2756.3125	0.0	2.5731072E7	0.0	2.0	1.014247424E9	49.159523010253906	0.0	0.0	1.06133504E9	1.050165248E9	0.0	null	0.06724999845027924	0.0572500005364418	0.052000001072883606	0.9922500252723694	0.7743527293205261	0.0	244.0	371.0	0.0	0.0	0.0	0.0	0.0	0.0	null	null	null	null	null	null	null	null	337.0	334.0	335.0	336.0	336.0	338.0	334.0	336.0	337.0	333.0	334.0	
Mon Jun 05 18:49:00 UTC 2017	0.0	1.047281664E9	2756.3125	0.0	2.5731072E7	0.0	2.0	1.014157312E9	62.172630310058594	0.0	0.0	1.06133504E9	1.051193344E9	0.0	null	0.07575000077486038	0.0507499985396862	0.04500000178813934	0.9919999837875366	0.7743346095085144	0.0	244.0	371.0	0.0	0.0	0.0	0.0	0.0	0.0	null	null	null	null	null	null	null	null	336.0	333.0	336.0	334.0	335.0	334.0	335.0	333.0	332.0	340.0	336.0	
Mon Jun 05 18:48:00 UTC 2017	0.0	1.047281664E9	2756.3125	0.0	2.5731072E7	0.0	2.0	1.014157312E9	43.3841667175293	0.0	0.0	1.06133504E9	1.050165248E9	0.0	null	0.07599999755620956	0.04574999958276749	0.05000000074505806	0.9919999837875366	0.7743184566497803	0.0	244.0	371.0	0.0	0.0	0.0	0.0	0.0	0.0	null	null	null	null	null	null	null	null	336.0	335.0	338.0	334.0	334.0	339.0	336.0	334.0	333.0	332.0	336.0	
Mon Jun 05 18:47:00 UTC 2017	0.0	1.047281664E9	2470.20947265625	0.0	2.5731072E7	0.0	2.0	1.014157312E9	41.024940490722656	0.0	0.0	1.06133504E9	1.051193344E9	0.0	0.0	0.07750000059604645	0.05700000002980232	0.04574999958276749	0.9925000071525574	0.7742984294891357	0.0	244.0	371.0	0.0	0.0	0.0	0.0	0.0	0.0	null	null	null	null	null	null	null	null	334.0	337.0	333.0	335.0	334.0	336.0	336.0	333.0	333.0	340.0	333.0	
Mon Jun 05 18:46:00 UTC 2017	0.0	1.047281664E9	3124.551513671875	0.0	2.5731072E7	0.0	3.0	1.01394432E9	41.024940490722656	0.0	0.0	1.06133504E9	1.050165248E9	0.0	0.0	0.06800000369548798	0.04600000008940697	0.04574999958276749	0.9922500252723694	0.7764580249786377	0.0	244.0	371.0	0.0	0.0	0.0	0.0	0.0	0.0	null	null	null	null	null	null	null	null	338.0	334.0	336.0	333.0	336.0	332.0	338.0	340.0	335.0	334.0	335.0	
Mon Jun 05 18:45:00 UTC 2017	0.0	1.047281664E9	3074.4326171875	0.0	2.5731072E7	0.0	2.0	1.014034432E9	41.024940490722656	0.0	0.0	1.06133504E9	1.050165248E9	0.0	null	0.08624999970197678	0.05375000089406967	0.050999999046325684	0.9919999837875366	0.7754002213478088	0.0	244.0	371.0	0.0	0.0	0.0	0.0	0.0	0.0	null	null	null	null	null	null	null	null	334.0	337.0	334.0	333.0	338.0	337.0	336.0	336.0	339.0	333.0	338.0	
Mon Jun 05 18:44:00 UTC 2017	0.0	1.047281664E9	3074.4326171875	0.0	2.5731072E7	0.0	4.0	1.014124544E9	41.024940490722656	0.0	0.0	1.06133504E9	1.051193344E9	0.0	null	0.06949999928474426	0.05649999901652336	0.04625000059604645	0.9919999837875366	0.7741526365280151	0.0	244.0	371.0	0.0	0.0	0.0	0.0	0.0	0.0	null	null	null	null	null	null	null	null	335.0	338.0	334.0	335.0	336.0	335.0	334.0	335.0	331.0	337.0	332.0	
Mon Jun 05 18:43:00 UTC 2017	0.0	1.047281664E9	3074.4326171875	0.0	2.5731072E7	0.0	2.0	1.01394432E9	64.31090545654297	0.0	0.0	1.06133504E9	1.050165248E9	0.0	0.0	0.07800000160932541	0.04724999889731407	0.045499999076128006	0.9919999837875366	0.7741349935531616	0.0	244.0	371.0	0.0	0.0	0.0	0.0	0.0	0.0	null	null	null	null	null	null	null	null	336.0	336.0	333.0	337.0	332.0	336.0	335.0	331.0	335.0	340.0	335.0	
Mon Jun 05 18:42:00 UTC 2017	0.0	1.047281664E9	3074.4326171875	0.0	2.5731072E7	0.0	2.0	1.01419008E9	64.31090545654297	0.0	0.0	1.06133504E9	1.051193344E9	0.0	0.0	0.07225000113248825	0.057500001043081284	0.0494999997317791	0.9919999837875366	0.7740992903709412	0.0	244.0	371.0	0.0	0.0	0.0	0.0	0.0	0.0	null	null	null	null	null	null	null	null	334.0	335.0	338.0	334.0	336.0	339.0	336.0	339.0	337.0	334.0	339.0	
Mon Jun 05 18:41:00 UTC 2017	0.0	1.047281664E9	3074.4326171875	0.0	2.5731072E7	0.0	2.0	1.013731328E9	64.31090545654297	0.0	0.0	1.06133504E9	1.050165248E9	0.0	0.0	0.09775000065565109	0.04600000008940697	0.04650000110268593	0.9922500252723694	0.774095356464386	0.0	244.0	371.0	0.0	0.0	0.0	0.0	0.0	0.0	null	null	null	null	null	null	null	null	336.0	334.0	332.0	334.0	332.0	334.0	337.0	333.0	337.0	333.0	332.0	
Mon Jun 05 18:40:00 UTC 2017	0.0	1.047281664E9	3074.4326171875	0.0	2.5731072E7	0.0	2.0	1.01382144E9	64.31090545654297	0.0	0.0	1.06133504E9	1.050165248E9	0.0	null	0.07374999672174454	0.051500000059604645	0.04574999958276749	0.9919999837875366	0.7763602137565613	0.0	244.0	371.0	0.0	0.0	0.0	0.0	0.0	0.0	null	null	null	null	null	null	null	null	334.0	333.0	337.0	333.0	337.0	335.0	335.0	331.0	335.0	333.0	336.0	
Mon Jun 05 18:39:00 UTC 2017	0.0	1.047281664E9	2852.569091796875	0.0	2.5731072E7	0.0	2.0	1.013731328E9	64.31090545654297	0.0	0.0	1.06133504E9	1.051193344E9	0.0	0.0	0.06925000250339508	0.051750000566244125	0.05050000175833702	0.9922500252723694	0.7740381360054016	0.0	244.0	371.0	0.0	0.0	0.0	0.0	0.0	0.0	null	null	null	null	null	null	null	null	332.0	337.0	335.0	336.0	332.0	334.0	337.0	336.0	333.0	333.0	333.0	
Mon Jun 05 18:38:00 UTC 2017	0.0	1.047281664E9	2852.569091796875	0.0	2.5731072E7	0.0	2.0	1.013731328E9	49.30071258544922	0.0	0.0	1.06133504E9	1.050165248E9	0.0	0.0	0.0820000022649765	0.05375000089406967	0.0430000014603138	0.9919999837875366	0.7763239741325378	0.0	244.0	371.0	0.0	0.0	0.0	0.0	0.0	0.0	null	null	null	null	null	null	null	null	335.0	337.0	336.0	335.0	335.0	333.0	338.0	335.0	334.0	334.0	338.0	
Mon Jun 05 18:37:00 UTC 2017	0.0	1.047281664E9	2852.569091796875	0.0	2.5731072E7	0.0	3.0	1.013731328E9	49.30071258544922	0.0	0.0	1.06133504E9	1.050165248E9	0.0	null	0.06825000047683716	0.05025000125169754	0.0507499985396862	0.9919999837875366	0.7740258574485779	0.0	244.0	371.0	0.0	0.0	0.0	0.0	0.0	0.0	null	null	null	null	null	null	null	null	338.0	332.0	334.0	333.0	335.0	335.0	332.0	336.0	337.0	336.0	335.0	
Mon Jun 05 18:36:00 UTC 2017	0.0	1.047281664E9	2852.569091796875	0.0	2.5731072E7	0.0	3.0	1.013522432E9	52.45118713378906	0.0	0.0	1.06133504E9	1.051193344E9	0.0	null	0.08275000005960464	0.051750000566244125	0.04625000059604645	0.9922500252723694	0.774004340171814	0.0	244.0	371.0	0.0	0.0	0.0	0.0	0.0	0.0	null	null	null	null	null	null	null	null	335.0	336.0	337.0	337.0	337.0	336.0	336.0	334.0	337.0	336.0	335.0	
Mon Jun 05 18:35:00 UTC 2017	0.0	1.047281664E9	2852.569091796875	0.0	2.5731072E7	0.0	2.0	1.013612544E9	52.45118713378906	0.0	0.0	1.06133504E9	1.050165248E9	0.0	0.0	0.07275000214576721	0.04874999821186066	0.050999999046325684	0.9919999837875366	0.7740018963813782	0.0	244.0	371.0	0.0	0.0	0.0	0.0	0.0	0.0	null	null	null	null	null	null	null	null	335.0	336.0	337.0	336.0	333.0	338.0	337.0	335.0	333.0	334.0	334.0	
Mon Jun 05 18:34:00 UTC 2017	0.0	1.047281664E9	2852.569091796875	0.0	2.5731072E7	0.0	2.0	1.013522432E9	39.4329833984375	0.0	0.0	1.06133504E9	1.051193344E9	0.0	0.0	0.07124999910593033	0.05299999937415123	0.04324999824166298	0.9917500019073486	0.7740063071250916	0.0	244.0	371.0	0.0	0.0	0.0	0.0	0.0	0.0	null	null	null	null	null	null	null	null	333.0	337.0	334.0	331.0	336.0	333.0	339.0	336.0	337.0	335.0	336.0	
Mon Jun 05 18:33:00 UTC 2017	0.0	1.047281664E9	2336.48046875	0.0	2.5731072E7	0.0	2.0	1.013522432E9	44.66111755371094	0.0	0.0	1.06133504E9	1.051193344E9	0.0	0.0	0.06975000351667404	0.052000001072883606	0.048500001430511475	0.9922500252723694	0.7762472033500671	0.0	244.0	371.0	0.0	0.0	0.0	0.0	0.0	0.0	null	null	null	null	null	null	null	null	335.0	331.0	336.0	336.0	335.0	334.0	334.0	337.0	331.0	336.0	336.0	
Mon Jun 05 18:32:00 UTC 2017	0.0	1.047281664E9	2336.48046875	0.0	2.5731072E7	0.0	3.0	1.013768192E9	44.66111755371094	0.0	0.0	1.06133504E9	1.051193344E9	0.0	0.0	0.0754999965429306	0.05299999937415123	0.04600000008940697	0.9922500252723694	0.7739021182060242	0.0	244.0	371.0	0.0	0.0	0.0	0.0	0.0	0.0	null	null	null	null	null	null	null	null	337.0	336.0	336.0	335.0	335.0	336.0	337.0	331.0	336.0	337.0	334.0	
Mon Jun 05 18:31:00 UTC 2017	0.0	1.047281664E9	2336.48046875	0.0	2.5731072E7	0.0	2.0	1.013305344E9	44.66111755371094	0.0	0.0	1.06133504E9	1.050165248E9	0.0	0.0	0.10100000351667404	0.048250000923871994	0.048500001430511475	0.9919999837875366	0.7738737463951111	0.0	244.0	371.0	0.0	0.0	0.0	0.0	0.0	0.0	null	null	null	null	null	null	null	null	335.0	335.0	337.0	335.0	336.0	335.0	333.0	336.0	334.0	333.0	337.0	
Mon Jun 05 18:30:00 UTC 2017	0.0	1.047281664E9	2636.5537109375	0.0	2.5731072E7	0.0	2.0	1.01343232E9	44.66111755371094	0.0	0.0	1.06133504E9	1.051193344E9	0.0	0.0	0.08025000244379044	0.05700000002980232	0.0507499985396862	0.9919999837875366	0.7739099264144897	0.0	244.0	371.0	0.0	0.0	0.0	0.0	0.0	0.0	null	null	null	null	null	null	null	null	337.0	336.0	337.0	335.0	332.0	336.0	337.0	335.0	334.0	333.0	338.0	
Mon Jun 05 18:29:00 UTC 2017	0.0	1.047281664E9	2636.5537109375	0.0	2.5731072E7	0.0	2.0	1.013342208E9	44.66111755371094	0.0	0.0	1.06133504E9	1.051193344E9	0.0	0.0	0.06925000250339508	0.04800000041723251	0.04149999842047691	0.9919999837875366	0.7738487720489502	0.0	244.0	371.0	0.0	0.0	0.0	0.0	0.0	0.0	null	null	null	null	null	null	null	null	333.0	335.0	335.0	336.0	335.0	336.0	337.0	335.0	336.0	336.0	336.0	
Mon Jun 05 18:28:00 UTC 2017	0.0	1.047281664E9	2636.5537109375	0.0	2.5731072E7	0.0	5.0	1.013456896E9	56.5643424987793	0.0	0.0	1.06133504E9	1.050165248E9	0.0	0.0	0.07225000113248825	0.04924999922513962	0.04749999940395355	0.9919999837875366	0.7738463282585144	0.0	244.0	371.0	0.0	0.0	0.0	0.0	0.0	0.0	null	null	null	null	null	null	null	null	337.0	336.0	336.0	333.0	338.0	337.0	335.0	333.0	333.0	334.0	336.0	
Mon Jun 05 18:27:00 UTC 2017	0.0	1.047281664E9	2799.59716796875	0.0	2.5731072E7	0.0	2.0	1.013551104E9	78.48512268066406	0.0	0.0	1.06133504E9	1.050165248E9	0.0	0.0	0.08049999922513962	0.05025000125169754	0.05025000125169754	0.9922500252723694	0.7738311290740967	0.0	244.0	371.0	0.0	0.0	0.0	0.0	0.0	0.0	null	null	null	null	null	null	null	null	332.0	335.0	335.0	336.0	334.0	336.0	335.0	339.0	336.0	336.0	335.0	
Mon Jun 05 18:26:00 UTC 2017	0.0	1.047281664E9	2799.59716796875	0.0	2.5731072E7	0.0	4.0	1.013092352E9	78.48512268066406	0.0	0.0	1.06133504E9	1.051193344E9	0.0	0.0	0.07275000214576721	0.05925000086426735	0.045499999076128006	0.9925000071525574	0.7738144993782043	0.0	244.0	371.0	0.0	0.0	0.0	0.0	0.0	0.0	null	null	null	null	null	null	null	null	335.0	336.0	337.0	333.0	337.0	333.0	336.0	332.0	336.0	335.0	336.0	
Mon Jun 05 18:25:00 UTC 2017	0.0	1.047281664E9	2799.59716796875	0.0	2.5731072E7	0.0	2.0	1.013223424E9	78.48512268066406	0.0	0.0	1.06133504E9	1.050165248E9	0.0	null	0.0742499977350235	0.048500001430511475	0.048500001430511475	0.9922500252723694	0.7738135457038879	0.0	244.0	371.0	0.0	0.0	0.0	0.0	0.0	0.0	null	null	null	null	null	null	null	null	336.0	335.0	336.0	338.0	334.0	339.0	337.0	337.0	334.0	335.0	333.0	
Mon Jun 05 18:24:00 UTC 2017	0.0	1.047281664E9	2782.046630859375	0.0	2.5731072E7	0.0	2.0	1.013198848E9	78.48512268066406	0.0	0.0	1.06133504E9	1.050165248E9	0.0	null	0.07100000232458115	0.051500000059604645	0.048500001430511475	0.9919999837875366	0.7737426161766052	0.0	244.0	371.0	0.0	0.0	0.0	0.0	0.0	0.0	null	null	null	null	null	null	null	null	336.0	335.0	336.0	334.0	337.0	336.0	335.0	335.0	334.0	336.0	340.0	
Mon Jun 05 18:23:00 UTC 2017	0.0	1.047281664E9	2269.41552734375	0.0	2.5731072E7	0.0	2.0	1.013133312E9	78.48512268066406	0.0	0.0	1.06133504E9	1.051193344E9	0.0	0.0	0.08124999701976776	0.050999999046325684	0.048500001430511475	0.9919999837875366	0.7737440466880798	0.0	244.0	371.0	0.0	0.0	0.0	0.0	0.0	0.0	null	null	null	null	null	null	null	null	335.0	336.0	334.0	336.0	334.0	336.0	334.0	336.0	334.0	335.0	331.0	
Mon Jun 05 18:22:00 UTC 2017	0.0	1.047281664E9	2269.41552734375	0.0	2.5731072E7	0.0	5.0	1.013133312E9	68.50074005126953	0.0	0.0	1.06133504E9	1.050165248E9	0.0	0.0	0.0637499988079071	0.054749999195337296	0.04650000110268593	0.9925000071525574	0.7737553119659424	0.0	244.0	371.0	0.0	0.0	0.0	0.0	0.0	0.0	null	null	null	null	null	null	null	null	332.0	335.0	338.0	334.0	336.0	334.0	337.0	335.0	336.0	335.0	337.0	
Mon Jun 05 18:21:00 UTC 2017	0.0	1.047281664E9	2269.41552734375	0.0	2.5731072E7	0.0	2.0	1.013075968E9	70.50473022460938	0.0	0.0	1.06133504E9	1.050165248E9	0.0	null	0.11050000041723251	0.048500001430511475	0.04774999991059303	0.9922500252723694	0.7737014889717102	0.0	244.0	371.0	0.0	0.0	0.0	0.0	0.0	0.0	null	null	null	null	null	null	null	null	338.0	334.0	336.0	335.0	334.0	338.0	334.0	335.0	335.0	335.0	336.0	
Mon Jun 05 18:20:00 UTC 2017	0.0	1.047281664E9	2269.41552734375	0.0	2.5731072E7	0.0	4.0	1.01316608E9	70.50473022460938	0.0	0.0	1.06133504E9	1.051193344E9	0.0	null	0.07325000315904617	0.051249999552965164	0.04574999958276749	0.9919999837875366	0.7759697437286377	0.0	244.0	371.0	0.0	0.0	0.0	0.0	0.0	0.0	null	null	null	null	null	null	null	null	336.0	333.0	336.0	336.0	339.0	334.0	337.0	337.0	334.0	339.0	340.0	
Mon Jun 05 18:19:00 UTC 2017	0.0	1.047281664E9	2269.41552734375	0.0	2.5731072E7	0.0	2.0	1.013075968E9	54.21331024169922	0.0	0.0	1.06133504E9	1.050165248E9	0.0	0.0	0.08150000125169754	0.05274999886751175	0.04774999991059303	0.9922500252723694	0.7737455368041992	0.0	244.0	371.0	0.0	0.0	0.0	0.0	0.0	0.0	null	null	null	null	null	null	null	null	334.0	338.0	335.0	336.0	336.0	333.0	336.0	336.0	338.0	337.0	334.0	
Mon Jun 05 18:18:00 UTC 2017	0.0	1.047281664E9	2269.41552734375	0.0	2.5731072E7	0.0	2.0	1.013075968E9	54.21331024169922	0.0	0.0	1.06133504E9	1.051193344E9	0.0	0.0	0.07374999672174454	0.05350000038743019	0.05025000125169754	0.9922500252723694	0.7760157585144043	0.0	244.0	371.0	0.0	0.0	0.0	0.0	0.0	0.0	null	null	null	null	null	null	null	null	338.0	333.0	333.0	338.0	336.0	339.0	335.0	334.0	332.0	334.0	332.0	
Mon Jun 05 18:17:00 UTC 2017	0.0	1.047281664E9	3066.170654296875	0.0	2.5731072E7	0.0	4.0	1.013075968E9	54.21331024169922	0.0	0.0	1.06133504E9	1.051193344E9	0.0	0.0	0.06800000369548798	0.04600000008940697	0.04500000178813934	0.9919999837875366	0.7737371921539307	0.0	244.0	371.0	0.0	0.0	0.0	0.0	0.0	0.0	null	null	null	null	null	null	null	null	336.0	333.0	339.0	337.0	336.0	336.0	333.0	340.0	334.0	336.0	337.0	
Mon Jun 05 18:16:00 UTC 2017	0.0	1.047281664E9	3066.170654296875	0.0	2.5731072E7	0.0	2.0	1.012862976E9	54.21331024169922	0.0	0.0	1.06133504E9	1.051193344E9	0.0	0.0	0.07275000214576721	0.054999999701976776	0.04975000023841858	0.9922500252723694	0.7736085653305054	0.0	244.0	371.0	0.0	0.0	0.0	0.0	0.0	0.0	null	null	null	null	null	null	null	null	332.0	337.0	337.0	333.0	334.0	334.0	335.0	337.0	338.0	336.0	334.0	
Mon Jun 05 18:15:00 UTC 2017	0.0	1.047281664E9	3066.170654296875	0.0	2.5731072E7	0.0	2.0	1.012953088E9	38.99918746948242	0.0	0.0	1.06133504E9	1.050165248E9	0.0	0.0	0.07925000041723251	0.04774999991059303	0.0442500002682209	0.9917500019073486	0.773604154586792	0.0	244.0	371.0	0.0	0.0	0.0	0.0	0.0	0.0	null	null	null	null	null	null	null	null	339.0	332.0	333.0	335.0	337.0	334.0	341.0	334.0	337.0	335.0	333.0	
Mon Jun 05 18:14:00 UTC 2017	0.0	1.047281664E9	2821.921875	0.0	2.5731072E7	0.0	2.0	1.012862976E9	47.4255485534668	0.0	0.0	1.06133504E9	1.051193344E9	0.0	null	0.07000000029802322	0.05575000122189522	0.05025000125169754	0.9917500019073486	0.7758777737617493	0.0	244.0	371.0	0.0	0.0	0.0	0.0	0.0	0.0	null	null	null	null	null	null	null	null	335.0	334.0	335.0	336.0	332.0	342.0	335.0	336.0	332.0	331.0	337.0	
Mon Jun 05 18:13:00 UTC 2017	0.0	1.047281664E9	2261.9296875	0.0	2.5731072E7	0.0	2.0	1.012862976E9	31.70014762878418	0.0	0.0	1.06133504E9	1.051193344E9	0.0	null	0.07199999690055847	0.0430000014603138	0.04650000110268593	0.9917500019073486	0.773651123046875	0.0	244.0	371.0	0.0	0.0	0.0	0.0	0.0	0.0	null	null	null	null	null	null	null	null	333.0	337.0	336.0	336.0	336.0	334.0	332.0	333.0	334.0	334.0	339.0	
Mon Jun 05 18:12:00 UTC 2017	0.0	1.047281664E9	2935.5791015625	0.0	2.5731072E7	0.0	3.0	1.012862976E9	31.70014762878418	0.0	0.0	1.06133504E9	1.050165248E9	0.0	null	0.07850000262260437	0.05824999883770943	0.05050000175833702	0.9919999837875366	0.7757211923599243	0.0	244.0	371.0	0.0	0.0	0.0	0.0	0.0	0.0	null	null	null	null	null	null	null	null	337.0	339.0	339.0	336.0	335.0	333.0	335.0	337.0	336.0	334.0	336.0	
Mon Jun 05 18:11:00 UTC 2017	0.0	1.047281664E9	3002.692626953125	0.0	2.5731072E7	0.0	2.0	1.012740096E9	31.70014762878418	0.0	0.0	1.06133504E9	1.051193344E9	0.0	0.0	0.09624999761581421	0.04600000008940697	0.04650000110268593	0.9922500252723694	0.7753939032554626	0.0	244.0	371.0	0.0	0.0	0.0	0.0	0.0	0.0	null	null	null	null	null	null	null	null	337.0	335.0	337.0	334.0	339.0	339.0	333.0	336.0	335.0	337.0	337.0	
Mon Jun 05 18:10:00 UTC 2017	0.0	1.047281664E9	3002.692626953125	0.0	2.5731072E7	0.0	5.0	1.01300224E9	48.57122039794922	0.0	0.0	1.06133504E9	1.050165248E9	0.0	0.0	0.0767500028014183	0.057999998331069946	0.04899999871850014	0.9919999837875366	0.7735649943351746	0.0	244.0	371.0	0.0	0.0	0.0	0.0	0.0	0.0	null	null	null	null	null	null	null	null	336.0	335.0	335.0	333.0	333.0	337.0	332.0	335.0	334.0	332.0	335.0	
Mon Jun 05 18:09:00 UTC 2017	0.0	1.047281664E9	3002.692626953125	0.0	2.5731072E7	0.0	2.0	1.01259264E9	46.93651580810547	0.0	0.0	1.06133504E9	1.051193344E9	0.0	0.0	0.07175000011920929	0.04675000160932541	0.05025000125169754	0.9922500252723694	0.7734768986701965	0.0	244.0	371.0	0.0	0.0	0.0	0.0	0.0	0.0	null	null	null	null	null	null	null	null	334.0	334.0	332.0	335.0	334.0	333.0	335.0	336.0	334.0	336.0	337.0	
Mon Jun 05 18:08:00 UTC 2017	0.0	1.047281664E9	3002.692626953125	0.0	2.5731072E7	0.0	2.0	1.01259264E9	46.758689880371094	0.0	0.0	1.06133504E9	1.051193344E9	0.0	0.0	0.07874999940395355	0.05849999934434891	0.04450000077486038	0.9922500252723694	0.7734608054161072	0.0	244.0	371.0	0.0	0.0	0.0	0.0	0.0	0.0	null	null	null	null	null	null	null	null	335.0	338.0	337.0	335.0	337.0	340.0	336.0	333.0	334.0	335.0	333.0	
Mon Jun 05 18:07:00 UTC 2017	0.0	1.047281664E9	3002.692626953125	0.0	2.5731072E7	0.0	2.0	1.0128384E9	46.758689880371094	0.0	0.0	1.06133504E9	1.051193344E9	0.0	0.0	0.07524999976158142	0.04475000128149986	0.05025000125169754	0.9919999837875366	0.7748972773551941	0.0	244.0	371.0	0.0	0.0	0.0	0.0	0.0	0.0	null	null	null	null	null	null	null	null	337.0	334.0	335.0	338.0	338.0	336.0	335.0	334.0	336.0	334.0	335.0	
Mon Jun 05 18:06:00 UTC 2017	0.0	1.047281664E9	2945.162841796875	0.0	2.5731072E7	0.0	2.0	1.012379648E9	46.758689880371094	0.0	0.0	1.06133504E9	1.050165248E9	0.0	0.0	0.07124999910593033	0.05874999985098839	0.04774999991059303	0.9919999837875366	0.7734387516975403	0.0	244.0	371.0	0.0	0.0	0.0	0.0	0.0	0.0	null	null	null	null	null	null	null	null	335.0	331.0	334.0	331.0	334.0	333.0	335.0	334.0	336.0	336.0	341.0	
Mon Jun 05 18:05:00 UTC 2017	0.0	1.047281664E9	2945.162841796875	0.0	2.5731072E7	0.0	2.0	1.01246976E9	47.24524688720703	0.0	0.0	1.06133504E9	1.050165248E9	0.0	0.0	0.08124999701976776	0.0494999997317791	0.04699999839067459	0.9917500019073486	0.7734250426292419	0.0	244.0	371.0	0.0	0.0	0.0	0.0	0.0	0.0	null	null	null	null	null	null	null	null	336.0	336.0	337.0	337.0	339.0	336.0	332.0	339.0	334.0	334.0	335.0	
Mon Jun 05 18:04:00 UTC 2017	0.0	1.047281664E9	2847.588623046875	0.0	2.5731072E7	0.0	2.0	1.012379648E9	47.24524688720703	0.0	0.0	1.06133504E9	1.051193344E9	0.0	0.0	0.07524999976158142	0.05249999836087227	0.04699999839067459	0.9917500019073486	0.7751164436340332	0.0	244.0	371.0	0.0	0.0	0.0	0.0	0.0	0.0	null	null	null	null	null	null	null	null	336.0	338.0	333.0	334.0	331.0	332.0	337.0	333.0	336.0	334.0	336.0	
Mon Jun 05 18:03:00 UTC 2017	0.0	1.047281664E9	2957.245849609375	0.0	2.5731072E7	0.0	2.0	1.012379648E9	42.64796447753906	0.0	0.0	1.06133504E9	1.051193344E9	0.0	0.0	0.07450000196695328	0.04800000041723251	0.04699999839067459	0.9919999837875366	0.7744134068489075	0.0	244.0	371.0	0.0	0.0	0.0	0.0	0.0	0.0	null	null	null	null	null	null	null	null	334.0	332.0	332.0	333.0	336.0	338.0	334.0	335.0	333.0	337.0	333.0	
Mon Jun 05 18:02:00 UTC 2017	0.0	1.047281664E9	2083.459228515625	0.0	2.5731072E7	0.0	4.0	1.012629504E9	42.64796447753906	0.0	0.0	1.06133504E9	1.051193344E9	0.0	0.0	0.07374999672174454	0.054499998688697815	0.04625000059604645	0.9919999837875366	0.7743962407112122	0.0	244.0	371.0	0.0	0.0	0.0	0.0	0.0	0.0	null	null	null	null	null	null	null	null	336.0	338.0	338.0	337.0	333.0	333.0	337.0	335.0	334.0	334.0	336.0	
Mon Jun 05 18:01:00 UTC 2017	0.0	1.047281664E9	3214.900634765625	0.0	2.5731072E7	0.0	4.0	1.012170752E9	42.64796447753906	0.0	0.0	1.06133504E9	1.051193344E9	0.0	0.0	0.09399999678134918	0.05025000125169754	0.04774999991059303	0.9915000200271606	0.7743786573410034	0.0	244.0	371.0	0.0	0.0	0.0	0.0	0.0	0.0	null	null	null	null	null	null	null	null	336.0	337.0	332.0	330.0	331.0	338.0	334.0	336.0	334.0	335.0	334.0	
Mon Jun 05 18:00:00 UTC 2017	0.0	1.047281664E9	3342.94140625	0.0	2.5731072E7	0.0	3.0	1.012260864E9	42.64796447753906	0.0	0.0	1.06133504E9	1.050165248E9	0.0	0.0	0.07724999636411667	0.057500001043081284	0.04975000023841858	0.9917500019073486	0.7743747234344482	0.0	244.0	371.0	0.0	0.0	0.0	0.0	0.0	0.0	null	null	null	null	null	null	null	null	337.0	334.0	334.0	337.0	334.0	330.0	331.0	336.0	334.0	336.0	335.0	
Mon Jun 05 17:59:00 UTC 2017	0.0	1.047281664E9	3342.94140625	0.0	2.5731072E7	0.0	2.0	1.012170752E9	42.64796447753906	0.0	0.0	1.06133504E9	1.051193344E9	0.0	0.0	0.06925000250339508	0.048250000923871994	0.048500001430511475	0.9922500252723694	0.7743629813194275	0.0	244.0	371.0	0.0	0.0	0.0	0.0	0.0	0.0	null	null	null	null	null	null	null	null	334.0	337.0	336.0	336.0	334.0	337.0	334.0	334.0	335.0	336.0	338.0	
Mon Jun 05 17:58:00 UTC 2017	0.0	1.047281664E9	3342.94140625	0.0	2.5731072E7	0.0	2.0	1.012170752E9	36.75151443481445	0.0	0.0	1.06133504E9	1.051193344E9	0.0	0.0	0.07500000298023224	0.054499998688697815	0.04899999871850014	0.9922500252723694	0.7766268253326416	0.0	244.0	371.0	0.0	0.0	0.0	0.0	0.0	0.0	null	null	null	null	null	null	null	null	331.0	337.0	337.0	336.0	337.0	334.0	336.0	336.0	336.0	335.0	334.0	
Mon Jun 05 17:57:00 UTC 2017	0.0	1.047281664E9	3342.94140625	0.0	2.5731072E7	0.0	2.0	1.012416512E9	36.75151443481445	0.0	0.0	1.06133504E9	1.050165248E9	0.0	0.0	0.07975000143051147	0.05025000125169754	0.05000000074505806	0.9919999837875366	0.7743375301361084	0.0	244.0	371.0	0.0	0.0	0.0	0.0	0.0	0.0	null	null	null	null	null	null	null	null	336.0	333.0	339.0	333.0	331.0	336.0	337.0	336.0	336.0	337.0	339.0	
Mon Jun 05 17:56:00 UTC 2017	0.0	1.047281664E9	2925.19482421875	0.0	2.5731072E7	0.0	2.0	1.01195776E9	36.75151443481445	0.0	0.0	1.06133504E9	1.050165248E9	0.0	0.0	0.0702499970793724	0.04600000008940697	0.042750000953674316	0.9922500252723694	0.7742807865142822	0.0	244.0	371.0	0.0	0.0	0.0	0.0	0.0	0.0	null	null	null	null	null	null	null	null	338.0	338.0	332.0	337.0	334.0	338.0	333.0	337.0	333.0	336.0	334.0	
Mon Jun 05 17:55:00 UTC 2017	0.0	1.047281664E9	2863.048095703125	0.0	2.5731072E7	0.0	2.0	1.012047872E9	58.643375396728516	0.0	0.0	1.06133504E9	1.051189248E9	0.0	0.0	0.08250000327825546	0.05225000157952309	0.050999999046325684	0.9919999837875366	0.7742646336555481	0.0	244.0	371.0	0.0	0.0	0.0	0.0	0.0	0.0	null	null	null	null	null	null	null	null	331.0	332.0	335.0	334.0	337.0	336.0	339.0	336.0	338.0	333.0	337.0	
Mon Jun 05 17:54:00 UTC 2017	0.0	1.047281664E9	2863.048095703125	0.0	2.5731072E7	0.0	3.0	1.01195776E9	63.993656158447266	0.0	0.0	1.06133504E9	1.051189248E9	0.0	0.0	0.07199999690055847	0.05274999886751175	0.04500000178813934	0.9922500252723694	0.7742587924003601	0.0	244.0	371.0	0.0	0.0	0.0	0.0	0.0	0.0	null	null	null	null	null	null	null	null	336.0	337.0	338.0	336.0	336.0	333.0	334.0	336.0	332.0	333.0	338.0	
Mon Jun 05 17:53:00 UTC 2017	0.0	1.047281664E9	2723.61865234375	0.0	2.5731072E7	0.0	4.0	1.01195776E9	63.993656158447266	0.0	0.0	1.06133504E9	1.051189248E9	0.0	0.0	0.06350000202655792	0.05050000175833702	0.0494999997317791	0.9922500252723694	0.7742416262626648	0.0	244.0	371.0	0.0	0.0	0.0	0.0	0.0	0.0	null	null	null	null	null	null	null	null	336.0	336.0	335.0	335.0	333.0	336.0	337.0	335.0	337.0	337.0	336.0	
Mon Jun 05 17:52:00 UTC 2017	0.0	1.047281664E9	2723.61865234375	0.0	2.5731072E7	0.0	2.0	1.01195776E9	63.993656158447266	0.0	0.0	1.06133504E9	1.051189248E9	0.0	null	0.07999999821186066	0.057999998331069946	0.04625000059604645	0.9922500252723694	0.776519238948822	0.0	244.0	371.0	0.0	0.0	0.0	0.0	0.0	0.0	null	null	null	null	null	null	null	null	337.0	335.0	334.0	337.0	339.0	338.0	338.0	336.0	334.0	331.0	336.0	
Mon Jun 05 17:51:00 UTC 2017	0.0	1.047281664E9	2723.61865234375	0.0	2.5731072E7	0.0	2.0	1.011744768E9	63.993656158447266	0.0	0.0	1.06133504E9	1.050161152E9	0.0	null	0.09674999862909317	0.04724999889731407	0.05025000125169754	0.9922500252723694	0.7765094041824341	0.0	244.0	371.0	0.0	0.0	0.0	0.0	0.0	0.0	null	null	null	null	null	null	null	null	336.0	337.0	337.0	333.0	334.0	333.0	335.0	335.0	336.0	339.0	336.0	
Mon Jun 05 17:50:00 UTC 2017	0.0	1.047281664E9	2723.61865234375	0.0	2.5731072E7	0.0	2.0	1.01183488E9	63.993656158447266	0.0	0.0	1.06133504E9	1.051189248E9	0.0	0.0	0.07750000059604645	0.050999999046325684	0.04899999871850014	0.9917500019073486	0.7742098569869995	0.0	244.0	371.0	0.0	0.0	0.0	0.0	0.0	0.0	null	null	null	null	null	null	null	null	334.0	336.0	336.0	336.0	337.0	338.0	337.0	336.0	334.0	334.0	336.0	
Mon Jun 05 17:49:00 UTC 2017	0.0	1.047281664E9	2723.61865234375	0.0	2.5731072E7	0.0	2.0	1.011744768E9	63.993656158447266	0.0	0.0	1.06133504E9	1.050161152E9	0.0	0.0	0.07625000178813934	0.0507499985396862	0.041999999433755875	0.9922500252723694	0.7754892706871033	0.0	244.0	371.0	0.0	0.0	0.0	0.0	0.0	0.0	null	null	null	null	null	null	null	null	336.0	334.0	335.0	335.0	332.0	336.0	336.0	336.0	337.0	333.0	338.0	
Mon Jun 05 17:48:00 UTC 2017	0.0	1.047281664E9	2861.281005859375	0.0	2.5731072E7	0.0	2.0	1.011744768E9	63.41179275512695	0.0	0.0	1.06133504E9	1.050161152E9	0.0	0.0	0.07374999672174454	0.0494999997317791	0.05000000074505806	0.9922500252723694	0.774183452129364	0.0	244.0	371.0	0.0	0.0	0.0	0.0	0.0	0.0	null	null	null	null	null	null	null	null	335.0	333.0	332.0	335.0	338.0	336.0	336.0	334.0	335.0	332.0	333.0	
Mon Jun 05 17:47:00 UTC 2017	0.0	1.047281664E9	2879.485595703125	0.0	2.5731072E7	0.0	2.0	1.01187584E9	53.83567810058594	0.0	0.0	1.06133504E9	1.051189248E9	0.0	0.0	0.07150000333786011	0.05824999883770943	0.04399999976158142	0.9919999837875366	0.7740851044654846	0.0	244.0	371.0	0.0	0.0	0.0	0.0	0.0	0.0	null	null	null	null	null	null	null	null	335.0	336.0	336.0	335.0	335.0	336.0	335.0	338.0	333.0	336.0	339.0	
Mon Jun 05 17:46:00 UTC 2017	0.0	1.047281664E9	2879.485595703125	0.0	2.5731072E7	0.0	2.0	1.011535872E9	55.13688278198242	0.0	0.0	1.06133504E9	1.051189248E9	0.0	0.0	0.07724999636411667	0.04475000128149986	0.04874999821186066	0.9922500252723694	0.774054765701294	0.0	244.0	371.0	0.0	0.0	0.0	0.0	0.0	0.0	null	null	null	null	null	null	null	null	337.0	338.0	335.0	335.0	337.0	337.0	334.0	336.0	339.0	336.0	337.0	
Mon Jun 05 17:45:00 UTC 2017	0.0	1.047281664E9	2879.485595703125	0.0	2.5731072E7	0.0	4.0	1.011625984E9	55.13688278198242	0.0	0.0	1.06133504E9	1.051189248E9	0.0	null	0.07349999994039536	0.05624999850988388	0.04975000023841858	0.9919999837875366	0.7740087509155273	0.0	244.0	371.0	0.0	0.0	0.0	0.0	0.0	0.0	null	null	null	null	null	null	null	null	335.0	334.0	338.0	335.0	337.0	338.0	336.0	332.0	332.0	335.0	334.0	
Mon Jun 05 17:44:00 UTC 2017	0.0	1.047281664E9	3089.863037109375	0.0	2.5731072E7	0.0	5.0	1.011535872E9	55.13688278198242	0.0	0.0	1.06133504E9	1.050161152E9	0.0	null	0.07400000095367432	0.04874999821186066	0.04800000041723251	0.9917500019073486	0.7740293145179749	0.0	244.0	371.0	0.0	0.0	0.0	0.0	0.0	0.0	null	null	null	null	null	null	null	null	336.0	337.0	334.0	333.0	331.0	335.0	334.0	337.0	340.0	335.0	338.0	
Mon Jun 05 17:43:00 UTC 2017	0.0	1.047281664E9	2284.7099609375	0.0	2.5731072E7	0.0	2.0	1.011535872E9	43.06171417236328	0.0	0.0	1.06133504E9	1.051189248E9	0.0	null	0.07275000214576721	0.0560000017285347	0.04650000110268593	0.9922500252723694	0.7740342020988464	0.0	244.0	371.0	0.0	0.0	0.0	0.0	0.0	0.0	null	null	null	null	null	null	null	null	335.0	338.0	337.0	335.0	337.0	331.0	334.0	331.0	335.0	336.0	334.0	
Mon Jun 05 17:42:00 UTC 2017	0.0	1.047281664E9	2841.60107421875	0.0	2.5731072E7	0.0	5.0	1.011535872E9	47.9942512512207	0.0	0.0	1.06133504E9	1.050161152E9	0.0	null	0.0832500010728836	0.048250000923871994	0.05375000089406967	0.9925000071525574	0.774054765701294	0.0	244.0	371.0	0.0	0.0	0.0	0.0	0.0	0.0	null	null	null	null	null	null	null	null	335.0	335.0	335.0	336.0	339.0	339.0	334.0	335.0	339.0	335.0	338.0	
Mon Jun 05 17:41:00 UTC 2017	0.0	1.047281664E9	2841.60107421875	0.0	2.5731072E7	0.0	2.0	1.011412992E9	47.9942512512207	0.0	0.0	1.06133504E9	1.050161152E9	0.0	null	0.09399999678134918	0.048500001430511475	0.04625000059604645	0.9922500252723694	0.7740082740783691	0.0	244.0	371.0	0.0	0.0	0.0	0.0	0.0	0.0	null	null	null	null	null	null	null	null	335.0	336.0	336.0	337.0	335.0	336.0	335.0	334.0	336.0	336.0	333.0	
Mon Jun 05 17:40:00 UTC 2017	0.0	1.047281664E9	2841.60107421875	0.0	2.5731072E7	0.0	2.0	1.011412992E9	66.74516296386719	0.0	0.0	1.06133504E9	1.051189248E9	0.0	null	0.07850000262260437	0.051249999552965164	0.052000001072883606	0.9922500252723694	0.7752441763877869	0.0	244.0	371.0	0.0	0.0	0.0	0.0	0.0	0.0	null	null	null	null	null	null	null	null	338.0	336.0	334.0	335.0	332.0	335.0	338.0	338.0	336.0	334.0	337.0	
Mon Jun 05 17:39:00 UTC 2017	0.0	1.047281664E9	2222.725341796875	0.0	2.5731072E7	0.0	2.0	1.01132288E9	44.3115348815918	0.0	0.0	1.06133504E9	1.050161152E9	0.0	0.0	0.07925000041723251	0.05249999836087227	0.045249998569488525	0.9922500252723694	0.7750915288925171	0.0	244.0	371.0	0.0	0.0	0.0	0.0	0.0	0.0	null	null	null	null	null	null	null	null	333.0	337.0	338.0	334.0	337.0	334.0	333.0	334.0	334.0	334.0	336.0	
Mon Jun 05 17:38:00 UTC 2017	0.0	1.047281664E9	2512.302001953125	0.0	2.5731072E7	0.0	2.0	1.01132288E9	44.3115348815918	0.0	0.0	1.06133504E9	1.051189248E9	0.0	0.0	0.07100000232458115	0.051500000059604645	0.04699999839067459	0.9919999837875366	0.7762359380722046	0.0	244.0	371.0	0.0	0.0	0.0	0.0	0.0	0.0	null	null	null	null	null	null	null	null	334.0	333.0	332.0	335.0	338.0	338.0	335.0	338.0	335.0	340.0	334.0	
Mon Jun 05 17:37:00 UTC 2017	0.0	1.047281664E9	2512.302001953125	0.0	2.5731072E7	0.0	3.0	1.01132288E9	44.3115348815918	0.0	0.0	1.06133504E9	1.051189248E9	0.0	0.0	0.07900000363588333	0.05249999836087227	0.048500001430511475	0.9922500252723694	0.7740195393562317	0.0	244.0	371.0	0.0	0.0	0.0	0.0	0.0	0.0	null	null	null	null	null	null	null	null	335.0	337.0	340.0	337.0	332.0	336.0	338.0	335.0	340.0	335.0	335.0	
Mon Jun 05 17:36:00 UTC 2017	0.0	1.047281664E9	2512.302001953125	0.0	2.5731072E7	0.0	2.0	1.011109888E9	73.0754623413086	0.0	0.0	1.06133504E9	1.051189248E9	0.0	0.0	0.06324999779462814	0.05274999886751175	0.04475000128149986	0.9922500252723694	0.7740122079849243	0.0	244.0	371.0	0.0	0.0	0.0	0.0	0.0	0.0	null	null	null	null	null	null	null	null	335.0	336.0	333.0	334.0	337.0	333.0	337.0	332.0	336.0	334.0	340.0	
Mon Jun 05 17:35:00 UTC 2017	0.0	1.047281664E9	2998.881103515625	0.0	2.5731072E7	0.0	3.0	1.0112E9	80.33563995361328	0.0	0.0	1.06133504E9	1.051189248E9	0.0	null	0.07975000143051147	0.04800000041723251	0.05274999886751175	0.9925000071525574	0.7739999294281006	0.0	244.0	371.0	0.0	0.0	0.0	0.0	0.0	0.0	null	null	null	null	null	null	null	null	333.0	334.0	335.0	341.0	335.0	334.0	333.0	336.0	337.0	337.0	332.0	
Mon Jun 05 17:34:00 UTC 2017	0.0	1.047281664E9	3332.517333984375	0.0	2.5731072E7	0.0	3.0	1.011109888E9	80.33563995361328	0.0	0.0	1.06133504E9	1.050161152E9	0.0	null	0.07824999839067459	0.05824999883770943	0.0442500002682209	0.9922500252723694	0.7762770056724548	0.0	244.0	371.0	0.0	0.0	0.0	0.0	0.0	0.0	null	null	null	null	null	null	null	null	338.0	340.0	336.0	337.0	336.0	338.0	341.0	336.0	333.0	336.0	341.0	
Mon Jun 05 17:33:00 UTC 2017	0.0	1.047281664E9	3332.517333984375	0.0	2.5731072E7	0.0	2.0	1.011109888E9	35.765113830566406	0.0	0.0	1.06133504E9	1.051189248E9	0.0	0.0	0.07124999910593033	0.05249999836087227	0.048500001430511475	0.9922500252723694	0.77398282289505	0.0	244.0	371.0	0.0	0.0	0.0	0.0	0.0	0.0	null	null	null	null	null	null	null	null	334.0	331.0	335.0	334.0	339.0	332.0	337.0	336.0	335.0	333.0	332.0	
Mon Jun 05 17:32:00 UTC 2017	0.0	1.047281664E9	2413.1484375	0.0	2.5731072E7	0.0	4.0	1.011109888E9	35.765113830566406	0.0	0.0	1.06133504E9	1.050161152E9	0.0	0.0	0.07175000011920929	0.04574999958276749	0.04800000041723251	0.9922500252723694	0.773995041847229	0.0	244.0	371.0	0.0	0.0	0.0	0.0	0.0	0.0	null	null	null	null	null	null	null	null	334.0	336.0	337.0	335.0	333.0	335.0	340.0	335.0	336.0	335.0	336.0	
Mon Jun 05 17:31:00 UTC 2017	0.0	1.047281664E9	2530.784423828125	0.0	2.5731072E7	0.0	3.0	1.010900992E9	41.95610046386719	0.0	0.0	1.06133504E9	1.051189248E9	0.0	0.0	0.11174999922513962	0.051500000059604645	0.048500001430511475	0.9922500252723694	0.77398282289505	0.0	244.0	371.0	0.0	0.0	0.0	0.0	0.0	0.0	null	null	null	null	null	null	null	null	335.0	334.0	336.0	338.0	335.0	336.0	335.0	337.0	336.0	337.0	335.0	
Mon Jun 05 17:30:00 UTC 2017	0.0	1.047281664E9	2530.784423828125	0.0	2.5731072E7	0.0	2.0	1.010991104E9	45.22257614135742	0.0	0.0	1.06133504E9	1.051189248E9	0.0	null	0.07699999958276749	0.05525000020861626	0.04800000041723251	0.9922500252723694	0.7739813923835754	0.0	244.0	371.0	0.0	0.0	0.0	0.0	0.0	0.0	null	null	null	null	null	null	null	null	334.0	337.0	334.0	336.0	335.0	333.0	335.0	334.0	335.0	333.0	335.0	
Mon Jun 05 17:29:00 UTC 2017	0.0	1.047281664E9	2530.784423828125	0.0	2.5731072E7	0.0	3.0	1.010900992E9	37.34747314453125	0.0	0.0	1.06133504E9	1.050161152E9	0.0	null	0.06975000351667404	0.04650000110268593	0.045499999076128006	0.9919999837875366	0.7739666700363159	0.0	244.0	371.0	0.0	0.0	0.0	0.0	0.0	0.0	null	null	null	null	null	null	null	null	333.0	333.0	335.0	333.0	333.0	338.0	331.0	337.0	337.0	334.0	337.0	
Mon Jun 05 17:28:00 UTC 2017	0.0	1.047281664E9	2530.784423828125	0.0	2.5731072E7	0.0	2.0	1.010900992E9	51.696495056152344	0.0	0.0	1.06133504E9	1.051189248E9	0.0	0.0	0.07774999737739563	0.05299999937415123	0.04699999839067459	0.9922500252723694	0.7762373685836792	0.0	244.0	371.0	0.0	0.0	0.0	0.0	0.0	0.0	null	null	null	null	null	null	null	null	333.0	335.0	331.0	335.0	337.0	335.0	336.0	335.0	337.0	334.0	335.0	
Mon Jun 05 17:27:00 UTC 2017	0.0	1.047281664E9	2530.784423828125	0.0	2.5731072E7	0.0	2.0	1.010900992E9	51.696495056152344	0.0	0.0	1.06133504E9	1.050161152E9	0.0	0.0	0.06274999678134918	0.051750000566244125	0.04774999991059303	0.9917500019073486	0.7747392654418945	0.0	244.0	371.0	0.0	0.0	0.0	0.0	0.0	0.0	null	null	null	null	null	null	null	null	335.0	337.0	338.0	334.0	336.0	335.0	333.0	335.0	333.0	335.0	336.0	
Mon Jun 05 17:26:00 UTC 2017	0.0	1.047281664E9	2530.784423828125	0.0	2.5731072E7	0.0	2.0	1.010688E9	51.696495056152344	0.0	0.0	1.06133504E9	1.050161152E9	0.0	0.0	0.07699999958276749	0.04975000023841858	0.04500000178813934	0.9919999837875366	0.7762124538421631	0.0	244.0	371.0	0.0	0.0	0.0	0.0	0.0	0.0	null	null	null	null	null	null	null	null	336.0	337.0	335.0	337.0	335.0	338.0	337.0	334.0	337.0	337.0	334.0	
Mon Jun 05 17:25:00 UTC 2017	0.0	1.047281664E9	2530.784423828125	0.0	2.5731072E7	0.0	2.0	1.010778112E9	51.696495056152344	0.0	0.0	1.06133504E9	1.051189248E9	0.0	0.0	0.07524999976158142	0.050999999046325684	0.05050000175833702	0.9919999837875366	0.7739040851593018	0.0	244.0	371.0	0.0	0.0	0.0	0.0	0.0	0.0	null	null	null	null	null	null	null	null	336.0	332.0	333.0	338.0	335.0	333.0	332.0	336.0	331.0	334.0	336.0	
Mon Jun 05 17:24:00 UTC 2017	0.0	1.047281664E9	2530.784423828125	0.0	2.5731072E7	0.0	3.0	1.010688E9	43.72827911376953	0.0	0.0	1.06133504E9	1.051189248E9	0.0	0.0	0.08025000244379044	0.0560000017285347	0.04675000160932541	0.9925000071525574	0.7761948108673096	0.0	244.0	371.0	0.0	0.0	0.0	0.0	0.0	0.0	null	null	null	null	null	null	null	null	336.0	336.0	335.0	334.0	337.0	338.0	336.0	334.0	336.0	338.0	336.0	
Mon Jun 05 17:23:00 UTC 2017	0.0	1.047281664E9	2530.784423828125	0.0	2.5731072E7	0.0	5.0	1.010688E9	50.67593765258789	0.0	0.0	1.06133504E9	1.050161152E9	0.0	0.0	0.07275000214576721	0.04899999871850014	0.04874999821186066	0.9922500252723694	0.7738111019134521	0.0	244.0	371.0	0.0	0.0	0.0	0.0	0.0	0.0	null	null	null	null	null	null	null	null	332.0	337.0	338.0	336.0	339.0	337.0	335.0	337.0	336.0	333.0	337.0	
Mon Jun 05 17:22:00 UTC 2017	0.0	1.047281664E9	2336.431640625	0.0	2.5731072E7	0.0	4.0	1.010688E9	50.67593765258789	0.0	0.0	1.06133504E9	1.050161152E9	0.0	0.0	0.07649999856948853	0.05025000125169754	0.04699999839067459	0.9922500252723694	0.7760759592056274	0.0	244.0	371.0	0.0	0.0	0.0	0.0	0.0	0.0	null	null	null	null	null	null	null	null	335.0	335.0	333.0	333.0	336.0	335.0	333.0	336.0	335.0	337.0	332.0	
Mon Jun 05 17:21:00 UTC 2017	0.0	1.047281664E9	2336.431640625	0.0	2.5731072E7	0.0	2.0	1.010475008E9	87.2417984008789	0.0	0.0	1.06133504E9	1.050161152E9	0.0	0.0	0.08500000089406967	0.05624999850988388	0.04924999922513962	0.9922500252723694	0.7737748622894287	0.0	244.0	371.0	0.0	0.0	0.0	0.0	0.0	0.0	null	null	null	null	null	null	null	null	336.0	333.0	338.0	336.0	333.0	336.0	335.0	334.0	334.0	335.0	339.0	
Mon Jun 05 17:20:00 UTC 2017	0.0	1.047281664E9	2336.431640625	0.0	2.5731072E7	0.0	2.0	1.01056512E9	87.2417984008789	0.0	0.0	1.06133504E9	1.050161152E9	0.0	0.0	0.08150000125169754	0.05000000074505806	0.0494999997317791	0.9922500252723694	0.7737181186676025	0.0	244.0	371.0	0.0	0.0	0.0	0.0	0.0	0.0	null	null	null	null	null	null	null	null	333.0	336.0	334.0	336.0	336.0	334.0	338.0	333.0	336.0	338.0	334.0	
Mon Jun 05 17:19:00 UTC 2017	0.0	1.047281664E9	3332.5830078125	0.0	2.5731072E7	0.0	2.0	1.010475008E9	87.2417984008789	0.0	0.0	1.06133504E9	1.050161152E9	0.0	0.0	0.06875000149011612	0.05525000020861626	0.04774999991059303	0.9922500252723694	0.7760446071624756	0.0	244.0	371.0	0.0	0.0	0.0	0.0	0.0	0.0	null	null	null	null	null	null	null	null	334.0	336.0	336.0	334.0	338.0	339.0	334.0	336.0	334.0	333.0	333.0	
Mon Jun 05 17:18:00 UTC 2017	0.0	1.047281664E9	3531.919189453125	0.0	2.5731072E7	0.0	5.0	1.010475008E9	55.33156204223633	0.0	0.0	1.06133504E9	1.051189248E9	0.0	0.0	0.08025000244379044	0.04574999958276749	0.04600000008940697	0.9922500252723694	0.7737464904785156	0.0	244.0	371.0	0.0	0.0	0.0	0.0	0.0	0.0	null	null	null	null	null	null	null	null	334.0	337.0	334.0	335.0	336.0	333.0	334.0	337.0	339.0	338.0	337.0	
Mon Jun 05 17:17:00 UTC 2017	0.0	1.047281664E9	3531.919189453125	0.0	2.5731072E7	0.0	7.0	1.010475008E9	55.33156204223633	0.0	0.0	1.06133504E9	1.051189248E9	0.0	0.0	0.06975000351667404	0.054499998688697815	0.05025000125169754	0.9922500252723694	0.7739245891571045	0.0	244.0	371.0	0.0	0.0	0.0	0.0	0.0	0.0	null	null	null	null	null	null	null	null	336.0	336.0	340.0	337.0	338.0	337.0	336.0	333.0	337.0	336.0	334.0	
Mon Jun 05 17:16:00 UTC 2017	0.0	1.047281664E9	3531.919189453125	0.0	2.5731072E7	0.0	2.0	1.010262016E9	55.33156204223633	0.0	0.0	1.06133504E9	1.050161152E9	0.0	0.0	0.0832500010728836	0.051249999552965164	0.04774999991059303	0.9922500252723694	0.7737739086151123	0.0	244.0	371.0	0.0	0.0	0.0	0.0	0.0	0.0	null	null	null	null	null	null	null	null	335.0	336.0	336.0	335.0	335.0	337.0	336.0	335.0	333.0	333.0	335.0	
Mon Jun 05 17:15:00 UTC 2017	0.0	1.047281664E9	3039.8046875	0.0	2.5731072E7	0.0	4.0	1.010352128E9	54.446624755859375	0.0	0.0	1.06133504E9	1.050161152E9	0.0	0.0	0.06750000268220901	0.052000001072883606	0.0494999997317791	0.9922500252723694	0.7755509614944458	0.0	244.0	371.0	0.0	0.0	0.0	0.0	0.0	0.0	null	null	null	null	null	null	null	null	333.0	337.0	333.0	337.0	337.0	337.0	335.0	337.0	336.0	336.0	336.0	
Mon Jun 05 17:14:00 UTC 2017	0.0	1.047281664E9	3039.8046875	0.0	2.5731072E7	0.0	3.0	1.010262016E9	54.446624755859375	0.0	0.0	1.06133504E9	1.050161152E9	0.0	0.0	0.07450000196695328	0.05025000125169754	0.04774999991059303	0.9922500252723694	0.77375727891922	0.0	244.0	371.0	0.0	0.0	0.0	0.0	0.0	0.0	null	null	null	null	null	null	null	null	331.0	335.0	334.0	334.0	339.0	337.0	334.0	332.0	338.0	333.0	335.0	
Mon Jun 05 17:13:00 UTC 2017	0.0	1.047281664E9	3039.8046875	0.0	2.5731072E7	0.0	2.0	1.010262016E9	54.446624755859375	0.0	0.0	1.06133504E9	1.050161152E9	0.0	0.0	0.07575000077486038	0.052000001072883606	0.0494999997317791	0.9922500252723694	0.7759893536567688	0.0	244.0	371.0	0.0	0.0	0.0	0.0	0.0	0.0	null	null	null	null	null	null	null	null	336.0	338.0	336.0	331.0	335.0	334.0	332.0	335.0	333.0	336.0	332.0	
Mon Jun 05 17:12:00 UTC 2017	0.0	1.047281664E9	2639.994384765625	0.0	2.5731072E7	0.0	3.0	1.010262016E9	54.446624755859375	0.0	0.0	1.06133504E9	1.050161152E9	0.0	0.0	0.07175000011920929	0.0494999997317791	0.045499999076128006	0.9922500252723694	0.7737029790878296	0.0	244.0	371.0	0.0	0.0	0.0	0.0	0.0	0.0	null	null	null	null	null	null	null	null	331.0	338.0	341.0	337.0	338.0	334.0	337.0	337.0	338.0	341.0	335.0	
Mon Jun 05 17:11:00 UTC 2017	0.0	1.047281664E9	2639.994384765625	0.0	2.5731072E7	0.0	2.0	1.01005312E9	68.03250122070312	0.0	0.0	1.06133504E9	1.050161152E9	0.0	0.0	0.1042499989271164	0.05375000089406967	0.04699999839067459	0.9922500252723694	0.7745499014854431	0.0	244.0	371.0	0.0	0.0	0.0	0.0	0.0	0.0	null	null	null	null	null	null	null	null	337.0	335.0	336.0	334.0	335.0	339.0	338.0	333.0	336.0	336.0	336.0	
Mon Jun 05 17:10:00 UTC 2017	0.0	1.047281664E9	2639.994384765625	0.0	2.5731072E7	0.0	3.0	1.010405376E9	48.53439712524414	0.0	0.0	1.06133504E9	1.051189248E9	0.0	0.0	0.07400000095367432	0.05525000020861626	0.052000001072883606	0.9922500252723694	0.7736868262290955	0.0	244.0	371.0	0.0	0.0	0.0	0.0	0.0	0.0	null	null	null	null	null	null	null	null	334.0	337.0	335.0	334.0	335.0	336.0	336.0	337.0	337.0	336.0	333.0	
Mon Jun 05 17:09:00 UTC 2017	0.0	1.047281664E9	3044.093994140625	0.0	2.5731072E7	0.0	2.0	1.010118656E9	50.396942138671875	0.0	0.0	1.06133504E9	1.051189248E9	0.0	0.0	0.07249999791383743	0.05050000175833702	0.048250000923871994	0.9922500252723694	0.7736863493919373	0.0	244.0	371.0	0.0	0.0	0.0	0.0	0.0	0.0	null	null	null	null	null	null	null	null	335.0	339.0	333.0	334.0	338.0	334.0	332.0	337.0	335.0	333.0	335.0	
Mon Jun 05 17:08:00 UTC 2017	0.0	1.047281664E9	3029.9072265625	0.0	2.5731072E7	0.0	2.0	1.010118656E9	54.294166564941406	0.0	0.0	1.06133504E9	1.051189248E9	0.0	0.0	0.07450000196695328	0.051249999552965164	0.04399999976158142	0.9919999837875366	0.7736706733703613	0.0	244.0	371.0	0.0	0.0	0.0	0.0	0.0	0.0	null	null	null	null	null	null	null	null	337.0	333.0	339.0	333.0	335.0	341.0	337.0	336.0	337.0	337.0	333.0	
Mon Jun 05 17:07:00 UTC 2017	0.0	1.047281664E9	2922.33935546875	0.0	2.5731072E7	0.0	3.0	1.010118656E9	56.036930084228516	0.0	0.0	1.06133504E9	1.050161152E9	0.0	0.0	0.06324999779462814	0.04699999839067459	0.052000001072883606	0.9917500019073486	0.774333655834198	0.0	244.0	371.0	0.0	0.0	0.0	0.0	0.0	0.0	null	null	null	null	null	null	null	null	335.0	340.0	333.0	334.0	335.0	335.0	335.0	333.0	334.0	336.0	335.0	
Mon Jun 05 17:06:00 UTC 2017	0.0	1.047281664E9	2922.33935546875	0.0	2.5731072E7	0.0	3.0	1.009905664E9	42.565921783447266	0.0	0.0	1.06133504E9	1.051189248E9	0.0	0.0	0.0820000022649765	0.05674999952316284	0.04574999958276749	0.9919999837875366	0.7735806703567505	0.0	244.0	371.0	0.0	0.0	0.0	0.0	0.0	0.0	null	null	null	null	null	null	null	null	334.0	333.0	336.0	333.0	335.0	336.0	330.0	333.0	336.0	332.0	338.0	
Mon Jun 05 17:05:00 UTC 2017	0.0	1.047281664E9	2922.33935546875	0.0	2.5731072E7	0.0	4.0	1.009995776E9	47.60662841796875	0.0	0.0	1.06133504E9	1.051189248E9	0.0	0.0	0.0702499970793724	0.05274999886751175	0.05350000038743019	0.9917500019073486	0.7758190631866455	0.0	244.0	371.0	0.0	0.0	0.0	0.0	0.0	0.0	null	null	null	null	null	null	null	null	336.0	336.0	337.0	335.0	332.0	334.0	337.0	337.0	336.0	339.0	335.0	
Mon Jun 05 17:04:00 UTC 2017	0.0	1.047281664E9	2595.677490234375	0.0	2.5731072E7	0.0	2.0	1.009905664E9	38.2194709777832	0.0	0.0	1.06133504E9	1.051189248E9	0.0	0.0	0.07575000077486038	0.04650000110268593	0.048500001430511475	0.9919999837875366	0.7735151052474976	0.0	244.0	371.0	0.0	0.0	0.0	0.0	0.0	0.0	null	null	null	null	null	null	null	null	334.0	338.0	335.0	334.0	335.0	336.0	335.0	337.0	337.0	334.0	331.0	
Mon Jun 05 17:03:00 UTC 2017	0.0	1.047281664E9	3548.533935546875	0.0	2.5731072E7	0.0	2.0	1.009905664E9	38.2194709777832	0.0	0.0	1.06133504E9	1.051189248E9	0.0	0.0	0.07649999856948853	0.05550000071525574	0.04625000059604645	0.9919999837875366	0.7734935879707336	0.0	244.0	371.0	0.0	0.0	0.0	0.0	0.0	0.0	null	null	null	null	null	null	null	null	336.0	338.0	334.0	335.0	336.0	336.0	333.0	334.0	335.0	336.0	335.0	
Mon Jun 05 17:02:00 UTC 2017	0.0	1.047281664E9	3548.533935546875	0.0	2.5731072E7	0.0	2.0	1.010085888E9	38.2194709777832	0.0	0.0	1.06133504E9	1.051189248E9	0.0	0.0	0.06750000268220901	0.05375000089406967	0.04924999922513962	0.9917500019073486	0.7734925746917725	0.0	244.0	371.0	0.0	0.0	0.0	0.0	0.0	0.0	null	null	null	null	null	null	null	null	336.0	337.0	336.0	332.0	336.0	335.0	334.0	332.0	336.0	334.0	334.0	
Mon Jun 05 17:01:00 UTC 2017	0.0	1.047281664E9	2588.014892578125	0.0	2.5731072E7	0.0	2.0	1.009692672E9	46.98149871826172	0.0	0.0	1.06133504E9	1.050161152E9	0.0	0.0	0.1014999970793724	0.04500000178813934	0.04899999871850014	0.9917500019073486	0.7734774351119995	0.0	244.0	371.0	0.0	0.0	0.0	0.0	0.0	0.0	null	null	null	null	null	null	null	null	337.0	335.0	337.0	339.0	333.0	337.0	333.0	336.0	336.0	335.0	332.0	
Mon Jun 05 17:00:00 UTC 2017	0.0	1.047281664E9	2433.26318359375	0.0	2.5731072E7	0.0	2.0	1.009782784E9	37.34646224975586	0.0	0.0	1.06133504E9	1.050161152E9	0.0	0.0	0.08399999886751175	0.05400000140070915	0.051249999552965164	0.9912499785423279	0.7734730243682861	0.0	244.0	371.0	0.0	0.0	0.0	0.0	0.0	0.0	null	null	null	null	null	null	null	null	335.0	336.0	337.0	334.0	333.0	333.0	336.0	333.0	335.0	336.0	336.0	
Mon Jun 05 16:59:00 UTC 2017	0.0	1.047281664E9	2976.3212890625	0.0	2.5731072E7	0.0	3.0	1.009692672E9	47.92332077026367	0.0	0.0	1.06133504E9	1.050161152E9	0.0	0.0	0.06800000369548798	0.05324999988079071	0.042500000447034836	0.9915000200271606	0.7734881639480591	0.0	244.0	371.0	0.0	0.0	0.0	0.0	0.0	0.0	null	null	null	null	null	null	null	null	334.0	333.0	334.0	333.0	337.0	336.0	334.0	336.0	335.0	336.0	336.0	
Mon Jun 05 16:58:00 UTC 2017	0.0	1.047281664E9	2976.3212890625	0.0	2.5731072E7	0.0	2.0	1.009692672E9	47.92332077026367	0.0	0.0	1.06133504E9	1.051189248E9	0.0	0.0	0.07824999839067459	0.05324999988079071	0.051249999552965164	0.9919999837875366	0.7734079360961914	0.0	244.0	371.0	0.0	0.0	0.0	0.0	0.0	0.0	null	null	null	null	null	null	null	null	336.0	335.0	333.0	335.0	332.0	335.0	335.0	336.0	335.0	330.0	334.0	
Mon Jun 05 16:57:00 UTC 2017	0.0	1.047281664E9	2976.3212890625	0.0	2.5731072E7	0.0	3.0	1.009692672E9	47.92332077026367	0.0	0.0	1.06133504E9	1.051189248E9	0.0	0.0	0.07199999690055847	0.04724999889731407	0.04899999871850014	0.9919999837875366	0.7733878493309021	0.0	244.0	371.0	0.0	0.0	0.0	0.0	0.0	0.0	null	null	null	null	null	null	null	null	336.0	338.0	339.0	336.0	336.0	338.0	336.0	338.0	337.0	337.0	336.0	
Mon Jun 05 16:56:00 UTC 2017	0.0	1.047281664E9	2337.761962890625	0.0	2.5731072E7	0.0	2.0	1.00947968E9	44.512332916259766	0.0	0.0	1.06133504E9	1.050161152E9	0.0	0.0	0.07874999940395355	0.054999999701976776	0.04724999889731407	0.9919999837875366	0.7733707427978516	0.0	244.0	371.0	0.0	0.0	0.0	0.0	0.0	0.0	null	null	null	null	null	null	null	null	337.0	334.0	335.0	337.0	338.0	333.0	334.0	334.0	333.0	336.0	334.0	
Mon Jun 05 16:55:00 UTC 2017	0.0	1.047281664E9	2337.761962890625	0.0	2.5731072E7	0.0	2.0	1.009569792E9	53.65686798095703	0.0	0.0	1.06133504E9	1.050161152E9	0.0	0.0	0.0689999982714653	0.05274999886751175	0.051500000059604645	0.9922500252723694	0.7755964398384094	0.0	244.0	371.0	0.0	0.0	0.0	0.0	0.0	0.0	null	null	null	null	null	null	null	null	333.0	334.0	335.0	335.0	332.0	337.0	335.0	336.0	332.0	336.0	334.0	
Mon Jun 05 16:54:00 UTC 2017	0.0	1.047281664E9	2337.761962890625	0.0	2.5731072E7	0.0	3.0	1.00947968E9	56.96168518066406	0.0	0.0	1.06133504E9	1.051189248E9	0.0	0.0	0.0742499977350235	0.050999999046325684	0.0430000014603138	0.9919999837875366	0.7733203768730164	0.0	244.0	371.0	0.0	0.0	0.0	0.0	0.0	0.0	null	null	null	null	null	null	null	null	337.0	338.0	334.0	331.0	338.0	330.0	335.0	336.0	336.0	333.0	337.0	
Mon Jun 05 16:53:00 UTC 2017	0.0	1.047281664E9	2337.761962890625	0.0	2.5731072E7	0.0	4.0	1.00947968E9	43.68537902832031	0.0	0.0	1.06133504E9	1.050161152E9	0.0	0.0	0.07975000143051147	0.04975000023841858	0.051500000059604645	0.9919999837875366	0.773300290107727	0.0	244.0	371.0	0.0	0.0	0.0	0.0	0.0	0.0	null	null	null	null	null	null	null	null	337.0	335.0	333.0	335.0	336.0	335.0	338.0	332.0	337.0	338.0	336.0	
Mon Jun 05 16:52:00 UTC 2017	0.0	1.047281664E9	2614.106201171875	0.0	2.5731072E7	0.0	2.0	1.00947968E9	43.68537902832031	0.0	0.0	1.06133504E9	1.051189248E9	0.0	null	0.07150000333786011	0.05249999836087227	0.04800000041723251	0.9919999837875366	0.773350715637207	0.0	244.0	371.0	0.0	0.0	0.0	0.0	0.0	0.0	null	null	null	null	null	null	null	null	337.0	332.0	337.0	333.0	333.0	332.0	332.0	337.0	334.0	335.0	331.0	
Mon Jun 05 16:51:00 UTC 2017	0.0	1.047281664E9	3326.007568359375	0.0	2.5731072E7	0.0	2.0	1.009340416E9	50.33055114746094	0.0	0.0	1.06133504E9	1.051189248E9	0.0	null	0.09324999898672104	0.05274999886751175	0.04975000023841858	0.9922500252723694	0.7733477354049683	0.0	244.0	371.0	0.0	0.0	0.0	0.0	0.0	0.0	null	null	null	null	null	null	null	null	336.0	337.0	336.0	336.0	334.0	336.0	337.0	333.0	337.0	336.0	339.0	
Mon Jun 05 16:50:00 UTC 2017	0.0	1.047281664E9	3297.22998046875	0.0	2.5731072E7	0.0	2.0	1.009340416E9	52.55781555175781	0.0	0.0	1.06133504E9	1.051189248E9	0.0	null	0.07900000363588333	0.04574999958276749	0.04625000059604645	0.9922500252723694	0.7733306288719177	0.0	244.0	371.0	0.0	0.0	0.0	0.0	0.0	0.0	null	null	null	null	null	null	null	null	335.0	336.0	332.0	336.0	336.0	334.0	335.0	336.0	337.0	336.0	334.0	
Mon Jun 05 16:49:00 UTC 2017	0.0	1.047281664E9	3297.22998046875	0.0	2.5731072E7	0.0	2.0	1.009250304E9	54.298301696777344	0.0	0.0	1.06133504E9	1.051189248E9	0.0	null	0.07074999809265137	0.05225000157952309	0.04800000041723251	0.9919999837875366	0.7756321430206299	0.0	244.0	371.0	0.0	0.0	0.0	0.0	0.0	0.0	null	null	null	null	null	null	null	null	337.0	330.0	337.0	336.0	338.0	335.0	336.0	334.0	332.0	334.0	335.0	
Mon Jun 05 16:48:00 UTC 2017	0.0	1.047281664E9	2614.292724609375	0.0	2.5731072E7	0.0	4.0	1.009250304E9	58.33025360107422	0.0	0.0	1.06133504E9	1.050161152E9	0.0	null	0.08474999666213989	0.05050000175833702	0.04899999871850014	0.9922500252723694	0.7733580470085144	0.0	244.0	371.0	0.0	0.0	0.0	0.0	0.0	0.0	null	null	null	null	null	null	null	null	337.0	335.0	337.0	333.0	335.0	331.0	333.0	337.0	336.0	334.0	334.0	
Mon Jun 05 16:47:00 UTC 2017	0.0	1.047281664E9	2525.17822265625	0.0	2.5731072E7	0.0	3.0	1.009250304E9	53.28062438964844	0.0	0.0	1.06133504E9	1.050161152E9	0.0	null	0.0742499977350235	0.05525000020861626	0.04625000059604645	0.9919999837875366	0.7733173966407776	0.0	244.0	371.0	0.0	0.0	0.0	0.0	0.0	0.0	null	null	null	null	null	null	null	null	335.0	336.0	331.0	337.0	336.0	335.0	336.0	334.0	336.0	336.0	336.0	
Mon Jun 05 16:46:00 UTC 2017	0.0	1.047281664E9	2858.760986328125	0.0	2.5731072E7	0.0	2.0	1.009037312E9	53.28062438964844	0.0	0.0	1.06133504E9	1.050161152E9	0.0	null	0.07249999791383743	0.054249998182058334	0.052000001072883606	0.9922500252723694	0.773313045501709	0.0	244.0	371.0	0.0	0.0	0.0	0.0	0.0	0.0	null	null	null	null	null	null	null	null	335.0	336.0	336.0	335.0	333.0	334.0	335.0	338.0	336.0	336.0	339.0	
Mon Jun 05 16:45:00 UTC 2017	0.0	1.047281664E9	2534.63818359375	0.0	2.5731072E7	0.0	2.0	1.009127424E9	53.28062438964844	0.0	0.0	1.06133504E9	1.051189248E9	0.0	0.0	0.06975000351667404	0.04899999871850014	0.04699999839067459	0.9922500252723694	0.7732993364334106	0.0	244.0	371.0	0.0	0.0	0.0	0.0	0.0	0.0	null	null	null	null	null	null	null	null	331.0	337.0	336.0	334.0	338.0	339.0	336.0	332.0	334.0	334.0	337.0	
Mon Jun 05 16:44:00 UTC 2017	0.0	1.047281664E9	2600.605224609375	0.0	2.5731072E7	0.0	2.0	1.009037312E9	53.28062438964844	0.0	0.0	1.06133504E9	1.050161152E9	0.0	0.0	0.07225000113248825	0.05225000157952309	0.04800000041723251	0.9922500252723694	0.7732861042022705	0.0	244.0	371.0	0.0	0.0	0.0	0.0	0.0	0.0	null	null	null	null	null	null	null	null	339.0	332.0	336.0	335.0	337.0	333.0	335.0	339.0	336.0	336.0	335.0	
Mon Jun 05 16:43:00 UTC 2017	0.0	1.047281664E9	3367.627197265625	0.0	2.5731072E7	0.0	2.0	1.009037312E9	53.28062438964844	0.0	0.0	1.06133504E9	1.050161152E9	0.0	null	0.07900000363588333	0.05350000038743019	0.04800000041723251	0.9922500252723694	0.7732797265052795	0.0	244.0	371.0	0.0	0.0	0.0	0.0	0.0	0.0	null	null	null	null	null	null	null	null	336.0	338.0	334.0	334.0	337.0	334.0	332.0	331.0	330.0	337.0	334.0	
Mon Jun 05 16:42:00 UTC 2017	0.0	1.047281664E9	2621.194580078125	0.0	2.5731072E7	0.0	4.0	1.009037312E9	53.28062438964844	0.0	0.0	1.06133504E9	1.050161152E9	0.0	null	0.06925000250339508	0.051249999552965164	0.04874999821186066	0.9919999837875366	0.7732670307159424	0.0	244.0	371.0	0.0	0.0	0.0	0.0	0.0	0.0	null	null	null	null	null	null	null	null	334.0	335.0	332.0	336.0	335.0	338.0	336.0	338.0	334.0	336.0	338.0	
Mon Jun 05 16:41:00 UTC 2017	0.0	1.047281664E9	2499.7783203125	0.0	2.5731072E7	0.0	2.0	1.00882432E9	53.28062438964844	0.0	0.0	1.06133504E9	1.051189248E9	0.0	0.0	0.10575000196695328	0.04874999821186066	0.04574999958276749	0.9922500252723694	0.7732166051864624	0.0	244.0	371.0	0.0	0.0	0.0	0.0	0.0	0.0	null	null	null	null	null	null	null	null	334.0	334.0	339.0	336.0	339.0	337.0	336.0	336.0	334.0	336.0	337.0	
Mon Jun 05 16:40:00 UTC 2017	0.0	1.047281664E9	3081.3896484375	0.0	2.5731072E7	0.0	2.0	1.008914432E9	53.28062438964844	0.0	0.0	1.06133504E9	1.050161152E9	0.0	0.0	0.06575000286102295	0.05400000140070915	0.05050000175833702	0.9922500252723694	0.7732151746749878	0.0	244.0	371.0	0.0	0.0	0.0	0.0	0.0	0.0	null	null	null	null	null	null	null	null	335.0	334.0	333.0	337.0	337.0	334.0	334.0	336.0	335.0	335.0	336.0	
Mon Jun 05 16:39:00 UTC 2017	0.0	1.047281664E9	3081.3896484375	0.0	2.5731072E7	0.0	2.0	1.00882432E9	64.06562042236328	0.0	0.0	1.06133504E9	1.051189248E9	0.0	0.0	0.07975000143051147	0.04899999871850014	0.04749999940395355	0.9922500252723694	0.7731975317001343	0.0	244.0	371.0	0.0	0.0	0.0	0.0	0.0	0.0	null	null	null	null	null	null	null	null	336.0	334.0	336.0	336.0	332.0	338.0	334.0	333.0	335.0	336.0	336.0	
Mon Jun 05 16:38:00 UTC 2017	0.0	1.047281664E9	2934.292724609375	0.0	2.5731072E7	0.0	2.0	1.00882432E9	41.50054168701172	0.0	0.0	1.06133504E9	1.050161152E9	0.0	0.0	0.07150000333786011	0.054249998182058334	0.04675000160932541	0.9925000071525574	0.7731745839118958	0.0	244.0	371.0	0.0	0.0	0.0	0.0	0.0	0.0	null	null	null	null	null	null	null	null	337.0	334.0	337.0	336.0	340.0	335.0	334.0	336.0	333.0	335.0	335.0	
Mon Jun 05 16:37:00 UTC 2017	0.0	1.047281664E9	2934.292724609375	0.0	2.5731072E7	0.0	3.0	1.00882432E9	41.50054168701172	0.0	0.0	1.06133504E9	1.050161152E9	0.0	0.0	0.07500000298023224	0.04675000160932541	0.051500000059604645	0.9922500252723694	0.7731764912605286	0.0	244.0	371.0	0.0	0.0	0.0	0.0	0.0	0.0	null	null	null	null	null	null	null	null	337.0	339.0	331.0	332.0	336.0	338.0	338.0	335.0	340.0	336.0	332.0	
Mon Jun 05 16:36:00 UTC 2017	0.0	1.047281664E9	2735.141845703125	0.0	2.5731072E7	0.0	2.0	1.008705536E9	41.50054168701172	0.0	0.0	1.06133504E9	1.050161152E9	0.0	0.0	0.0754999965429306	0.05274999886751175	0.04800000041723251	0.9922500252723694	0.7752720713615417	0.0	244.0	371.0	0.0	0.0	0.0	0.0	0.0	0.0	null	null	null	null	null	null	null	null	338.0	335.0	336.0	338.0	333.0	337.0	334.0	335.0	336.0	336.0	337.0	
Mon Jun 05 16:35:00 UTC 2017	0.0	1.047281664E9	3031.37060546875	0.0	2.5731072E7	0.0	2.0	1.008705536E9	41.50054168701172	0.0	0.0	1.06133504E9	1.051189248E9	0.0	0.0	0.07474999874830246	0.0507499985396862	0.04574999958276749	0.9922500252723694	0.7731407880783081	0.0	244.0	371.0	0.0	0.0	0.0	0.0	0.0	0.0	null	null	null	null	null	null	null	null	335.0	336.0	336.0	334.0	340.0	334.0	338.0	341.0	334.0	331.0	335.0	
Mon Jun 05 16:34:00 UTC 2017	0.0	1.047281664E9	3031.37060546875	0.0	2.5731072E7	0.0	2.0	1.008615424E9	41.50054168701172	0.0	0.0	1.06133504E9	1.051189248E9	0.0	0.0	0.07925000041723251	0.04975000023841858	0.05050000175833702	0.9922500252723694	0.7750964164733887	0.0	244.0	371.0	0.0	0.0	0.0	0.0	0.0	0.0	null	null	null	null	null	null	null	null	334.0	336.0	335.0	335.0	332.0	335.0	333.0	332.0	333.0	335.0	336.0	
Mon Jun 05 16:33:00 UTC 2017	0.0	1.047281664E9	2953.26806640625	0.0	2.5731072E7	0.0	2.0	1.008615424E9	42.47341537475586	0.0	0.0	1.06133504E9	1.051189248E9	0.0	0.0	0.07275000214576721	0.05624999850988388	0.048250000923871994	0.9922500252723694	0.7731192708015442	0.0	244.0	371.0	0.0	0.0	0.0	0.0	0.0	0.0	null	null	null	null	null	null	null	null	336.0	335.0	335.0	336.0	336.0	340.0	336.0	339.0	332.0	339.0	335.0	
Mon Jun 05 16:32:00 UTC 2017	0.0	1.047281664E9	2953.26806640625	0.0	2.5731072E7	0.0	4.0	1.008615424E9	31.866716384887695	0.0	0.0	1.06133504E9	1.051189248E9	0.0	0.0	0.07474999874830246	0.048500001430511475	0.0442500002682209	0.9922500252723694	0.7731006741523743	0.0	244.0	371.0	0.0	0.0	0.0	0.0	0.0	0.0	null	null	null	null	null	null	null	null	337.0	331.0	335.0	336.0	337.0	335.0	336.0	335.0	337.0	334.0	338.0	
Mon Jun 05 16:31:00 UTC 2017	0.0	1.047281664E9	2953.26806640625	0.0	2.5731072E7	0.0	3.0	1.008402432E9	31.866716384887695	0.0	0.0	1.06133504E9	1.050161152E9	0.0	0.0	0.09475000202655792	0.05324999988079071	0.04975000023841858	0.9922500252723694	0.7730781435966492	0.0	244.0	371.0	0.0	0.0	0.0	0.0	0.0	0.0	null	null	null	null	null	null	null	null	338.0	337.0	339.0	336.0	335.0	334.0	333.0	333.0	334.0	339.0	334.0	
Mon Jun 05 16:30:00 UTC 2017	0.0	1.047281664E9	2953.26806640625	0.0	2.5731072E7	0.0	2.0	1.008492544E9	31.866716384887695	0.0	0.0	1.06133504E9	1.050161152E9	0.0	0.0	0.08150000125169754	0.051500000059604645	0.050999999046325684	0.9922500252723694	0.7749941349029541	0.0	244.0	371.0	0.0	0.0	0.0	0.0	0.0	0.0	null	null	null	null	null	null	null	null	335.0	335.0	334.0	335.0	336.0	335.0	335.0	337.0	333.0	334.0	338.0	
Mon Jun 05 16:29:00 UTC 2017	0.0	1.047281664E9	2953.26806640625	0.0	2.5731072E7	0.0	2.0	1.008402432E9	31.866716384887695	0.0	0.0	1.06133504E9	1.050161152E9	0.0	0.0	0.07150000333786011	0.04874999821186066	0.04800000041723251	0.9922500252723694	0.7753596305847168	0.0	244.0	371.0	0.0	0.0	0.0	0.0	0.0	0.0	null	null	null	null	null	null	null	null	335.0	335.0	335.0	337.0	341.0	337.0	337.0	337.0	337.0	334.0	334.0	
Mon Jun 05 16:28:00 UTC 2017	0.0	1.047281664E9	2953.26806640625	0.0	2.5731072E7	0.0	2.0	1.008402432E9	60.14191818237305	0.0	0.0	1.06133504E9	1.051189248E9	0.0	0.0	0.07524999976158142	0.051500000059604645	0.04574999958276749	0.9922500252723694	0.7730439305305481	0.0	244.0	371.0	0.0	0.0	0.0	0.0	0.0	0.0	null	null	null	null	null	null	null	null	335.0	334.0	333.0	334.0	332.0	337.0	332.0	334.0	336.0	334.0	335.0	
Mon Jun 05 16:27:00 UTC 2017	0.0	1.047281664E9	2953.26806640625	0.0	2.5731072E7	0.0	4.0	1.008402432E9	46.57520294189453	0.0	0.0	1.06133504E9	1.050161152E9	0.0	0.0	0.07900000363588333	0.05350000038743019	0.05225000157952309	0.9922500252723694	0.7730527520179749	0.0	244.0	371.0	0.0	0.0	0.0	0.0	0.0	0.0	null	null	null	null	null	null	null	null	335.0	336.0	334.0	337.0	335.0	334.0	340.0	335.0	335.0	337.0	334.0	
Mon Jun 05 16:26:00 UTC 2017	0.0	1.047281664E9	2730.0322265625	0.0	2.5731072E7	0.0	2.0	1.008279552E9	46.57520294189453	0.0	0.0	1.06133504E9	1.050161152E9	0.0	null	0.06724999845027924	0.05550000071525574	0.04600000008940697	0.9925000071525574	0.7730351090431213	0.0	244.0	371.0	0.0	0.0	0.0	0.0	0.0	0.0	null	null	null	null	null	null	null	null	337.0	337.0	337.0	338.0	334.0	333.0	335.0	336.0	335.0	333.0	338.0	
Mon Jun 05 16:25:00 UTC 2017	0.0	1.047281664E9	3142.00927734375	0.0	2.5731072E7	0.0	2.0	1.008279552E9	36.07864761352539	0.0	0.0	1.06133504E9	1.051189248E9	0.0	0.0	0.0807500034570694	0.04724999889731407	0.045249998569488525	0.9922500252723694	0.7730180025100708	0.0	244.0	371.0	0.0	0.0	0.0	0.0	0.0	0.0	null	null	null	null	null	null	null	null	335.0	336.0	336.0	338.0	336.0	336.0	336.0	336.0	337.0	335.0	334.0	
Mon Jun 05 16:24:00 UTC 2017	0.0	1.047281664E9	3142.00927734375	0.0	2.5731072E7	0.0	2.0	1.00818944E9	36.07864761352539	0.0	0.0	1.06133504E9	1.050161152E9	0.0	0.0	0.07774999737739563	0.05700000002980232	0.05324999988079071	0.9922500252723694	0.7753106951713562	0.0	244.0	371.0	0.0	0.0	0.0	0.0	0.0	0.0	null	null	null	null	null	null	null	null	337.0	335.0	336.0	337.0	334.0	334.0	335.0	338.0	338.0	337.0	336.0	
Mon Jun 05 16:23:00 UTC 2017	0.0	1.047281664E9	2760.603515625	0.0	2.5731072E7	0.0	2.0	1.00818944E9	43.4739875793457	1.0	0.0	1.06133504E9	1.050161152E9	0.0	0.0	0.06449999660253525	0.052000001072883606	0.04600000008940697	0.9922500252723694	0.7729871869087219	0.0	244.0	371.0	0.0	0.0	0.0	0.0	0.0	0.0	null	null	null	null	null	null	null	null	336.0	333.0	336.0	335.0	338.0	335.0	334.0	335.0	333.0	332.0	335.0	
Mon Jun 05 16:22:00 UTC 2017	0.0	1.047281664E9	2760.603515625	0.0	2.5731072E7	0.0	4.0	1.00818944E9	56.464805603027344	1.0	1.0	1.06133504E9	1.050161152E9	0.0	0.0	0.07824999839067459	0.04724999889731407	0.04625000059604645	0.9922500252723694	0.7735493183135986	0.0	244.0	371.0	0.0	0.0	0.0	0.0	0.0	0.0	null	null	null	null	null	null	null	null	335.0	334.0	334.0	332.0	337.0	337.0	333.0	335.0	337.0	338.0	335.0	
Mon Jun 05 16:21:00 UTC 2017	0.0	1.047281664E9	3071.636474609375	0.0	2.5731072E7	0.0	2.0	1.008070656E9	56.464805603027344	1.0	1.0	1.06133504E9	1.051189248E9	0.0	0.0	0.10350000113248825	0.06300000101327896	0.04899999871850014	0.9919999837875366	0.7729499936103821	0.0	244.0	371.0	0.0	0.0	0.0	0.0	0.0	0.0	null	null	null	null	null	null	null	null	336.0	336.0	337.0	334.0	335.0	335.0	332.0	334.0	332.0	334.0	336.0	
Mon Jun 05 16:20:00 UTC 2017	0.0	1.047281664E9	2602.326171875	0.0	2.5731072E7	0.0	4.0	1.008070656E9	48.800254821777344	1.0	2.0	1.06133504E9	1.051189248E9	0.0	0.0	0.07750000059604645	0.05849999934434891	0.04774999991059303	0.9922500252723694	0.7729485034942627	0.0	244.0	371.0	0.0	0.0	0.0	0.0	0.0	0.0	null	null	null	null	null	null	null	null	330.0	335.0	337.0	336.0	333.0	336.0	336.0	335.0	335.0	335.0	336.0	
Mon Jun 05 16:19:00 UTC 2017	0.0	1.047281664E9	2602.326171875	0.0	2.5731072E7	0.0	5.0	1.007980544E9	44.11330795288086	1.0	1.0	1.06133504E9	1.051189248E9	0.0	0.0	0.07275000214576721	0.051249999552965164	0.051249999552965164	0.9922500252723694	0.7729465365409851	0.0	244.0	371.0	0.0	0.0	0.0	0.0	0.0	0.0	null	null	null	null	null	null	null	null	338.0	335.0	334.0	338.0	339.0	336.0	332.0	337.0	335.0	338.0	335.0	
Mon Jun 05 16:18:00 UTC 2017	0.0	1.047281664E9	2602.326171875	0.0	2.5731072E7	0.0	2.0	1.007980544E9	55.42893600463867	0.0	0.0	1.06133504E9	1.050161152E9	0.0	0.0	0.07474999874830246	0.05550000071525574	0.04774999991059303	0.9925000071525574	0.7729313969612122	0.0	244.0	371.0	0.0	0.0	0.0	0.0	0.0	0.0	null	null	null	null	null	null	null	null	334.0	331.0	337.0	336.0	337.0	334.0	337.0	336.0	335.0	335.0	338.0	
Mon Jun 05 16:17:00 UTC 2017	0.0	1.047281664E9	2602.326171875	0.0	2.5731072E7	0.0	3.0	1.007980544E9	59.70431137084961	0.0	1.0	1.06133504E9	1.051189248E9	0.0	0.0	0.0689999982714653	0.05375000089406967	0.042750000953674316	0.9922500252723694	0.772883951663971	0.0	244.0	371.0	0.0	0.0	0.0	0.0	0.0	0.0	null	null	null	null	null	null	null	null	334.0	335.0	335.0	336.0	335.0	337.0	336.0	334.0	333.0	337.0	332.0	
Mon Jun 05 16:16:00 UTC 2017	0.0	1.047281664E9	2607.74267578125	0.0	2.5731072E7	0.0	3.0	1.007767552E9	44.6961784362793	0.0	0.0	1.06133504E9	1.051189248E9	0.0	0.0	0.07500000298023224	0.04600000008940697	0.0494999997317791	0.9925000071525574	0.7728765606880188	0.0	244.0	371.0	0.0	0.0	0.0	0.0	0.0	0.0	null	null	null	null	null	null	null	null	335.0	340.0	336.0	335.0	334.0	334.0	337.0	336.0	338.0	337.0	336.0	
Mon Jun 05 16:15:00 UTC 2017	0.0	1.047281664E9	2607.74267578125	0.0	2.5731072E7	0.0	2.0	1.007857664E9	44.6961784362793	0.0	0.0	1.06133504E9	1.050161152E9	0.0	0.0	0.08150000125169754	0.05375000089406967	0.05050000175833702	0.9919999837875366	0.7728570103645325	0.0	244.0	371.0	0.0	0.0	0.0	0.0	0.0	0.0	null	null	null	null	null	null	null	null	334.0	338.0	336.0	336.0	337.0	335.0	336.0	336.0	335.0	338.0	335.0	
Mon Jun 05 16:14:00 UTC 2017	0.0	1.047281664E9	2607.74267578125	0.0	2.5731072E7	0.0	2.0	1.007767552E9	37.69165802001953	0.0	0.0	1.06133504E9	1.050161152E9	0.0	null	0.061250001192092896	0.051750000566244125	0.04475000128149986	0.9925000071525574	0.7750440835952759	0.0	244.0	371.0	0.0	0.0	0.0	0.0	0.0	0.0	null	null	null	null	null	null	null	null	336.0	334.0	333.0	335.0	335.0	337.0	335.0	337.0	336.0	335.0	338.0	
Mon Jun 05 16:13:00 UTC 2017	0.0	1.047281664E9	2365.548095703125	0.0	2.5731072E7	0.0	2.0	1.007767552E9	37.69165802001953	0.0	0.0	1.06133504E9	1.051189248E9	0.0	0.0	0.08275000005960464	0.04924999922513962	0.05000000074505806	0.9922500252723694	0.7728374600410461	0.0	244.0	371.0	0.0	0.0	0.0	0.0	0.0	0.0	null	null	null	null	null	null	null	null	336.0	336.0	336.0	334.0	332.0	336.0	333.0	337.0	336.0	336.0	331.0	
Mon Jun 05 16:12:00 UTC 2017	0.0	1.047281664E9	2723.644287109375	0.0	2.5731072E7	0.0	3.0	1.007767552E9	37.69165802001953	0.0	0.0	1.06133504E9	1.050161152E9	0.0	0.0	0.06925000250339508	0.05575000122189522	0.04774999991059303	0.9922500252723694	0.7728129625320435	0.0	244.0	371.0	0.0	0.0	0.0	0.0	0.0	0.0	null	null	null	null	null	null	null	null	336.0	337.0	334.0	337.0	338.0	332.0	338.0	335.0	333.0	336.0	337.0	
Mon Jun 05 16:11:00 UTC 2017	0.0	1.047281664E9	2802.498046875	0.0	2.5731072E7	0.0	4.0	1.00755456E9	37.69165802001953	0.0	0.0	1.06133504E9	1.050161152E9	0.0	0.0	0.10324999690055847	0.04800000041723251	0.04874999821186066	0.9922500252723694	0.7728115320205688	0.0	244.0	371.0	0.0	0.0	0.0	0.0	0.0	0.0	null	null	null	null	null	null	null	null	335.0	336.0	338.0	335.0	333.0	338.0	335.0	336.0	338.0	336.0	336.0	
Mon Jun 05 16:10:00 UTC 2017	0.0	1.047281664E9	2708.692138671875	0.0	2.5731072E7	0.0	2.0	1.007632384E9	46.88145065307617	0.0	0.0	1.06133504E9	1.051189248E9	0.0	0.0	0.07400000095367432	0.05249999836087227	0.04650000110268593	0.9922500252723694	0.7750298976898193	0.0	244.0	371.0	0.0	0.0	0.0	0.0	0.0	0.0	null	null	null	null	null	null	null	null	334.0	336.0	335.0	333.0	335.0	335.0	335.0	336.0	337.0	337.0	335.0	
Mon Jun 05 16:09:00 UTC 2017	0.0	1.047281664E9	2790.759521484375	0.0	2.5731072E7	0.0	2.0	1.007542272E9	47.00181198120117	0.0	0.0	1.06133504E9	1.051189248E9	0.0	0.0	0.07699999958276749	0.0507499985396862	0.051750000566244125	0.9922500252723694	0.7750073671340942	0.0	244.0	371.0	0.0	0.0	0.0	0.0	0.0	0.0	null	null	null	null	null	null	null	null	335.0	335.0	340.0	337.0	335.0	335.0	333.0	336.0	333.0	338.0	332.0	
Mon Jun 05 16:08:00 UTC 2017	0.0	1.047281664E9	3208.5546875	0.0	2.5731072E7	0.0	2.0	1.007542272E9	58.70677947998047	0.0	0.0	1.06133504E9	1.051189248E9	0.0	null	0.0794999971985817	0.05350000038743019	0.04975000023841858	0.9922500252723694	0.7727704048156738	0.0	244.0	371.0	0.0	0.0	0.0	0.0	0.0	0.0	null	null	null	null	null	null	null	null	339.0	334.0	334.0	334.0	336.0	336.0	336.0	335.0	338.0	335.0	334.0	
Mon Jun 05 16:07:00 UTC 2017	0.0	1.047281664E9	3208.5546875	0.0	2.5731072E7	0.0	3.0	1.007542272E9	58.70677947998047	0.0	0.0	1.06133504E9	1.050161152E9	0.0	null	0.0702499970793724	0.04749999940395355	0.045249998569488525	0.9925000071525574	0.7727635502815247	0.0	244.0	371.0	0.0	0.0	0.0	0.0	0.0	0.0	null	null	null	null	null	null	null	null	334.0	337.0	334.0	334.0	334.0	335.0	335.0	337.0	334.0	336.0	337.0	
Mon Jun 05 16:06:00 UTC 2017	0.0	1.047281664E9	2572.016357421875	0.0	2.5731072E7	0.0	3.0	1.00732928E9	70.49388885498047	0.0	0.0	1.06133504E9	1.051189248E9	0.0	null	0.07199999690055847	0.05350000038743019	0.04650000110268593	0.9922500252723694	0.7727473974227905	0.0	244.0	371.0	0.0	0.0	0.0	0.0	0.0	0.0	null	null	null	null	null	null	null	null	334.0	335.0	338.0	339.0	336.0	340.0	333.0	332.0	341.0	333.0	335.0	
Mon Jun 05 16:05:00 UTC 2017	0.0	1.047281664E9	2863.2890625	0.0	2.5731072E7	0.0	4.0	1.007419392E9	70.49388885498047	0.0	0.0	1.06133504E9	1.050161152E9	0.0	0.0	0.07575000077486038	0.04874999821186066	0.04924999922513962	0.9922500252723694	0.7727479338645935	0.0	244.0	371.0	0.0	0.0	0.0	0.0	0.0	0.0	null	null	null	null	null	null	null	null	339.0	337.0	333.0	334.0	335.0	334.0	336.0	339.0	336.0	338.0	333.0	
Mon Jun 05 16:04:00 UTC 2017	0.0	1.047281664E9	3193.190185546875	0.0	2.5731072E7	0.0	2.0	1.00732928E9	45.232505798339844	0.0	0.0	1.06133504E9	1.051189248E9	0.0	0.0	0.07824999839067459	0.054999999701976776	0.05025000125169754	0.9925000071525574	0.77497798204422	0.0	244.0	371.0	0.0	0.0	0.0	0.0	0.0	0.0	null	null	null	null	null	null	null	null	334.0	336.0	339.0	337.0	338.0	334.0	336.0	334.0	334.0	336.0	336.0	
Mon Jun 05 16:03:00 UTC 2017	0.0	1.047281664E9	3193.190185546875	0.0	2.5731072E7	0.0	2.0	1.00732928E9	45.232505798339844	0.0	0.0	1.06133504E9	1.050161152E9	0.0	0.0	0.06624999642372131	0.05299999937415123	0.04600000008940697	0.9922500252723694	0.7726970314979553	0.0	244.0	371.0	0.0	0.0	0.0	0.0	0.0	0.0	null	null	null	null	null	null	null	null	335.0	335.0	335.0	332.0	334.0	338.0	338.0	337.0	335.0	334.0	335.0	
Mon Jun 05 16:02:00 UTC 2017	0.0	1.047281664E9	3193.190185546875	0.0	2.5731072E7	0.0	3.0	1.00732928E9	45.232505798339844	0.0	0.0	1.06133504E9	1.050161152E9	0.0	null	0.07975000143051147	0.054499998688697815	0.04899999871850014	0.9917500019073486	0.7749574780464172	0.0	244.0	371.0	0.0	0.0	0.0	0.0	0.0	0.0	null	null	null	null	null	null	null	null	338.0	332.0	334.0	339.0	334.0	333.0	333.0	336.0	337.0	333.0	338.0	
Mon Jun 05 16:01:00 UTC 2017	0.0	1.047281664E9	2185.468505859375	0.0	2.5731072E7	0.0	2.0	1.0072064E9	45.232505798339844	0.0	0.0	1.06133504E9	1.051189248E9	0.0	null	0.09600000083446503	0.051750000566244125	0.048250000923871994	0.9922500252723694	0.7726955413818359	0.0	244.0	371.0	0.0	0.0	0.0	0.0	0.0	0.0	null	null	null	null	null	null	null	null	334.0	339.0	333.0	333.0	341.0	337.0	335.0	335.0	339.0	338.0	333.0	
Mon Jun 05 16:00:00 UTC 2017	0.0	1.047281664E9	2971.416259765625	0.0	2.5731072E7	0.0	2.0	1.0072064E9	45.232505798339844	0.0	0.0	1.06133504E9	1.050161152E9	0.0	0.0	0.07524999976158142	0.05350000038743019	0.051500000059604645	0.9919999837875366	0.7726662158966064	0.0	244.0	371.0	0.0	0.0	0.0	0.0	0.0	0.0	null	null	null	null	null	null	null	null	332.0	331.0	338.0	338.0	334.0	336.0	336.0	334.0	336.0	335.0	338.0	
Mon Jun 05 15:59:00 UTC 2017	0.0	1.047281664E9	3355.647705078125	0.0	2.5731072E7	0.0	4.0	1.007116288E9	45.232505798339844	0.0	0.0	1.06133504E9	1.051189248E9	0.0	0.0	0.07325000315904617	0.05025000125169754	0.048250000923871994	0.9922500252723694	0.7726485729217529	0.0	244.0	371.0	0.0	0.0	0.0	0.0	0.0	0.0	null	null	null	null	null	null	null	null	340.0	339.0	339.0	335.0	334.0	336.0	337.0	336.0	336.0	336.0	334.0	
Mon Jun 05 15:58:00 UTC 2017	0.0	1.047281664E9	2927.457275390625	0.0	2.5731072E7	0.0	2.0	1.007116288E9	64.54352569580078	0.0	0.0	1.06133504E9	1.051189248E9	0.0	0.0	0.08049999922513962	0.054499998688697815	0.04475000128149986	0.9922500252723694	0.7742876410484314	0.0	244.0	371.0	0.0	0.0	0.0	0.0	0.0	0.0	null	null	null	null	null	null	null	null	331.0	335.0	331.0	338.0	337.0	336.0	337.0	334.0	334.0	335.0	331.0	
Mon Jun 05 15:57:00 UTC 2017	0.0	1.047281664E9	2927.457275390625	0.0	2.5731072E7	0.0	3.0	1.007116288E9	64.54352569580078	0.0	0.0	1.06133504E9	1.050161152E9	0.0	0.0	0.06350000202655792	0.04675000160932541	0.05050000175833702	0.9919999837875366	0.7726549506187439	0.0	244.0	371.0	0.0	0.0	0.0	0.0	0.0	0.0	null	null	null	null	null	null	null	null	335.0	336.0	339.0	333.0	339.0	338.0	337.0	336.0	335.0	338.0	338.0	
Mon Jun 05 15:56:00 UTC 2017	0.0	1.047281664E9	2927.457275390625	0.0	2.5731072E7	0.0	6.0	1.006903296E9	48.71190643310547	0.0	0.0	1.06133504E9	1.051189248E9	0.0	0.0	0.08375000208616257	0.0572500005364418	0.04800000041723251	0.9922500252723694	0.7744246125221252	0.0	244.0	371.0	0.0	0.0	0.0	0.0	0.0	0.0	null	null	null	null	null	null	null	null	339.0	338.0	333.0	337.0	333.0	335.0	334.0	335.0	337.0	335.0	336.0	
Mon Jun 05 15:55:00 UTC 2017	0.0	1.047281664E9	3112.3779296875	0.0	2.5731072E7	0.0	2.0	1.006993408E9	50.86703109741211	0.0	0.0	1.06133504E9	1.051189248E9	0.0	0.0	0.07225000113248825	0.051500000059604645	0.04625000059604645	0.9922500252723694	0.7726354002952576	0.0	244.0	371.0	0.0	0.0	0.0	0.0	0.0	0.0	null	null	null	null	null	null	null	null	334.0	334.0	339.0	337.0	337.0	332.0	336.0	336.0	337.0	336.0	334.0	
Mon Jun 05 15:54:00 UTC 2017	0.0	1.047281664E9	3112.3779296875	0.0	2.5731072E7	0.0	2.0	1.006903296E9	54.81387710571289	0.0	0.0	1.06133504E9	1.051189248E9	0.0	0.0	0.07074999809265137	0.051249999552965164	0.04924999922513962	0.9922500252723694	0.7749036550521851	0.0	244.0	371.0	0.0	0.0	0.0	0.0	0.0	0.0	null	null	null	null	null	null	null	null	335.0	335.0	332.0	339.0	334.0	337.0	336.0	336.0	336.0	338.0	337.0	
Mon Jun 05 15:53:00 UTC 2017	0.0	1.047281664E9	3112.3779296875	0.0	2.5731072E7	0.0	5.0	1.006903296E9	54.81387710571289	0.0	0.0	1.06133504E9	1.050161152E9	0.0	0.0	0.07800000160932541	0.04899999871850014	0.04924999922513962	0.9922500252723694	0.7726026177406311	0.0	244.0	371.0	0.0	0.0	0.0	0.0	0.0	0.0	null	null	null	null	null	null	null	null	333.0	338.0	335.0	336.0	338.0	332.0	334.0	338.0	331.0	333.0	336.0	
Mon Jun 05 15:52:00 UTC 2017	0.0	1.047281664E9	2302.687255859375	0.0	2.5731072E7	0.0	3.0	1.006903296E9	54.81387710571289	0.0	0.0	1.06133504E9	1.051189248E9	0.0	0.0	0.07374999672174454	0.05324999988079071	0.04574999958276749	0.9925000071525574	0.7725355625152588	0.0	244.0	371.0	0.0	0.0	0.0	0.0	0.0	0.0	null	null	null	null	null	null	null	null	336.0	335.0	330.0	335.0	338.0	334.0	338.0	335.0	336.0	337.0	332.0	
Mon Jun 05 15:51:00 UTC 2017	0.0	1.047281664E9	2700.374755859375	0.0	2.5731072E7	0.0	2.0	1.006690304E9	54.81387710571289	0.0	0.0	1.06133504E9	1.050161152E9	0.0	0.0	0.09825000166893005	0.048500001430511475	0.051249999552965164	0.9922500252723694	0.7725380063056946	0.0	244.0	371.0	0.0	0.0	0.0	0.0	0.0	0.0	null	null	null	null	null	null	null	null	332.0	339.0	337.0	338.0	332.0	337.0	334.0	335.0	332.0	334.0	335.0	
Mon Jun 05 15:50:00 UTC 2017	0.0	1.047281664E9	3117.83837890625	0.0	2.5731072E7	0.0	4.0	1.006780416E9	54.81387710571289	0.0	0.0	1.06133504E9	1.051189248E9	0.0	0.0	0.0754999965429306	0.05575000122189522	0.04774999991059303	0.9922500252723694	0.7725228667259216	0.0	244.0	371.0	0.0	0.0	0.0	0.0	0.0	0.0	null	null	null	null	null	null	null	null	337.0	335.0	336.0	337.0	336.0	338.0	335.0	337.0	338.0	335.0	336.0	
Mon Jun 05 15:49:00 UTC 2017	0.0	1.047281664E9	3117.83837890625	0.0	2.5731072E7	0.0	2.0	1.006690304E9	42.062713623046875	0.0	0.0	1.06133504E9	1.051189248E9	0.0	0.0	0.07625000178813934	0.04650000110268593	0.05050000175833702	0.9922500252723694	0.7724181413650513	0.0	244.0	371.0	0.0	0.0	0.0	0.0	0.0	0.0	null	null	null	null	null	null	null	null	334.0	339.0	334.0	331.0	333.0	333.0	335.0	337.0	334.0	333.0	336.0	
Mon Jun 05 15:48:00 UTC 2017	0.0	1.047281664E9	3117.83837890625	0.0	2.5731072E7	0.0	2.0	1.006690304E9	42.062713623046875	0.0	0.0	1.06133504E9	1.050161152E9	0.0	0.0	0.0677499994635582	0.05299999937415123	0.04475000128149986	0.9922500252723694	0.7747025489807129	0.0	244.0	371.0	0.0	0.0	0.0	0.0	0.0	0.0	null	null	null	null	null	null	null	null	337.0	335.0	334.0	336.0	336.0	338.0	336.0	336.0	337.0	335.0	337.0	
Mon Jun 05 15:47:00 UTC 2017	0.0	1.047281664E9	3117.83837890625	0.0	2.5731072E7	0.0	2.0	1.006690304E9	53.17220687866211	0.0	0.0	1.06133504E9	1.050161152E9	0.0	0.0	0.07599999755620956	0.05299999937415123	0.051249999552965164	0.9919999837875366	0.772385835647583	0.0	244.0	371.0	0.0	0.0	0.0	0.0	0.0	0.0	null	null	null	null	null	null	null	null	334.0	338.0	335.0	332.0	336.0	333.0	336.0	336.0	338.0	334.0	337.0	
Mon Jun 05 15:46:00 UTC 2017	0.0	1.047281664E9	2758.203369140625	0.0	2.5731072E7	0.0	2.0	1.00657152E9	46.44214630126953	0.0	0.0	1.06133504E9	1.051189248E9	0.0	0.0	0.08775000274181366	0.05525000020861626	0.04749999940395355	0.9922500252723694	0.7723178267478943	0.0	244.0	371.0	0.0	0.0	0.0	0.0	0.0	0.0	null	null	null	null	null	null	null	null	337.0	335.0	339.0	336.0	335.0	338.0	332.0	335.0	333.0	335.0	335.0	
Mon Jun 05 15:45:00 UTC 2017	0.0	1.047281664E9	2771.011474609375	0.0	2.5731072E7	0.0	2.0	1.006567424E9	46.44214630126953	0.0	0.0	1.06133504E9	1.050161152E9	0.0	0.0	0.06925000250339508	0.04874999821186066	0.04574999958276749	0.9919999837875366	0.772301197052002	0.0	244.0	371.0	0.0	0.0	0.0	0.0	0.0	0.0	null	null	null	null	null	null	null	null	334.0	335.0	331.0	338.0	337.0	338.0	337.0	335.0	337.0	336.0	334.0	
Mon Jun 05 15:44:00 UTC 2017	0.0	1.047281664E9	2771.011474609375	0.0	2.5731072E7	0.0	4.0	1.006477312E9	51.634029388427734	0.0	0.0	1.06133504E9	1.050161152E9	0.0	0.0	0.0807500034570694	0.052000001072883606	0.04975000023841858	0.9922500252723694	0.7722880244255066	0.0	244.0	371.0	0.0	0.0	0.0	0.0	0.0	0.0	null	null	null	null	null	null	null	null	334.0	337.0	337.0	336.0	336.0	331.0	335.0	335.0	334.0	338.0	335.0	
Mon Jun 05 15:43:00 UTC 2017	0.0	1.047281664E9	2794.553466796875	0.0	2.5731072E7	0.0	4.0	1.006477312E9	53.92068862915039	0.0	0.0	1.06133504E9	1.050161152E9	0.0	0.0	0.07374999672174454	0.04924999922513962	0.052000001072883606	0.9922500252723694	0.7745557427406311	0.0	244.0	371.0	0.0	0.0	0.0	0.0	0.0	0.0	null	null	null	null	null	null	null	null	337.0	335.0	332.0	333.0	337.0	337.0	335.0	334.0	333.0	336.0	335.0	
Mon Jun 05 15:42:00 UTC 2017	0.0	1.047281664E9	2794.553466796875	0.0	2.5731072E7	0.0	2.0	1.006477312E9	53.92068862915039	0.0	0.0	1.06133504E9	1.051189248E9	0.0	0.0	0.0794999971985817	0.05874999985098839	0.045499999076128006	0.9922500252723694	0.7722703814506531	0.0	244.0	371.0	0.0	0.0	0.0	0.0	0.0	0.0	null	null	null	null	null	null	null	null	336.0	336.0	339.0	338.0	336.0	336.0	335.0	338.0	336.0	334.0	338.0	
Mon Jun 05 15:41:00 UTC 2017	0.0	1.047281664E9	2306.53369140625	0.0	2.5731072E7	0.0	5.0	1.006268416E9	41.32664489746094	0.0	0.0	1.06133504E9	1.051189248E9	0.0	null	0.09075000137090683	0.05025000125169754	0.04724999889731407	0.9922500252723694	0.7746071219444275	0.0	244.0	371.0	0.0	0.0	0.0	0.0	0.0	0.0	null	null	null	null	null	null	null	null	337.0	336.0	337.0	332.0	338.0	333.0	335.0	335.0	333.0	335.0	335.0	
Mon Jun 05 15:40:00 UTC 2017	0.0	1.047281664E9	2306.53369140625	0.0	2.5731072E7	0.0	2.0	1.006358528E9	50.03581237792969	0.0	0.0	1.06133504E9	1.050161152E9	0.0	null	0.08624999970197678	0.05350000038743019	0.05050000175833702	0.9919999837875366	0.7722972631454468	0.0	244.0	371.0	0.0	0.0	0.0	0.0	0.0	0.0	null	null	null	null	null	null	null	null	336.0	331.0	336.0	339.0	337.0	334.0	335.0	335.0	340.0	334.0	334.0	
Mon Jun 05 15:39:00 UTC 2017	0.0	1.047281664E9	3378.088134765625	0.0	2.5731072E7	0.0	2.0	1.006268416E9	46.08562469482422	0.0	0.0	1.06133504E9	1.051189248E9	0.0	null	0.06274999678134918	0.048500001430511475	0.045499999076128006	0.9922500252723694	0.772294819355011	0.0	244.0	371.0	0.0	0.0	0.0	0.0	0.0	0.0	null	null	null	null	null	null	null	null	335.0	338.0	335.0	332.0	333.0	338.0	333.0	335.0	334.0	334.0	334.0	
Mon Jun 05 15:38:00 UTC 2017	0.0	1.047281664E9	3378.088134765625	0.0	2.5731072E7	0.0	2.0	1.006268416E9	37.14521026611328	0.0	0.0	1.06133504E9	1.050161152E9	0.0	null	0.07500000298023224	0.04650000110268593	0.054499998688697815	0.9922500252723694	0.7722688913345337	0.0	244.0	371.0	0.0	0.0	0.0	0.0	0.0	0.0	null	null	null	null	null	null	null	null	337.0	335.0	335.0	336.0	334.0	337.0	334.0	333.0	333.0	335.0	338.0	
Mon Jun 05 15:37:00 UTC 2017	0.0	1.047281664E9	3378.088134765625	0.0	2.5731072E7	0.0	4.0	1.006268416E9	39.32487487792969	0.0	0.0	1.06133504E9	1.051189248E9	0.0	null	0.0742499977350235	0.05249999836087227	0.04450000077486038	0.9925000071525574	0.7737650871276855	0.0	244.0	371.0	0.0	0.0	0.0	0.0	0.0	0.0	null	null	null	null	null	null	null	null	336.0	337.0	333.0	336.0	337.0	335.0	336.0	336.0	335.0	333.0	336.0	
Mon Jun 05 15:36:00 UTC 2017	0.0	1.047281664E9	2679.141845703125	0.0	2.5731072E7	0.0	3.0	1.006145536E9	39.32487487792969	0.0	0.0	1.06133504E9	1.051189248E9	0.0	null	0.0820000022649765	0.05050000175833702	0.048500001430511475	0.9922500252723694	0.7745484113693237	0.0	244.0	371.0	0.0	0.0	0.0	0.0	0.0	0.0	null	null	null	null	null	null	null	null	335.0	337.0	336.0	335.0	337.0	337.0	334.0	339.0	335.0	338.0	336.0	
Mon Jun 05 15:35:00 UTC 2017	0.0	1.047281664E9	2679.141845703125	0.0	2.5731072E7	0.0	4.0	1.006145536E9	41.749759674072266	0.0	0.0	1.06133504E9	1.050161152E9	0.0	null	0.07124999910593033	0.057999998331069946	0.0507499985396862	0.9922500252723694	0.7722444534301758	0.0	244.0	371.0	0.0	0.0	0.0	0.0	0.0	0.0	null	null	null	null	null	null	null	null	334.0	337.0	341.0	334.0	339.0	338.0	331.0	335.0	336.0	333.0	334.0	
Mon Jun 05 15:34:00 UTC 2017	0.0	1.047281664E9	2539.57568359375	0.0	2.5731072E7	0.0	8.0	1.006055424E9	41.749759674072266	0.0	0.0	1.06133504E9	1.051189248E9	0.0	null	0.08299999684095383	0.048250000923871994	0.051249999552965164	0.9922500252723694	0.7722429633140564	0.0	244.0	371.0	0.0	0.0	0.0	0.0	0.0	0.0	null	null	null	null	null	null	null	null	335.0	334.0	336.0	334.0	334.0	335.0	334.0	340.0	337.0	333.0	332.0	
Mon Jun 05 15:33:00 UTC 2017	0.0	1.047281664E9	2723.729736328125	0.0	2.5731072E7	0.0	2.0	1.006055424E9	42.42414093017578	0.0	0.0	1.06133504E9	1.051189248E9	0.0	null	0.0729999989271164	0.05700000002980232	0.04924999922513962	0.9925000071525574	0.7722424864768982	0.0	244.0	371.0	0.0	0.0	0.0	0.0	0.0	0.0	null	null	null	null	null	null	null	null	335.0	339.0	335.0	333.0	338.0	336.0	339.0	335.0	332.0	338.0	339.0	
Mon Jun 05 15:32:00 UTC 2017	0.0	1.047281664E9	2882.624267578125	0.0	2.5731072E7	0.0	4.0	1.006055424E9	45.55584716796875	0.0	0.0	1.06133504E9	1.050161152E9	0.0	0.0	0.06624999642372131	0.04625000059604645	0.04625000059604645	0.9925000071525574	0.7722273468971252	0.0	244.0	371.0	0.0	0.0	0.0	0.0	0.0	0.0	null	null	null	null	null	null	null	null	333.0	335.0	336.0	341.0	335.0	334.0	333.0	336.0	338.0	333.0	333.0	
Mon Jun 05 15:31:00 UTC 2017	0.0	1.047281664E9	2976.307373046875	0.0	2.5731072E7	0.0	2.0	1.005842432E9	45.55584716796875	0.0	0.0	1.06133504E9	1.051189248E9	0.0	0.0	0.11400000005960464	0.05400000140070915	0.04874999821186066	0.9925000071525574	0.7722214460372925	0.0	244.0	371.0	0.0	0.0	0.0	0.0	0.0	0.0	null	null	null	null	null	null	null	null	338.0	341.0	334.0	334.0	333.0	339.0	332.0	336.0	333.0	336.0	337.0	
Mon Jun 05 15:30:00 UTC 2017	0.0	1.047281664E9	2976.307373046875	0.0	2.5731072E7	0.0	2.0	1.005932544E9	47.819766998291016	0.0	0.0	1.06133504E9	1.051189248E9	0.0	0.0	0.07050000131130219	0.05575000122189522	0.045249998569488525	0.9922500252723694	0.7741594314575195	0.0	244.0	371.0	0.0	0.0	0.0	0.0	0.0	0.0	null	null	null	null	null	null	null	null	336.0	333.0	334.0	336.0	341.0	335.0	335.0	336.0	337.0	335.0	334.0	
Mon Jun 05 15:29:00 UTC 2017	0.0	1.047281664E9	2947.6279296875	0.0	2.5731072E7	0.0	2.0	1.005842432E9	47.819766998291016	0.0	0.0	1.06133504E9	1.051189248E9	0.0	null	0.07925000041723251	0.0507499985396862	0.052000001072883606	0.9922500252723694	0.7721064686775208	0.0	244.0	371.0	0.0	0.0	0.0	0.0	0.0	0.0	null	null	null	null	null	null	null	null	336.0	339.0	338.0	337.0	333.0	333.0	338.0	338.0	334.0	335.0	340.0	
Mon Jun 05 15:28:00 UTC 2017	0.0	1.047281664E9	2879.018310546875	0.0	2.5731072E7	0.0	3.0	1.005842432E9	47.819766998291016	0.0	0.0	1.06133504E9	1.050161152E9	0.0	null	0.0820000022649765	0.051750000566244125	0.04650000110268593	0.9922500252723694	0.7732704281806946	0.0	244.0	371.0	0.0	0.0	0.0	0.0	0.0	0.0	null	null	null	null	null	null	null	null	336.0	335.0	335.0	335.0	334.0	333.0	331.0	335.0	337.0	334.0	336.0	
Mon Jun 05 15:27:00 UTC 2017	0.0	1.047281664E9	2461.000732421875	0.0	2.5731072E7	0.0	2.0	1.005842432E9	47.819766998291016	0.0	0.0	1.06133504E9	1.051189248E9	0.0	0.0	0.07649999856948853	0.05274999886751175	0.05025000125169754	0.9922500252723694	0.7720595002174377	0.0	244.0	371.0	0.0	0.0	0.0	0.0	0.0	0.0	null	null	null	null	null	null	null	null	335.0	339.0	335.0	337.0	339.0	335.0	337.0	333.0	339.0	332.0	334.0	
Mon Jun 05 15:26:00 UTC 2017	0.0	1.047281664E9	2461.000732421875	0.0	2.5731072E7	0.0	4.0	1.005633536E9	44.66507339477539	0.0	0.0	1.06133504E9	1.050161152E9	0.0	0.0	0.07450000196695328	0.04675000160932541	0.04724999889731407	0.9922500252723694	0.7741550803184509	0.0	244.0	371.0	0.0	0.0	0.0	0.0	0.0	0.0	null	null	null	null	null	null	null	null	334.0	334.0	335.0	332.0	335.0	339.0	336.0	335.0	334.0	340.0	336.0	
Mon Jun 05 15:25:00 UTC 2017	0.0	1.047281664E9	3254.666259765625	0.0	2.5731072E7	0.0	2.0	1.005723648E9	44.66507339477539	0.0	0.0	1.06133504E9	1.050161152E9	0.0	0.0	0.06199999898672104	0.054749999195337296	0.051249999552965164	0.9922500252723694	0.772035539150238	0.0	244.0	371.0	0.0	0.0	0.0	0.0	0.0	0.0	null	null	null	null	null	null	null	null	333.0	336.0	336.0	335.0	336.0	333.0	333.0	341.0	338.0	332.0	332.0	
Mon Jun 05 15:24:00 UTC 2017	0.0	1.047281664E9	2399.97509765625	0.0	2.5731072E7	0.0	2.0	1.005633536E9	44.66507339477539	0.0	0.0	1.06133504E9	1.050161152E9	0.0	0.0	0.08250000327825546	0.051249999552965164	0.04749999940395355	0.9922500252723694	0.7720282077789307	0.0	244.0	371.0	0.0	0.0	0.0	0.0	0.0	0.0	null	null	null	null	null	null	null	null	335.0	334.0	333.0	336.0	336.0	339.0	337.0	336.0	335.0	336.0	335.0	
Mon Jun 05 15:23:00 UTC 2017	0.0	1.047281664E9	2399.97509765625	0.0	2.5731072E7	0.0	3.0	1.005633536E9	42.92732238769531	0.0	0.0	1.06133504E9	1.051189248E9	0.0	0.0	0.0767500028014183	0.04800000041723251	0.04399999976158142	0.9922500252723694	0.7720017433166504	0.0	244.0	371.0	0.0	0.0	0.0	0.0	0.0	0.0	null	null	null	null	null	null	null	null	339.0	337.0	332.0	337.0	337.0	332.0	334.0	334.0	335.0	338.0	341.0	
Mon Jun 05 15:22:00 UTC 2017	0.0	1.047281664E9	2399.97509765625	0.0	2.5731072E7	0.0	2.0	1.005633536E9	42.92732238769531	0.0	0.0	1.06133504E9	1.050161152E9	0.0	0.0	0.06875000149011612	0.05674999952316284	0.04899999871850014	0.9922500252723694	0.772930920124054	0.0	244.0	371.0	0.0	0.0	0.0	0.0	0.0	0.0	null	null	null	null	null	null	null	null	330.0	335.0	335.0	336.0	336.0	337.0	340.0	340.0	338.0	333.0	333.0	
Mon Jun 05 15:21:00 UTC 2017	0.0	1.047281664E9	2399.97509765625	0.0	2.5731072E7	0.0	2.0	1.005420544E9	54.5593147277832	0.0	0.0	1.06133504E9	1.050161152E9	0.0	0.0	0.10199999809265137	0.050999999046325684	0.04899999871850014	0.9922500252723694	0.7719690203666687	0.0	244.0	371.0	0.0	0.0	0.0	0.0	0.0	0.0	null	null	null	null	null	null	null	null	336.0	332.0	332.0	337.0	336.0	337.0	335.0	336.0	332.0	335.0	336.0	
Mon Jun 05 15:20:00 UTC 2017	0.0	1.047281664E9	2399.97509765625	0.0	2.5731072E7	0.0	2.0	1.005510656E9	54.5593147277832	0.0	0.0	1.06133504E9	1.050161152E9	0.0	0.0	0.0807500034570694	0.04924999922513962	0.04774999991059303	0.9919999837875366	0.7742377519607544	0.0	244.0	371.0	0.0	0.0	0.0	0.0	0.0	0.0	null	null	null	null	null	null	null	null	335.0	335.0	337.0	336.0	338.0	337.0	337.0	337.0	336.0	338.0	333.0	
Mon Jun 05 15:19:00 UTC 2017	0.0	1.047281664E9	2408.8349609375	0.0	2.5731072E7	0.0	2.0	1.005420544E9	57.48041534423828	0.0	0.0	1.06133504E9	1.050161152E9	0.0	0.0	0.07349999994039536	0.05324999988079071	0.05225000157952309	0.9922500252723694	0.7719264030456543	0.0	244.0	371.0	0.0	0.0	0.0	0.0	0.0	0.0	null	null	null	null	null	null	null	null	337.0	336.0	336.0	338.0	334.0	334.0	334.0	336.0	337.0	333.0	335.0	
Mon Jun 05 15:18:00 UTC 2017	0.0	1.047281664E9	2408.8349609375	0.0	2.5731072E7	0.0	2.0	1.005420544E9	48.80321502685547	0.0	0.0	1.06133504E9	1.050161152E9	0.0	0.0	0.07625000178813934	0.05525000020861626	0.04475000128149986	0.9922500252723694	0.771906852722168	0.0	244.0	371.0	0.0	0.0	0.0	0.0	0.0	0.0	null	null	null	null	null	null	null	null	332.0	332.0	337.0	334.0	335.0	334.0	337.0	335.0	337.0	338.0	339.0	
Mon Jun 05 15:17:00 UTC 2017	0.0	1.047281664E9	2553.9658203125	0.0	2.5731072E7	0.0	4.0	1.005420544E9	48.80321502685547	0.0	0.0	1.06133504E9	1.050161152E9	0.0	0.0	0.07450000196695328	0.051500000059604645	0.0494999997317791	0.9922500252723694	0.7718980312347412	0.0	244.0	371.0	0.0	0.0	0.0	0.0	0.0	0.0	null	null	null	null	null	null	null	null	334.0	336.0	332.0	332.0	339.0	334.0	335.0	338.0	334.0	336.0	338.0	
Mon Jun 05 15:16:00 UTC 2017	0.0	1.047281664E9	2553.9658203125	0.0	2.5731072E7	0.0	5.0	1.005207552E9	38.99871826171875	0.0	0.0	1.06133504E9	1.051189248E9	0.0	0.0	0.0637499988079071	0.051750000566244125	0.05050000175833702	0.9922500252723694	0.7719019651412964	0.0	244.0	371.0	0.0	0.0	0.0	0.0	0.0	0.0	null	null	null	null	null	null	null	null	336.0	336.0	338.0	336.0	331.0	336.0	336.0	334.0	334.0	337.0	335.0	
Mon Jun 05 15:15:00 UTC 2017	0.0	1.047281664E9	3014.577392578125	0.0	2.5731072E7	0.0	3.0	1.005297664E9	38.99871826171875	0.0	0.0	1.06133504E9	1.051189248E9	0.0	null	0.08449999988079071	0.04774999991059303	0.04800000041723251	0.9922500252723694	0.7727528214454651	0.0	244.0	371.0	0.0	0.0	0.0	0.0	0.0	0.0	null	null	null	null	null	null	null	null	335.0	337.0	331.0	337.0	337.0	335.0	337.0	338.0	336.0	334.0	334.0	
Mon Jun 05 15:14:00 UTC 2017	0.0	1.047281664E9	2616.08544921875	0.0	2.5731072E7	0.0	3.0	1.005207552E9	38.99871826171875	0.0	0.0	1.06133504E9	1.051189248E9	0.0	null	0.06875000149011612	0.0507499985396862	0.04349999874830246	0.9925000071525574	0.7718652486801147	0.0	244.0	371.0	0.0	0.0	0.0	0.0	0.0	0.0	null	null	null	null	null	null	null	null	337.0	339.0	337.0	333.0	337.0	338.0	338.0	335.0	337.0	339.0	333.0	
Mon Jun 05 15:13:00 UTC 2017	0.0	1.047281664E9	3461.80322265625	0.0	2.5731072E7	0.0	2.0	1.005207552E9	46.44026565551758	0.0	0.0	1.06133504E9	1.050161152E9	0.0	0.0	0.07249999791383743	0.05249999836087227	0.04774999991059303	0.9925000071525574	0.7718461751937866	0.0	244.0	371.0	0.0	0.0	0.0	0.0	0.0	0.0	null	null	null	null	null	null	null	null	334.0	334.0	336.0	335.0	331.0	334.0	335.0	336.0	335.0	335.0	338.0	
Mon Jun 05 15:12:00 UTC 2017	0.0	1.047281664E9	3461.80322265625	0.0	2.5731072E7	0.0	3.0	1.005207552E9	46.44026565551758	0.0	0.0	1.06133504E9	1.051189248E9	0.0	0.0	0.08299999684095383	0.054999999701976776	0.0507499985396862	0.9925000071525574	0.7718300223350525	0.0	244.0	371.0	0.0	0.0	0.0	0.0	0.0	0.0	null	null	null	null	null	null	null	null	336.0	336.0	337.0	334.0	336.0	337.0	336.0	333.0	330.0	336.0	334.0	
Mon Jun 05 15:11:00 UTC 2017	0.0	1.047281664E9	3461.80322265625	0.0	2.5731072E7	0.0	4.0	1.00499456E9	46.44026565551758	0.0	0.0	1.06133504E9	1.051189248E9	0.0	0.0	0.09849999845027924	0.05225000157952309	0.04800000041723251	0.9922500252723694	0.7718251347541809	0.0	244.0	371.0	0.0	0.0	0.0	0.0	0.0	0.0	null	null	null	null	null	null	null	null	336.0	336.0	334.0	337.0	338.0	335.0	336.0	337.0	336.0	337.0	335.0	
Mon Jun 05 15:10:00 UTC 2017	0.0	1.047281664E9	3461.80322265625	0.0	2.5731072E7	0.0	3.0	1.005346816E9	50.192718505859375	0.0	0.0	1.06133504E9	1.051189248E9	0.0	null	0.07349999994039536	0.05249999836087227	0.04924999922513962	0.9922500252723694	0.7718251347541809	0.0	244.0	371.0	0.0	0.0	0.0	0.0	0.0	0.0	null	null	null	null	null	null	null	null	335.0	333.0	335.0	334.0	337.0	336.0	333.0	334.0	338.0	334.0	336.0	
Mon Jun 05 15:09:00 UTC 2017	0.0	1.047281664E9	2769.119140625	0.0	2.5731072E7	0.0	4.0	1.004834816E9	50.00511169433594	0.0	0.0	1.06133504E9	1.050161152E9	0.0	null	0.07699999958276749	0.04749999940395355	0.045249998569488525	0.9919999837875366	0.7718613743782043	0.0	244.0	371.0	0.0	0.0	0.0	0.0	0.0	0.0	null	null	null	null	null	null	null	null	335.0	338.0	337.0	337.0	334.0	335.0	335.0	334.0	335.0	336.0	336.0	
Mon Jun 05 15:08:00 UTC 2017	0.0	1.047281664E9	2769.119140625	0.0	2.5731072E7	0.0	2.0	1.004834816E9	44.800262451171875	0.0	0.0	1.06133504E9	1.051189248E9	0.0	null	0.07599999755620956	0.05649999901652336	0.04749999940395355	0.9922500252723694	0.7718417644500732	0.0	244.0	371.0	0.0	0.0	0.0	0.0	0.0	0.0	null	null	null	null	null	null	null	null	330.0	336.0	334.0	338.0	334.0	334.0	336.0	333.0	333.0	336.0	335.0	
Mon Jun 05 15:07:00 UTC 2017	0.0	1.047281664E9	2669.470458984375	0.0	2.5731072E7	0.0	3.0	1.004834816E9	52.86729049682617	0.0	0.0	1.06133504E9	1.050161152E9	0.0	null	0.0677499994635582	0.05050000175833702	0.048500001430511475	0.9922500252723694	0.7732327580451965	0.0	244.0	371.0	0.0	0.0	0.0	0.0	0.0	0.0	null	null	null	null	null	null	null	null	339.0	334.0	336.0	335.0	338.0	335.0	336.0	336.0	339.0	335.0	339.0	
Mon Jun 05 15:06:00 UTC 2017	0.0	1.047281664E9	2669.470458984375	0.0	2.5731072E7	0.0	2.0	1.004621824E9	51.19104766845703	0.0	0.0	1.06133504E9	1.051189248E9	0.0	null	0.08375000208616257	0.04924999922513962	0.045499999076128006	0.9922500252723694	0.7718237042427063	0.0	244.0	371.0	0.0	0.0	0.0	0.0	0.0	0.0	null	null	null	null	null	null	null	null	336.0	335.0	336.0	334.0	333.0	336.0	334.0	335.0	335.0	337.0	336.0	
Mon Jun 05 15:05:00 UTC 2017	0.0	1.047281664E9	2669.470458984375	0.0	2.5731072E7	0.0	2.0	1.004711936E9	48.607784271240234	0.0	0.0	1.06133504E9	1.050161152E9	0.0	null	0.07325000315904617	0.0507499985396862	0.05350000038743019	0.9922500252723694	0.7740973234176636	0.0	244.0	371.0	0.0	0.0	0.0	0.0	0.0	0.0	null	null	null	null	null	null	null	null	334.0	337.0	338.0	334.0	337.0	336.0	337.0	334.0	333.0	335.0	337.0	
Mon Jun 05 15:04:00 UTC 2017	0.0	1.047281664E9	2669.470458984375	0.0	2.5731072E7	0.0	3.0	1.004621824E9	48.607784271240234	1.0	0.0	1.06133504E9	1.050161152E9	0.0	null	0.07474999874830246	0.052000001072883606	0.04650000110268593	0.9925000071525574	0.7718051075935364	0.0	244.0	371.0	0.0	0.0	0.0	0.0	0.0	0.0	null	null	null	null	null	null	null	null	338.0	336.0	335.0	334.0	336.0	335.0	335.0	332.0	338.0	336.0	338.0	
Mon Jun 05 15:03:00 UTC 2017	0.0	1.047281664E9	2515.390380859375	0.0	2.5731072E7	0.0	2.0	1.004621824E9	70.70354461669922	0.0	0.0	1.06133504E9	1.051189248E9	0.0	null	0.07000000029802322	0.057500001043081284	0.04800000041723251	0.9922500252723694	0.7717869877815247	0.0	244.0	371.0	0.0	0.0	0.0	0.0	0.0	0.0	null	null	null	null	null	null	null	null	334.0	335.0	332.0	337.0	334.0	333.0	333.0	334.0	334.0	336.0	332.0	
Mon Jun 05 15:02:00 UTC 2017	0.0	1.047281664E9	2736.919677734375	0.0	2.5731072E7	0.0	3.0	1.004621824E9	41.87645721435547	0.0	0.0	1.06133504E9	1.050161152E9	0.0	null	0.08174999803304672	0.054999999701976776	0.04699999839067459	0.9922500252723694	0.7717150449752808	0.0	244.0	371.0	0.0	0.0	0.0	0.0	0.0	0.0	null	null	null	null	null	null	null	null	333.0	334.0	337.0	335.0	339.0	339.0	336.0	337.0	335.0	336.0	341.0	
Mon Jun 05 15:01:00 UTC 2017	0.0	1.047281664E9	2736.919677734375	0.0	2.5731072E7	0.0	3.0	1.004408832E9	60.22195053100586	0.0	0.0	1.06133504E9	1.051189248E9	0.0	0.0	0.09549999982118607	0.04975000023841858	0.04749999940395355	0.9922500252723694	0.7717238664627075	0.0	244.0	371.0	0.0	0.0	0.0	0.0	0.0	0.0	null	null	null	null	null	null	null	null	338.0	336.0	337.0	331.0	337.0	336.0	336.0	336.0	339.0	336.0	334.0	
Mon Jun 05 15:00:00 UTC 2017	0.0	1.047281664E9	2736.919677734375	0.0	2.5731072E7	0.0	4.0	1.004498944E9	43.41132736206055	0.0	0.0	1.06133504E9	1.050161152E9	0.0	0.0	0.0742499977350235	0.051500000059604645	0.048500001430511475	0.9922500252723694	0.7717253565788269	0.0	244.0	371.0	0.0	0.0	0.0	0.0	0.0	0.0	null	null	null	null	null	null	null	null	334.0	340.0	334.0	338.0	335.0	336.0	336.0	331.0	335.0	335.0	337.0	
Mon Jun 05 14:59:00 UTC 2017	0.0	1.047281664E9	3159.375732421875	0.0	2.5731072E7	0.0	2.0	1.004408832E9	45.85512924194336	0.0	0.0	1.06133504E9	1.050161152E9	0.0	0.0	0.07750000059604645	0.051249999552965164	0.04475000128149986	0.9919999837875366	0.7716857194900513	0.0	244.0	371.0	0.0	0.0	0.0	0.0	0.0	0.0	null	null	null	null	null	null	null	null	337.0	336.0	334.0	335.0	335.0	335.0	335.0	337.0	337.0	335.0	334.0	
Mon Jun 05 14:58:00 UTC 2017	0.0	1.047281664E9	2521.23095703125	0.0	2.5731072E7	0.0	2.0	1.004408832E9	45.85512924194336	0.0	0.0	1.06133504E9	1.051189248E9	0.0	0.0	0.08349999785423279	0.0494999997317791	0.05274999886751175	0.9922500252723694	0.7716866731643677	0.0	244.0	371.0	0.0	0.0	0.0	0.0	0.0	0.0	null	null	null	null	null	null	null	null	334.0	332.0	337.0	332.0	337.0	340.0	336.0	334.0	336.0	334.0	338.0	
Mon Jun 05 14:57:00 UTC 2017	0.0	1.047281664E9	2702.0166015625	0.0	2.5731072E7	0.0	3.0	1.004408832E9	36.79159164428711	0.0	0.0	1.06133504E9	1.051189248E9	0.0	0.0	0.07175000011920929	0.051500000059604645	0.045249998569488525	0.9922500252723694	0.7716460824012756	0.0	244.0	371.0	0.0	0.0	0.0	0.0	0.0	0.0	null	null	null	null	null	null	null	null	336.0	336.0	334.0	338.0	335.0	335.0	334.0	335.0	336.0	339.0	333.0	
Mon Jun 05 14:56:00 UTC 2017	0.0	1.047281664E9	2702.0166015625	0.0	2.5731072E7	0.0	2.0	1.004199936E9	36.79159164428711	0.0	0.0	1.06133504E9	1.050161152E9	0.0	0.0	0.07050000131130219	0.054249998182058334	0.045499999076128006	0.9925000071525574	0.7722591161727905	0.0	244.0	371.0	0.0	0.0	0.0	0.0	0.0	0.0	null	null	null	null	null	null	null	null	335.0	335.0	337.0	334.0	335.0	336.0	337.0	337.0	336.0	335.0	337.0	
Mon Jun 05 14:55:00 UTC 2017	0.0	1.047281664E9	2702.0166015625	0.0	2.5731072E7	0.0	2.0	1.004285952E9	36.79159164428711	0.0	0.0	1.06133504E9	1.051189248E9	0.0	0.0	0.0832500010728836	0.04749999940395355	0.048500001430511475	0.9922500252723694	0.7739108800888062	0.0	244.0	371.0	0.0	0.0	0.0	0.0	0.0	0.0	null	null	null	null	null	null	null	null	334.0	336.0	334.0	333.0	338.0	334.0	339.0	335.0	335.0	340.0	337.0	
Mon Jun 05 14:54:00 UTC 2017	0.0	1.047281664E9	2702.0166015625	0.0	2.5731072E7	0.0	2.0	1.00419584E9	40.31288146972656	0.0	0.0	1.06133504E9	1.051189248E9	0.0	0.0	0.0637499988079071	0.05649999901652336	0.04675000160932541	0.9922500252723694	0.7716098427772522	0.0	244.0	371.0	0.0	0.0	0.0	0.0	0.0	0.0	null	null	null	null	null	null	null	null	334.0	334.0	333.0	334.0	332.0	333.0	336.0	336.0	335.0	337.0	334.0	
Mon Jun 05 14:53:00 UTC 2017	0.0	1.047281664E9	2684.9248046875	0.0	2.5731072E7	0.0	2.0	1.00419584E9	40.31288146972656	0.0	0.0	1.06133504E9	1.050161152E9	0.0	0.0	0.07625000178813934	0.05299999937415123	0.04600000008940697	0.9922500252723694	0.7715854048728943	0.0	244.0	371.0	0.0	0.0	0.0	0.0	0.0	0.0	null	null	null	null	null	null	null	null	334.0	336.0	332.0	331.0	336.0	336.0	334.0	336.0	338.0	336.0	338.0	
Mon Jun 05 14:52:00 UTC 2017	0.0	1.047281664E9	3151.697998046875	0.0	2.5731072E7	0.0	3.0	1.00419584E9	40.31288146972656	0.0	0.0	1.06133504E9	1.051189248E9	0.0	0.0	0.08699999749660492	0.051500000059604645	0.05350000038743019	0.9922500252723694	0.773860514163971	0.0	244.0	371.0	0.0	0.0	0.0	0.0	0.0	0.0	null	null	null	null	null	null	null	null	338.0	334.0	335.0	334.0	335.0	335.0	336.0	339.0	336.0	335.0	335.0	
Mon Jun 05 14:51:00 UTC 2017	0.0	1.047281664E9	3151.697998046875	0.0	2.5731072E7	0.0	5.0	1.003986944E9	35.78335189819336	0.0	0.0	1.06133504E9	1.051189248E9	0.0	0.0	0.08824999630451202	0.0507499985396862	0.04574999958276749	0.9922500252723694	0.7738394737243652	0.0	244.0	371.0	0.0	0.0	0.0	0.0	0.0	0.0	null	null	null	null	null	null	null	null	335.0	338.0	337.0	336.0	336.0	338.0	336.0	332.0	334.0	335.0	334.0	
Mon Jun 05 14:50:00 UTC 2017	0.0	1.047281664E9	2951.3115234375	0.0	2.5731072E7	0.0	2.0	1.004077056E9	35.78335189819336	0.0	0.0	1.06133504E9	1.051189248E9	0.0	0.0	0.07925000041723251	0.04874999821186066	0.048250000923871994	0.9919999837875366	0.771499752998352	0.0	244.0	371.0	0.0	0.0	0.0	0.0	0.0	0.0	null	null	null	null	null	null	null	null	332.0	332.0	335.0	338.0	336.0	333.0	337.0	336.0	335.0	339.0	336.0	
Mon Jun 05 14:49:00 UTC 2017	0.0	1.047281664E9	2951.3115234375	0.0	2.5731072E7	0.0	2.0	1.003986944E9	35.78335189819336	0.0	0.0	1.06133504E9	1.050161152E9	0.0	0.0	0.08349999785423279	0.05674999952316284	0.04600000008940697	0.9909999966621399	0.7714768052101135	0.0	244.0	371.0	0.0	0.0	0.0	0.0	0.0	0.0	null	null	null	null	null	null	null	null	335.0	336.0	336.0	332.0	336.0	333.0	332.0	333.0	337.0	335.0	336.0	
Mon Jun 05 14:48:00 UTC 2017	0.0	1.047281664E9	2951.3115234375	0.0	2.5731072E7	0.0	2.0	1.003986944E9	48.95356369018555	0.0	0.0	1.06133504E9	1.051189248E9	0.0	0.0	0.06825000047683716	0.04899999871850014	0.04699999839067459	0.9922500252723694	0.7737426161766052	0.0	244.0	371.0	0.0	0.0	0.0	0.0	0.0	0.0	null	null	null	null	null	null	null	null	335.0	335.0	336.0	337.0	336.0	337.0	336.0	335.0	334.0	336.0	330.0	
Mon Jun 05 14:47:00 UTC 2017	0.0	1.047281664E9	2622.10498046875	0.0	2.5731072E7	0.0	2.0	1.003986944E9	48.95356369018555	0.0	0.0	1.06133504E9	1.051189248E9	0.0	0.0	0.08174999803304672	0.051249999552965164	0.04724999889731407	0.9922500252723694	0.7714415788650513	0.0	244.0	371.0	0.0	0.0	0.0	0.0	0.0	0.0	null	null	null	null	null	null	null	null	338.0	335.0	334.0	335.0	334.0	334.0	333.0	336.0	335.0	334.0	334.0	
Mon Jun 05 14:46:00 UTC 2017	0.0	1.047281664E9	3184.345703125	0.0	2.5731072E7	0.0	3.0	1.003773952E9	48.95356369018555	0.0	0.0	1.06133504E9	1.051189248E9	0.0	0.0	0.07450000196695328	0.05624999850988388	0.04500000178813934	0.9922500252723694	0.7714371681213379	0.0	244.0	371.0	0.0	0.0	0.0	0.0	0.0	0.0	null	null	null	null	null	null	null	null	335.0	338.0	336.0	336.0	336.0	338.0	335.0	336.0	336.0	338.0	339.0	
Mon Jun 05 14:45:00 UTC 2017	0.0	1.047281664E9	3184.345703125	0.0	2.5731072E7	0.0	3.0	1.003864064E9	48.95356369018555	0.0	0.0	1.06133504E9	1.050161152E9	0.0	0.0	0.06475000083446503	0.04574999958276749	0.052000001072883606	0.9922500252723694	0.7714210152626038	0.0	244.0	371.0	0.0	0.0	0.0	0.0	0.0	0.0	null	null	null	null	null	null	null	null	337.0	334.0	335.0	335.0	333.0	334.0	338.0	334.0	337.0	334.0	335.0	
Mon Jun 05 14:44:00 UTC 2017	0.0	1.047281664E9	2360.77587890625	0.0	2.5731072E7	0.0	2.0	1.003773952E9	35.15321731567383	0.0	0.0	1.06133504E9	1.051189248E9	0.0	0.0	0.07450000196695328	0.057999998331069946	0.04349999874830246	0.9919999837875366	0.7714068293571472	0.0	244.0	371.0	0.0	0.0	0.0	0.0	0.0	0.0	null	null	null	null	null	null	null	null	336.0	335.0	335.0	338.0	334.0	336.0	332.0	333.0	336.0	336.0	333.0	
Mon Jun 05 14:43:00 UTC 2017	0.0	1.047281664E9	2626.926025390625	0.0	2.5731072E7	0.0	2.0	1.003773952E9	35.15321731567383	0.0	0.0	1.06133504E9	1.050161152E9	0.0	0.0	0.07999999821186066	0.04625000059604645	0.04600000008940697	0.9922500252723694	0.7713838219642639	0.0	244.0	371.0	0.0	0.0	0.0	0.0	0.0	0.0	null	null	null	null	null	null	null	null	335.0	335.0	338.0	333.0	335.0	334.0	336.0	337.0	335.0	335.0	334.0	
Mon Jun 05 14:42:00 UTC 2017	0.0	1.047281664E9	2626.926025390625	0.0	2.5731072E7	0.0	2.0	1.003773952E9	35.15321731567383	0.0	0.0	1.06133504E9	1.051189248E9	0.0	0.0	0.07925000041723251	0.05624999850988388	0.051500000059604645	0.9922500252723694	0.771397054195404	0.0	244.0	371.0	0.0	0.0	0.0	0.0	0.0	0.0	null	null	null	null	null	null	null	null	335.0	337.0	334.0	337.0	337.0	334.0	333.0	337.0	336.0	336.0	336.0	
Mon Jun 05 14:41:00 UTC 2017	0.0	1.047281664E9	2626.926025390625	0.0	2.5731072E7	0.0	2.0	1.00356096E9	68.97174072265625	0.0	0.0	1.06133504E9	1.051189248E9	0.0	0.0	0.09849999845027924	0.054749999195337296	0.04349999874830246	0.9922500252723694	0.7713769674301147	0.0	244.0	371.0	0.0	0.0	0.0	0.0	0.0	0.0	null	null	null	null	null	null	null	null	334.0	335.0	337.0	336.0	335.0	338.0	338.0	337.0	337.0	335.0	334.0	
Mon Jun 05 14:40:00 UTC 2017	0.0	1.047281664E9	2388.1376953125	0.0	2.5731072E7	0.0	2.0	1.003651072E9	68.97174072265625	0.0	0.0	1.06133504E9	1.051189248E9	0.0	0.0	0.07824999839067459	0.05249999836087227	0.051249999552965164	0.9919999837875366	0.7713495492935181	0.0	244.0	371.0	0.0	0.0	0.0	0.0	0.0	0.0	null	null	null	null	null	null	null	null	334.0	336.0	336.0	335.0	336.0	336.0	335.0	336.0	331.0	338.0	336.0	
Mon Jun 05 14:39:00 UTC 2017	0.0	1.047281664E9	2669.04248046875	0.0	2.5731072E7	0.0	4.0	1.00356096E9	56.02850341796875	0.0	0.0	1.06133504E9	1.051189248E9	0.0	0.0	0.08124999701976776	0.04500000178813934	0.04625000059604645	0.9919999837875366	0.7713446617126465	0.0	244.0	371.0	0.0	0.0	0.0	0.0	0.0	0.0	null	null	null	null	null	null	null	null	336.0	336.0	334.0	336.0	334.0	335.0	333.0	333.0	335.0	336.0	335.0	
Mon Jun 05 14:38:00 UTC 2017	0.0	1.047281664E9	2669.04248046875	0.0	2.5731072E7	0.0	2.0	1.00356096E9	56.02850341796875	0.0	0.0	1.06133504E9	1.050161152E9	0.0	0.0	0.07050000131130219	0.054999999701976776	0.04500000178813934	0.9917500019073486	0.7713299989700317	0.0	244.0	371.0	0.0	0.0	0.0	0.0	0.0	0.0	null	null	null	null	null	null	null	null	335.0	338.0	336.0	334.0	335.0	332.0	336.0	335.0	336.0	331.0	334.0	
Mon Jun 05 14:37:00 UTC 2017	0.0	1.047281664E9	2669.04248046875	0.0	2.5731072E7	0.0	3.0	1.00356096E9	56.02850341796875	0.0	0.0	1.06133504E9	1.051189248E9	0.0	0.0	0.08250000327825546	0.051500000059604645	0.04924999922513962	0.9919999837875366	0.7713045477867126	0.0	244.0	371.0	0.0	0.0	0.0	0.0	0.0	0.0	null	null	null	null	null	null	null	null	336.0	335.0	336.0	335.0	334.0	336.0	333.0	335.0	338.0	337.0	336.0	
Mon Jun 05 14:36:00 UTC 2017	0.0	1.047281664E9	2941.895751953125	0.0	2.5731072E7	0.0	3.0	1.003352064E9	41.33591842651367	0.0	0.0	1.06133504E9	1.051189248E9	0.0	0.0	0.07500000298023224	0.054749999195337296	0.05000000074505806	0.9925000071525574	0.7712849974632263	0.0	244.0	371.0	0.0	0.0	0.0	0.0	0.0	0.0	null	null	null	null	null	null	null	null	337.0	334.0	336.0	332.0	335.0	337.0	337.0	337.0	333.0	335.0	334.0	
Mon Jun 05 14:35:00 UTC 2017	0.0	1.047281664E9	2941.895751953125	0.0	2.5731072E7	0.0	6.0	1.003442176E9	41.33591842651367	0.0	0.0	1.06133504E9	1.051189248E9	0.0	0.0	0.06849999725818634	0.04874999821186066	0.04650000110268593	0.9922500252723694	0.7712659239768982	0.0	244.0	371.0	0.0	0.0	0.0	0.0	0.0	0.0	null	null	null	null	null	null	null	null	337.0	334.0	336.0	337.0	337.0	332.0	334.0	330.0	338.0	332.0	339.0	
Mon Jun 05 14:34:00 UTC 2017	0.0	1.047281664E9	2941.895751953125	0.0	2.5731072E7	0.0	5.0	1.003352064E9	41.33591842651367	0.0	0.0	1.06133504E9	1.051189248E9	0.0	0.0	0.07850000262260437	0.05050000175833702	0.052000001072883606	0.9922500252723694	0.7712463140487671	0.0	244.0	371.0	0.0	0.0	0.0	0.0	0.0	0.0	null	null	null	null	null	null	null	null	335.0	338.0	338.0	335.0	335.0	335.0	335.0	336.0	339.0	338.0	333.0	
Mon Jun 05 14:33:00 UTC 2017	0.0	1.047281664E9	2941.895751953125	0.0	2.5731072E7	0.0	2.0	1.003352064E9	68.37683868408203	0.0	0.0	1.06133504E9	1.050161152E9	0.0	0.0	0.07249999791383743	0.05649999901652336	0.04600000008940697	0.9922500252723694	0.7712302207946777	0.0	244.0	371.0	0.0	0.0	0.0	0.0	0.0	0.0	null	null	null	null	null	null	null	null	334.0	338.0	337.0	339.0	334.0	335.0	337.0	336.0	335.0	335.0	335.0	
Mon Jun 05 14:32:00 UTC 2017	0.0	1.047281664E9	2941.895751953125	0.0	2.5731072E7	0.0	2.0	1.003352064E9	41.78579330444336	0.0	0.0	1.06133504E9	1.050161152E9	0.0	0.0	0.07225000113248825	0.04924999922513962	0.04774999991059303	0.9919999837875366	0.7707957029342651	0.0	244.0	371.0	0.0	0.0	0.0	0.0	0.0	0.0	null	null	null	null	null	null	null	null	338.0	334.0	336.0	336.0	335.0	332.0	335.0	332.0	335.0	334.0	341.0	
Mon Jun 05 14:31:00 UTC 2017	0.0	1.047281664E9	2941.895751953125	0.0	2.5731072E7	0.0	2.0	1.003139072E9	52.33041000366211	0.0	0.0	1.06133504E9	1.050161152E9	0.0	0.0	0.10100000351667404	0.054249998182058334	0.04874999821186066	0.9922500252723694	0.770783007144928	0.0	244.0	371.0	0.0	0.0	0.0	0.0	0.0	0.0	null	null	null	null	null	null	null	null	334.0	335.0	337.0	337.0	332.0	335.0	337.0	335.0	336.0	336.0	335.0	
Mon Jun 05 14:30:00 UTC 2017	0.0	1.047281664E9	2941.895751953125	0.0	2.5731072E7	0.0	4.0	1.003229184E9	46.08148956298828	0.0	0.0	1.06133504E9	1.050161152E9	0.0	0.0	0.07100000232458115	0.04975000023841858	0.0494999997317791	0.9922500252723694	0.7728266716003418	0.0	244.0	371.0	0.0	0.0	0.0	0.0	0.0	0.0	null	null	null	null	null	null	null	null	336.0	338.0	335.0	334.0	339.0	336.0	334.0	332.0	336.0	334.0	337.0	
Mon Jun 05 14:29:00 UTC 2017	0.0	1.047281664E9	2645.29931640625	0.0	2.5731072E7	0.0	2.0	1.003139072E9	46.08148956298828	0.0	0.0	1.06133504E9	1.050161152E9	0.0	0.0	0.08299999684095383	0.05525000020861626	0.04500000178813934	0.9922500252723694	0.7707443237304688	0.0	244.0	371.0	0.0	0.0	0.0	0.0	0.0	0.0	null	null	null	null	null	null	null	null	336.0	339.0	336.0	338.0	331.0	335.0	338.0	338.0	335.0	339.0	338.0	
Mon Jun 05 14:28:00 UTC 2017	0.0	1.047281664E9	2956.885009765625	0.0	2.5731072E7	0.0	2.0	1.003139072E9	46.08148956298828	0.0	0.0	1.06133504E9	1.050161152E9	0.0	0.0	0.06800000369548798	0.04699999839067459	0.04749999940395355	0.9922500252723694	0.7707487344741821	0.0	244.0	371.0	0.0	0.0	0.0	0.0	0.0	0.0	null	null	null	null	null	null	null	null	333.0	335.0	337.0	333.0	339.0	332.0	335.0	333.0	333.0	335.0	335.0	
Mon Jun 05 14:27:00 UTC 2017	0.0	1.047281664E9	2956.885009765625	0.0	2.5731072E7	0.0	2.0	1.003139072E9	46.08148956298828	0.0	0.0	1.06133504E9	1.050161152E9	0.0	0.0	0.08449999988079071	0.05700000002980232	0.04924999922513962	0.9919999837875366	0.7725027799606323	0.0	244.0	371.0	0.0	0.0	0.0	0.0	0.0	0.0	null	null	null	null	null	null	null	null	335.0	335.0	333.0	337.0	335.0	333.0	330.0	335.0	340.0	335.0	339.0	
Mon Jun 05 14:26:00 UTC 2017	0.0	1.047281664E9	2956.885009765625	0.0	2.5731072E7	0.0	2.0	1.003016192E9	66.89683532714844	0.0	0.0	1.06133504E9	1.051189248E9	0.0	0.0	0.07625000178813934	0.048500001430511475	0.04324999824166298	0.9922500252723694	0.7729137539863586	0.0	244.0	371.0	0.0	0.0	0.0	0.0	0.0	0.0	null	null	null	null	null	null	null	null	338.0	337.0	337.0	335.0	336.0	340.0	339.0	335.0	334.0	335.0	332.0	
Mon Jun 05 14:25:00 UTC 2017	0.0	1.047281664E9	3058.07470703125	0.0	2.5731072E7	0.0	2.0	1.003016192E9	66.89683532714844	0.0	0.0	1.06133504E9	1.050161152E9	0.0	0.0	0.07599999755620956	0.05025000125169754	0.04749999940395355	0.9919999837875366	0.7707125544548035	0.0	244.0	371.0	0.0	0.0	0.0	0.0	0.0	0.0	null	null	null	null	null	null	null	null	334.0	333.0	335.0	335.0	336.0	335.0	335.0	338.0	335.0	334.0	338.0	
Mon Jun 05 14:24:00 UTC 2017	0.0	1.047281664E9	3058.07470703125	0.0	2.5731072E7	0.0	4.0	1.00292608E9	66.89683532714844	0.0	0.0	1.06133504E9	1.051189248E9	0.0	0.0	0.07374999672174454	0.05249999836087227	0.05249999836087227	0.9922500252723694	0.7707096338272095	0.0	244.0	371.0	0.0	0.0	0.0	0.0	0.0	0.0	null	null	null	null	null	null	null	null	337.0	337.0	335.0	338.0	336.0	336.0	333.0	333.0	338.0	337.0	335.0	
Mon Jun 05 14:23:00 UTC 2017	0.0	1.047281664E9	2807.992919921875	0.0	2.5731072E7	0.0	2.0	1.00292608E9	39.390846252441406	0.0	0.0	1.06133504E9	1.051189248E9	0.0	0.0	0.07225000113248825	0.05249999836087227	0.04475000128149986	0.9922500252723694	0.7706787586212158	0.0	244.0	371.0	0.0	0.0	0.0	0.0	0.0	0.0	null	null	null	null	null	null	null	null	335.0	336.0	335.0	334.0	332.0	336.0	335.0	337.0	336.0	334.0	337.0	
Mon Jun 05 14:22:00 UTC 2017	0.0	1.047281664E9	2430.5615234375	0.0	2.5731072E7	0.0	2.0	1.00292608E9	39.390846252441406	0.0	0.0	1.06133504E9	1.050161152E9	0.0	0.0	0.07999999821186066	0.05525000020861626	0.048250000923871994	0.9919999837875366	0.7725526690483093	0.0	244.0	371.0	0.0	0.0	0.0	0.0	0.0	0.0	null	null	null	null	null	null	null	null	332.0	336.0	335.0	338.0	335.0	331.0	334.0	334.0	335.0	338.0	334.0	
Mon Jun 05 14:21:00 UTC 2017	0.0	1.047281664E9	2430.5615234375	0.0	2.5731072E7	0.0	2.0	1.002713088E9	41.004783630371094	0.0	0.0	1.06133504E9	1.050161152E9	0.0	null	0.08974999934434891	0.050999999046325684	0.04899999871850014	0.9922500252723694	0.7729480266571045	0.0	244.0	371.0	0.0	0.0	0.0	0.0	0.0	0.0	null	null	null	null	null	null	null	null	335.0	335.0	333.0	336.0	338.0	340.0	337.0	337.0	334.0	334.0	333.0	
Mon Jun 05 14:20:00 UTC 2017	0.0	1.047281664E9	2430.5615234375	0.0	2.5731072E7	0.0	2.0	1.0028032E9	54.880672454833984	0.0	0.0	1.06133504E9	1.051189248E9	0.0	0.0	0.08500000089406967	0.0560000017285347	0.04774999991059303	0.9922500252723694	0.7706372141838074	0.0	244.0	371.0	0.0	0.0	0.0	0.0	0.0	0.0	null	null	null	null	null	null	null	null	335.0	335.0	336.0	334.0	331.0	336.0	336.0	336.0	332.0	335.0	340.0	
Mon Jun 05 14:19:00 UTC 2017	0.0	1.047281664E9	3521.3603515625	0.0	2.5731072E7	0.0	3.0	1.002713088E9	47.11919021606445	0.0	0.0	1.06133504E9	1.050161152E9	0.0	0.0	0.07074999809265137	0.051500000059604645	0.04500000178813934	0.9925000071525574	0.7729196548461914	0.0	244.0	371.0	0.0	0.0	0.0	0.0	0.0	0.0	null	null	null	null	null	null	null	null	336.0	334.0	337.0	337.0	337.0	336.0	336.0	338.0	336.0	334.0	333.0	
Mon Jun 05 14:18:00 UTC 2017	0.0	1.047281664E9	3521.3603515625	0.0	2.5731072E7	0.0	2.0	1.002713088E9	47.11919021606445	0.0	0.0	1.06133504E9	1.050161152E9	0.0	0.0	0.07050000131130219	0.048500001430511475	0.05025000125169754	0.9922500252723694	0.7729064226150513	0.0	244.0	371.0	0.0	0.0	0.0	0.0	0.0	0.0	null	null	null	null	null	null	null	null	336.0	335.0	335.0	333.0	338.0	332.0	336.0	331.0	336.0	336.0	337.0	
Mon Jun 05 14:17:00 UTC 2017	0.0	1.047281664E9	3521.3603515625	0.0	2.5731072E7	0.0	4.0	1.002713088E9	60.79655075073242	0.0	0.0	1.06133504E9	1.050161152E9	0.0	0.0	0.07925000041723251	0.048500001430511475	0.0442500002682209	0.9922500252723694	0.7706396579742432	0.0	244.0	371.0	0.0	0.0	0.0	0.0	0.0	0.0	null	null	null	null	null	null	null	null	336.0	334.0	335.0	333.0	334.0	335.0	332.0	337.0	337.0	335.0	335.0	
Mon Jun 05 14:16:00 UTC 2017	0.0	1.047281664E9	3521.3603515625	0.0	2.5731072E7	0.0	2.0	1.002500096E9	60.79655075073242	0.0	0.0	1.06133504E9	1.050161152E9	0.0	0.0	0.07599999755620956	0.05824999883770943	0.05025000125169754	0.9922500252723694	0.7705677151679993	0.0	244.0	371.0	0.0	0.0	0.0	0.0	0.0	0.0	null	null	null	null	null	null	null	null	334.0	333.0	336.0	333.0	338.0	334.0	339.0	333.0	336.0	336.0	336.0	
Mon Jun 05 14:15:00 UTC 2017	0.0	1.047281664E9	2497.76513671875	0.0	2.5731072E7	0.0	2.0	1.002590208E9	60.79655075073242	0.0	0.0	1.06133504E9	1.051189248E9	0.0	0.0	0.07374999672174454	0.052000001072883606	0.04874999821186066	0.9922500252723694	0.7728408575057983	0.0	244.0	371.0	0.0	0.0	0.0	0.0	0.0	0.0	null	null	null	null	null	null	null	null	335.0	336.0	335.0	334.0	336.0	337.0	336.0	335.0	335.0	336.0	338.0	
Mon Jun 05 14:14:00 UTC 2017	0.0	1.047281664E9	2497.76513671875	0.0	2.5731072E7	0.0	2.0	1.002500096E9	73.39176940917969	0.0	0.0	1.06133504E9	1.051189248E9	0.0	null	0.07150000333786011	0.04374999925494194	0.05000000074505806	0.9922500252723694	0.7713705897331238	0.0	244.0	371.0	0.0	0.0	0.0	0.0	0.0	0.0	null	null	null	null	null	null	null	null	335.0	336.0	337.0	337.0	335.0	335.0	332.0	336.0	338.0	337.0	335.0	
Mon Jun 05 14:13:00 UTC 2017	0.0	1.047281664E9	2895.9462890625	0.0	2.5731072E7	0.0	3.0	1.002500096E9	73.39176940917969	0.0	0.0	1.06133504E9	1.050161152E9	0.0	null	0.08474999666213989	0.057750001549720764	0.054999999701976776	0.9915000200271606	0.77043217420578	0.0	244.0	371.0	0.0	0.0	0.0	0.0	0.0	0.0	null	null	null	null	null	null	null	null	334.0	335.0	333.0	336.0	333.0	337.0	337.0	333.0	335.0	332.0	336.0	
Mon Jun 05 14:12:00 UTC 2017	0.0	1.047281664E9	2895.9462890625	0.0	2.5731072E7	0.0	3.0	1.002500096E9	41.78586959838867	0.0	0.0	1.06133504E9	1.051189248E9	0.0	null	0.07500000298023224	0.04699999839067459	0.045499999076128006	0.9919999837875366	0.7704190015792847	0.0	244.0	371.0	0.0	0.0	0.0	0.0	0.0	0.0	null	null	null	null	null	null	null	null	337.0	339.0	335.0	338.0	336.0	333.0	332.0	336.0	335.0	332.0	335.0	
Mon Jun 05 14:11:00 UTC 2017	0.0	1.047281664E9	2895.9462890625	0.0	2.5731072E7	0.0	3.0	1.002377216E9	41.78586959838867	0.0	0.0	1.06133504E9	1.050161152E9	0.0	null	0.09200000017881393	0.054999999701976776	0.04699999839067459	0.9919999837875366	0.770479679107666	0.0	244.0	371.0	0.0	0.0	0.0	0.0	0.0	0.0	null	null	null	null	null	null	null	null	335.0	334.0	336.0	337.0	334.0	336.0	335.0	335.0	333.0	332.0	335.0	
Mon Jun 05 14:10:00 UTC 2017	0.0	1.047281664E9	2601.2626953125	0.0	2.5731072E7	0.0	3.0	1.002655744E9	41.78586959838867	0.0	0.0	1.06133504E9	1.050161152E9	0.0	null	0.08250000327825546	0.05674999952316284	0.0494999997317791	0.9917500019073486	0.7704600691795349	0.0	244.0	371.0	0.0	0.0	0.0	0.0	0.0	0.0	null	null	null	null	null	null	null	null	338.0	339.0	337.0	332.0	336.0	337.0	338.0	331.0	334.0	335.0	338.0	
Mon Jun 05 14:09:00 UTC 2017	0.0	1.047281664E9	2445.595703125	0.0	2.5731072E7	0.0	2.0	1.002459136E9	48.02468490600586	0.0	0.0	1.06133504E9	1.051189248E9	0.0	null	0.06400000303983688	0.04650000110268593	0.04749999940395355	0.9919999837875366	0.7704591155052185	0.0	244.0	371.0	0.0	0.0	0.0	0.0	0.0	0.0	null	null	null	null	null	null	null	null	334.0	336.0	335.0	337.0	336.0	333.0	332.0	338.0	337.0	338.0	331.0	
Mon Jun 05 14:08:00 UTC 2017	0.0	1.047281664E9	2804.68212890625	0.0	2.5731072E7	0.0	3.0	1.002459136E9	48.02468490600586	0.0	0.0	1.06133504E9	1.050161152E9	0.0	null	0.07850000262260437	0.05000000074505806	0.04924999922513962	0.9922500252723694	0.770441472530365	0.0	244.0	371.0	0.0	0.0	0.0	0.0	0.0	0.0	null	null	null	null	null	null	null	null	335.0	332.0	334.0	332.0	332.0	336.0	337.0	334.0	336.0	331.0	339.0	
Mon Jun 05 14:07:00 UTC 2017	0.0	1.047281664E9	2804.68212890625	0.0	2.5731072E7	0.0	2.0	1.002459136E9	63.31291961669922	0.0	0.0	1.06133504E9	1.051189248E9	0.0	0.0	0.07400000095367432	0.05649999901652336	0.04475000128149986	0.9922500252723694	0.7704551815986633	0.0	244.0	371.0	0.0	0.0	0.0	0.0	0.0	0.0	null	null	null	null	null	null	null	null	333.0	337.0	338.0	336.0	339.0	335.0	336.0	336.0	331.0	336.0	331.0	
Mon Jun 05 14:06:00 UTC 2017	0.0	1.047281664E9	2804.68212890625	0.0	2.5731072E7	0.0	2.0	1.002336256E9	45.62019729614258	0.0	0.0	1.06133504E9	1.050161152E9	0.0	0.0	0.0820000022649765	0.052000001072883606	0.04749999940395355	0.9919999837875366	0.770453691482544	0.0	244.0	371.0	0.0	0.0	0.0	0.0	0.0	0.0	null	null	null	null	null	null	null	null	335.0	337.0	332.0	336.0	333.0	338.0	336.0	333.0	334.0	335.0	338.0	
Mon Jun 05 14:05:00 UTC 2017	0.0	1.047281664E9	3547.33544921875	0.0	2.5731072E7	0.0	2.0	1.002336256E9	45.5103874206543	0.0	0.0	1.06133504E9	1.050161152E9	0.0	0.0	0.06549999862909317	0.04749999940395355	0.05025000125169754	0.9922500252723694	0.7704272866249084	0.0	244.0	371.0	0.0	0.0	0.0	0.0	0.0	0.0	null	null	null	null	null	null	null	null	334.0	335.0	337.0	335.0	336.0	337.0	336.0	337.0	337.0	338.0	334.0	
Mon Jun 05 14:04:00 UTC 2017	0.0	1.047281664E9	3547.33544921875	0.0	2.5731072E7	0.0	2.0	1.002246144E9	45.5103874206543	0.0	0.0	1.06133504E9	1.050161152E9	0.0	null	0.07900000363588333	0.05000000074505806	0.04600000008940697	0.9919999837875366	0.7703754305839539	0.0	244.0	371.0	0.0	0.0	0.0	0.0	0.0	0.0	null	null	null	null	null	null	null	null	334.0	337.0	335.0	331.0	336.0	336.0	333.0	335.0	332.0	333.0	336.0	
Mon Jun 05 14:03:00 UTC 2017	0.0	1.047281664E9	3547.33544921875	0.0	2.5731072E7	0.0	2.0	1.002246144E9	45.5103874206543	0.0	0.0	1.06133504E9	1.051189248E9	0.0	0.0	0.07400000095367432	0.0560000017285347	0.04800000041723251	0.9922500252723694	0.7703499794006348	0.0	244.0	371.0	0.0	0.0	0.0	0.0	0.0	0.0	null	null	null	null	null	null	null	null	334.0	335.0	334.0	336.0	332.0	334.0	336.0	335.0	338.0	338.0	338.0	
Mon Jun 05 14:02:00 UTC 2017	0.0	1.047281664E9	3547.33544921875	0.0	2.5731072E7	0.0	4.0	1.002246144E9	37.30998229980469	0.0	0.0	1.06133504E9	1.050161152E9	0.0	0.0	0.07649999856948853	0.05550000071525574	0.045249998569488525	0.9922500252723694	0.7703294157981873	0.0	244.0	371.0	0.0	0.0	0.0	0.0	0.0	0.0	null	null	null	null	null	null	null	null	335.0	337.0	331.0	333.0	341.0	337.0	338.0	335.0	332.0	334.0	336.0	
Mon Jun 05 14:01:00 UTC 2017	0.0	1.047281664E9	2682.271484375	0.0	2.5731072E7	0.0	2.0	1.002037248E9	59.21189880371094	0.0	0.0	1.06133504E9	1.050161152E9	0.0	0.0	0.09799999743700027	0.05400000140070915	0.04650000110268593	0.9919999837875366	0.772668182849884	0.0	244.0	371.0	0.0	0.0	0.0	0.0	0.0	0.0	null	null	null	null	null	null	null	null	337.0	334.0	338.0	335.0	333.0	337.0	337.0	335.0	337.0	332.0	336.0	
Mon Jun 05 14:00:00 UTC 2017	0.0	1.047281664E9	2682.271484375	0.0	2.5731072E7	0.0	2.0	1.00212736E9	37.41545104980469	0.0	0.0	1.06133504E9	1.050161152E9	0.0	0.0	0.08375000208616257	0.04675000160932541	0.051750000566244125	0.9919999837875366	0.7703783512115479	0.0	244.0	371.0	0.0	0.0	0.0	0.0	0.0	0.0	null	null	null	null	null	null	null	null	334.0	335.0	335.0	335.0	338.0	335.0	334.0	335.0	334.0	338.0	338.0	
Mon Jun 05 13:59:00 UTC 2017	0.0	1.047281664E9	2682.271484375	0.0	2.5731072E7	0.0	2.0	1.002037248E9	37.41545104980469	0.0	0.0	1.06133504E9	1.051189248E9	0.0	0.0	0.06499999761581421	0.054999999701976776	0.04874999821186066	0.9919999837875366	0.7703862190246582	0.0	244.0	371.0	0.0	0.0	0.0	0.0	0.0	0.0	null	null	null	null	null	null	null	null	335.0	336.0	336.0	336.0	337.0	332.0	338.0	331.0	334.0	334.0	335.0	
Mon Jun 05 13:58:00 UTC 2017	0.0	1.047281664E9	2868.253662109375	0.0	2.5731072E7	0.0	3.0	1.002037248E9	51.38887405395508	0.0	0.0	1.06133504E9	1.051189248E9	0.0	0.0	0.08500000089406967	0.04699999839067459	0.08399999886751175	0.9919999837875366	0.7703592777252197	0.0	244.0	371.0	0.0	0.0	0.0	0.0	0.0	0.0	null	null	null	null	null	null	null	null	334.0	333.0	335.0	332.0	334.0	337.0	337.0	338.0	333.0	336.0	338.0	
Mon Jun 05 13:57:00 UTC 2017	0.0	1.047281664E9	2868.253662109375	0.0	2.5731072E7	0.0	2.0	1.002037248E9	41.188934326171875	0.0	0.0	1.06133504E9	1.050161152E9	0.0	0.0	0.06925000250339508	0.05375000089406967	0.04625000059604645	0.9922500252723694	0.7703455686569214	0.0	244.0	371.0	0.0	0.0	0.0	0.0	0.0	0.0	null	null	null	null	null	null	null	null	337.0	333.0	331.0	338.0	337.0	336.0	336.0	332.0	335.0	332.0	337.0	
Mon Jun 05 13:56:00 UTC 2017	0.0	1.047281664E9	2868.253662109375	0.0	2.5731072E7	0.0	2.0	1.001824256E9	41.188934326171875	0.0	0.0	1.06133504E9	1.050161152E9	0.0	0.0	0.07249999791383743	0.05025000125169754	0.04924999922513962	0.9922500252723694	0.772276759147644	0.0	244.0	371.0	0.0	0.0	0.0	0.0	0.0	0.0	null	null	null	null	null	null	null	null	337.0	338.0	338.0	336.0	335.0	335.0	337.0	337.0	338.0	333.0	335.0	
Mon Jun 05 13:55:00 UTC 2017	0.0	1.047281664E9	2868.253662109375	0.0	2.5731072E7	0.0	3.0	1.001914368E9	41.188934326171875	0.0	0.0	1.06133504E9	1.051189248E9	0.0	0.0	0.07874999940395355	0.05550000071525574	0.04874999821186066	0.9922500252723694	0.7702956795692444	0.0	244.0	371.0	0.0	0.0	0.0	0.0	0.0	0.0	null	null	null	null	null	null	null	null	337.0	335.0	336.0	339.0	335.0	336.0	335.0	335.0	335.0	336.0	337.0	
Mon Jun 05 13:54:00 UTC 2017	0.0	1.047281664E9	2868.253662109375	0.0	2.5731072E7	0.0	5.0	1.001824256E9	41.188934326171875	0.0	0.0	1.06133504E9	1.050161152E9	0.0	0.0	0.07625000178813934	0.05274999886751175	0.04800000041723251	0.9919999837875366	0.77033531665802	0.0	244.0	371.0	0.0	0.0	0.0	0.0	0.0	0.0	null	null	null	null	null	null	null	null	332.0	335.0	333.0	334.0	336.0	333.0	333.0	335.0	337.0	338.0	335.0	
Mon Jun 05 13:53:00 UTC 2017	0.0	1.047281664E9	2417.669189453125	0.0	2.5731072E7	0.0	6.0	1.001824256E9	41.188934326171875	0.0	0.0	1.06133504E9	1.051189248E9	0.0	0.0	0.07800000160932541	0.05324999988079071	0.04975000023841858	0.9919999837875366	0.7713647484779358	0.0	244.0	371.0	0.0	0.0	0.0	0.0	0.0	0.0	null	null	null	null	null	null	null	null	339.0	338.0	333.0	338.0	337.0	334.0	336.0	336.0	336.0	335.0	332.0	
Mon Jun 05 13:52:00 UTC 2017	0.0	1.047281664E9	2661.238037109375	0.0	2.5731072E7	0.0	3.0	1.001824256E9	55.65066909790039	0.0	0.0	1.06133504E9	1.050161152E9	0.0	null	0.06800000369548798	0.045499999076128006	0.04600000008940697	0.9919999837875366	0.770235002040863	0.0	244.0	371.0	0.0	0.0	0.0	0.0	0.0	0.0	null	null	null	null	null	null	null	null	334.0	334.0	339.0	337.0	335.0	339.0	337.0	332.0	334.0	336.0	339.0	
Mon Jun 05 13:51:00 UTC 2017	0.0	1.047281664E9	3245.755126953125	0.0	2.5731072E7	0.0	2.0	1.001611264E9	55.65066909790039	0.0	0.0	1.06133504E9	1.050161152E9	0.0	null	0.10225000232458115	0.054499998688697815	0.04650000110268593	0.9919999837875366	0.7720174193382263	0.0	244.0	371.0	0.0	0.0	0.0	0.0	0.0	0.0	null	null	null	null	null	null	null	null	335.0	336.0	335.0	337.0	333.0	335.0	333.0	336.0	335.0	339.0	333.0	
Mon Jun 05 13:50:00 UTC 2017	0.0	1.047281664E9	2319.606201171875	0.0	2.5731072E7	0.0	2.0	1.001701376E9	45.630096435546875	0.0	0.0	1.06133504E9	1.051189248E9	0.0	0.0	0.07649999856948853	0.051750000566244125	0.04800000041723251	0.9922500252723694	0.7701483964920044	0.0	244.0	371.0	0.0	0.0	0.0	0.0	0.0	0.0	null	null	null	null	null	null	null	null	335.0	334.0	334.0	337.0	339.0	335.0	333.0	331.0	335.0	337.0	335.0	
Mon Jun 05 13:49:00 UTC 2017	0.0	1.047281664E9	2319.606201171875	0.0	2.5731072E7	0.0	2.0	1.001611264E9	47.38928985595703	0.0	0.0	1.06133504E9	1.050161152E9	0.0	0.0	0.07275000214576721	0.051500000059604645	0.051750000566244125	0.9919999837875366	0.7701366543769836	0.0	244.0	371.0	0.0	0.0	0.0	0.0	0.0	0.0	null	null	null	null	null	null	null	null	340.0	337.0	335.0	336.0	335.0	335.0	337.0	338.0	332.0	335.0	335.0	
Mon Jun 05 13:48:00 UTC 2017	0.0	1.047281664E9	2484.80078125	0.0	2.5731072E7	0.0	2.0	1.001611264E9	47.38928985595703	0.0	0.0	1.06133504E9	1.050161152E9	0.0	null	0.07100000232458115	0.05324999988079071	0.04924999922513962	0.9922500252723694	0.7701435089111328	0.0	244.0	371.0	0.0	0.0	0.0	0.0	0.0	0.0	null	null	null	null	null	null	null	null	335.0	335.0	336.0	334.0	335.0	336.0	333.0	336.0	335.0	338.0	336.0	
Mon Jun 05 13:47:00 UTC 2017	0.0	1.047281664E9	2999.181640625	0.0	2.5731072E7	0.0	2.0	1.001611264E9	39.25937271118164	0.0	0.0	1.06133504E9	1.051189248E9	0.0	0.0	0.07374999672174454	0.05000000074505806	0.04625000059604645	0.9922500252723694	0.7701058387756348	0.0	244.0	371.0	0.0	0.0	0.0	0.0	0.0	0.0	null	null	null	null	null	null	null	null	333.0	337.0	337.0	335.0	333.0	336.0	335.0	334.0	338.0	332.0	337.0	
Mon Jun 05 13:46:00 UTC 2017	0.0	1.047281664E9	2999.181640625	0.0	2.5731072E7	0.0	2.0	1.001398272E9	51.69649124145508	0.0	0.0	1.06133504E9	1.050161152E9	0.0	0.0	0.07975000143051147	0.05575000122189522	0.0442500002682209	0.9922500252723694	0.7723740935325623	0.0	244.0	371.0	0.0	0.0	0.0	0.0	0.0	0.0	null	null	null	null	null	null	null	null	338.0	338.0	337.0	335.0	336.0	334.0	336.0	334.0	336.0	336.0	334.0	
Mon Jun 05 13:45:00 UTC 2017	0.0	1.047281664E9	2999.181640625	0.0	2.5731072E7	0.0	8.0	1.001488384E9	59.941375732421875	0.0	0.0	1.06133504E9	1.050161152E9	0.0	0.0	0.07374999672174454	0.0494999997317791	0.05050000175833702	0.9922500252723694	0.7720502018928528	0.0	244.0	371.0	0.0	0.0	0.0	0.0	0.0	0.0	null	null	null	null	null	null	null	null	335.0	334.0	333.0	336.0	337.0	336.0	335.0	337.0	336.0	340.0	336.0	
Mon Jun 05 13:44:00 UTC 2017	0.0	1.047281664E9	2999.181640625	0.0	2.5731072E7	0.0	2.0	1.001398272E9	42.011077880859375	0.0	0.0	1.06133504E9	1.050161152E9	0.0	0.0	0.08049999922513962	0.054749999195337296	0.05050000175833702	0.9922500252723694	0.7700583934783936	0.0	244.0	371.0	0.0	0.0	0.0	0.0	0.0	0.0	null	null	null	null	null	null	null	null	338.0	337.0	334.0	339.0	335.0	340.0	334.0	334.0	334.0	334.0	335.0	
Mon Jun 05 13:43:00 UTC 2017	0.0	1.047281664E9	2594.673583984375	0.0	2.5731072E7	0.0	2.0	1.001398272E9	42.011077880859375	0.0	0.0	1.06133504E9	1.051189248E9	0.0	0.0	0.07124999910593033	0.050999999046325684	0.04800000041723251	0.9919999837875366	0.7700393199920654	0.0	244.0	371.0	0.0	0.0	0.0	0.0	0.0	0.0	null	null	null	null	null	null	null	null	334.0	339.0	334.0	331.0	338.0	334.0	335.0	333.0	338.0	337.0	335.0	
Mon Jun 05 13:42:00 UTC 2017	0.0	1.047281664E9	2570.6904296875	0.0	2.5731072E7	0.0	3.0	1.001398272E9	42.011077880859375	0.0	0.0	1.06133504E9	1.051189248E9	0.0	null	0.07349999994039536	0.04574999958276749	0.04924999922513962	0.9922500252723694	0.7700143456459045	0.0	244.0	371.0	0.0	0.0	0.0	0.0	0.0	0.0	null	null	null	null	null	null	null	null	334.0	333.0	337.0	336.0	336.0	335.0	337.0	332.0	335.0	334.0	335.0	
Mon Jun 05 13:41:00 UTC 2017	0.0	1.047281664E9	2727.89990234375	0.0	2.5731072E7	0.0	2.0	1.001279488E9	42.011077880859375	0.0	0.0	1.06133504E9	1.051189248E9	0.0	null	0.11100000143051147	0.05025000125169754	0.048500001430511475	0.9922500252723694	0.7699732780456543	0.0	244.0	371.0	0.0	0.0	0.0	0.0	0.0	0.0	null	null	null	null	null	null	null	null	334.0	337.0	334.0	336.0	336.0	331.0	336.0	336.0	333.0	334.0	334.0	
Mon Jun 05 13:40:00 UTC 2017	0.0	1.047281664E9	2867.369873046875	0.0	2.5731072E7	0.0	2.0	1.001279488E9	42.011077880859375	0.0	0.0	1.06133504E9	1.050161152E9	0.0	0.0	0.07450000196695328	0.05624999850988388	0.045249998569488525	0.9922500252723694	0.7700172662734985	0.0	244.0	371.0	0.0	0.0	0.0	0.0	0.0	0.0	null	null	null	null	null	null	null	null	334.0	337.0	334.0	336.0	336.0	336.0	336.0	336.0	337.0	336.0	337.0	
Mon Jun 05 13:39:00 UTC 2017	0.0	1.047281664E9	2513.196044921875	0.0	2.5731072E7	0.0	6.0	1.001189376E9	42.011077880859375	0.0	0.0	1.06133504E9	1.051189248E9	0.0	0.0	0.06800000369548798	0.0507499985396862	0.048500001430511475	0.9919999837875366	0.7700226902961731	0.0	244.0	371.0	0.0	0.0	0.0	0.0	0.0	0.0	null	null	null	null	null	null	null	null	336.0	332.0	337.0	334.0	336.0	336.0	337.0	334.0	337.0	336.0	337.0	
Mon Jun 05 13:38:00 UTC 2017	0.0	1.047281664E9	3098.193115234375	0.0	2.5731072E7	0.0	2.0	1.001189376E9	42.011077880859375	0.0	0.0	1.06133504E9	1.051189248E9	0.0	0.0	0.07975000143051147	0.05299999937415123	0.04899999871850014	0.9919999837875366	0.7700393199920654	0.0	244.0	371.0	0.0	0.0	0.0	0.0	0.0	0.0	null	null	null	null	null	null	null	null	336.0	336.0	338.0	335.0	335.0	337.0	335.0	334.0	335.0	330.0	330.0	
Mon Jun 05 13:37:00 UTC 2017	0.0	1.047281664E9	3098.193115234375	0.0	2.5731072E7	0.0	3.0	1.001189376E9	42.011077880859375	0.0	0.0	1.06133504E9	1.050161152E9	0.0	0.0	0.06800000369548798	0.04574999958276749	0.04600000008940697	0.9919999837875366	0.7704835534095764	0.0	244.0	371.0	0.0	0.0	0.0	0.0	0.0	0.0	null	null	null	null	null	null	null	null	335.0	332.0	332.0	336.0	337.0	337.0	332.0	338.0	334.0	334.0	337.0	
Mon Jun 05 13:36:00 UTC 2017	0.0	1.047281664E9	2664.51220703125	0.0	2.5731072E7	0.0	4.0	1.001066496E9	42.011077880859375	0.0	0.0	1.06133504E9	1.051189248E9	0.0	0.0	0.07325000315904617	0.05299999937415123	0.045499999076128006	0.9922500252723694	0.7700178027153015	0.0	244.0	371.0	0.0	0.0	0.0	0.0	0.0	0.0	null	null	null	null	null	null	null	null	336.0	333.0	337.0	337.0	336.0	337.0	337.0	335.0	335.0	336.0	336.0	
Mon Jun 05 13:35:00 UTC 2017	0.0	1.047281664E9	2664.51220703125	0.0	2.5731072E7	0.0	2.0	1.001066496E9	42.011077880859375	0.0	0.0	1.06133504E9	1.051189248E9	0.0	0.0	0.07000000029802322	0.05274999886751175	0.0507499985396862	0.9922500252723694	0.7700530290603638	0.0	244.0	371.0	0.0	0.0	0.0	0.0	0.0	0.0	null	null	null	null	null	null	null	null	336.0	339.0	334.0	337.0	334.0	335.0	336.0	334.0	337.0	336.0	335.0	
Mon Jun 05 13:34:00 UTC 2017	0.0	1.047281664E9	2664.51220703125	0.0	2.5731072E7	0.0	4.0	1.000976384E9	42.011077880859375	0.0	0.0	1.06133504E9	1.051189248E9	0.0	0.0	0.08100000023841858	0.05350000038743019	0.045499999076128006	0.9925000071525574	0.7700109481811523	0.0	244.0	371.0	0.0	0.0	0.0	0.0	0.0	0.0	null	null	null	null	null	null	null	null	336.0	334.0	338.0	333.0	337.0	337.0	336.0	335.0	334.0	337.0	335.0	
Mon Jun 05 13:33:00 UTC 2017	0.0	1.047281664E9	2946.593505859375	0.0	2.5731072E7	0.0	2.0	1.000976384E9	42.011077880859375	0.0	0.0	1.06133504E9	1.051189248E9	0.0	0.0	0.07524999976158142	0.04800000041723251	0.04800000041723251	0.9922500252723694	0.7699981927871704	0.0	244.0	371.0	0.0	0.0	0.0	0.0	0.0	0.0	null	null	null	null	null	null	null	null	336.0	338.0	334.0	337.0	332.0	336.0	335.0	337.0	337.0	335.0	335.0	
Mon Jun 05 13:32:00 UTC 2017	0.0	1.047281664E9	2946.593505859375	0.0	2.5731072E7	0.0	2.0	1.000976384E9	42.011077880859375	0.0	0.0	1.06133504E9	1.051189248E9	0.0	0.0	0.07175000011920929	0.050999999046325684	0.051249999552965164	0.9922500252723694	0.7699458599090576	0.0	244.0	371.0	0.0	0.0	0.0	0.0	0.0	0.0	null	null	null	null	null	null	null	null	336.0	332.0	337.0	332.0	336.0	336.0	334.0	336.0	335.0	334.0	337.0	
Mon Jun 05 13:31:00 UTC 2017	0.0	1.047281664E9	2737.2724609375	0.0	2.5731072E7	0.0	4.0	1.000849408E9	42.011077880859375	0.0	0.0	1.06133504E9	1.050161152E9	0.0	0.0	0.09674999862909317	0.05900000035762787	0.04724999889731407	0.9922500252723694	0.7699287533760071	0.0	244.0	371.0	0.0	0.0	0.0	0.0	0.0	0.0	null	null	null	null	null	null	null	null	334.0	338.0	335.0	335.0	334.0	335.0	337.0	333.0	336.0	337.0	338.0	
Mon Jun 05 13:30:00 UTC 2017	0.0	1.047281664E9	2831.343505859375	0.0	2.5731072E7	0.0	2.0	1.000849408E9	44.628501892089844	0.0	0.0	1.06133504E9	1.050161152E9	0.0	0.0	0.07900000363588333	0.04650000110268593	0.04600000008940697	0.9922500252723694	0.7699121236801147	0.0	244.0	371.0	0.0	0.0	0.0	0.0	0.0	0.0	null	null	null	null	null	null	null	null	338.0	335.0	337.0	336.0	339.0	333.0	333.0	337.0	337.0	334.0	336.0	
Mon Jun 05 13:29:00 UTC 2017	0.0	1.047281664E9	2831.343505859375	0.0	2.5731072E7	0.0	2.0	1.000759296E9	44.628501892089844	0.0	0.0	1.06133504E9	1.050161152E9	0.0	0.0	0.07275000214576721	0.05274999886751175	0.050999999046325684	0.9922500252723694	0.769891083240509	0.0	244.0	371.0	0.0	0.0	0.0	0.0	0.0	0.0	null	null	null	null	null	null	null	null	334.0	334.0	334.0	334.0	335.0	339.0	337.0	335.0	334.0	336.0	338.0	
Mon Jun 05 13:28:00 UTC 2017	0.0	1.047281664E9	2386.418212890625	0.0	2.5731072E7	0.0	2.0	1.000759296E9	44.628501892089844	0.0	0.0	1.06133504E9	1.051189248E9	0.0	0.0	0.07275000214576721	0.04899999871850014	0.04450000077486038	0.9922500252723694	0.7710452675819397	0.0	244.0	371.0	0.0	0.0	0.0	0.0	0.0	0.0	null	null	null	null	null	null	null	null	337.0	338.0	336.0	336.0	333.0	335.0	335.0	333.0	338.0	336.0	334.0	
Mon Jun 05 13:27:00 UTC 2017	0.0	1.047281664E9	2386.418212890625	0.0	2.5731072E7	0.0	2.0	1.000759296E9	45.78672409057617	0.0	0.0	1.06133504E9	1.051189248E9	0.0	0.0	0.07599999755620956	0.05000000074505806	0.04749999940395355	0.9922500252723694	0.7698646187782288	0.0	244.0	371.0	0.0	0.0	0.0	0.0	0.0	0.0	null	null	null	null	null	null	null	null	334.0	335.0	335.0	335.0	339.0	336.0	337.0	337.0	335.0	335.0	333.0	
Mon Jun 05 13:26:00 UTC 2017	0.0	1.047281664E9	2386.418212890625	0.0	2.5731072E7	0.0	4.0	1.0005504E9	45.78672409057617	0.0	0.0	1.06133504E9	1.050161152E9	0.0	0.0	0.06750000268220901	0.05649999901652336	0.05249999836087227	0.9922500252723694	0.7698465585708618	0.0	244.0	371.0	0.0	0.0	0.0	0.0	0.0	0.0	null	null	null	null	null	null	null	null	336.0	337.0	338.0	335.0	337.0	336.0	334.0	335.0	334.0	334.0	338.0	
Mon Jun 05 13:25:00 UTC 2017	0.0	1.047281664E9	2462.021240234375	0.0	2.5731072E7	0.0	2.0	1.000640512E9	45.78672409057617	0.0	0.0	1.06133504E9	1.050161152E9	0.0	null	0.07975000143051147	0.04749999940395355	0.04600000008940697	0.9922500252723694	0.7715359926223755	0.0	244.0	371.0	0.0	0.0	0.0	0.0	0.0	0.0	null	null	null	null	null	null	null	null	335.0	337.0	335.0	332.0	334.0	336.0	336.0	335.0	338.0	335.0	336.0	
Mon Jun 05 13:24:00 UTC 2017	0.0	1.047281664E9	2462.021240234375	0.0	2.5731072E7	0.0	2.0	1.0005504E9	49.51214599609375	0.0	0.0	1.06133504E9	1.051189248E9	0.0	null	0.0637499988079071	0.051500000059604645	0.04774999991059303	0.9925000071525574	0.7698098421096802	0.0	244.0	371.0	0.0	0.0	0.0	0.0	0.0	0.0	null	null	null	null	null	null	null	null	335.0	336.0	338.0	336.0	335.0	335.0	337.0	334.0	335.0	337.0	335.0	
Mon Jun 05 13:23:00 UTC 2017	0.0	1.047281664E9	3112.768798828125	0.0	2.5731072E7	0.0	2.0	1.0005504E9	42.765892028808594	0.0	0.0	1.06133504E9	1.050161152E9	0.0	null	0.07649999856948853	0.04975000023841858	0.04874999821186066	0.9922500252723694	0.7697912454605103	0.0	244.0	371.0	0.0	0.0	0.0	0.0	0.0	0.0	null	null	null	null	null	null	null	null	336.0	336.0	336.0	333.0	334.0	336.0	336.0	336.0	334.0	339.0	332.0	
Mon Jun 05 13:22:00 UTC 2017	0.0	1.047281664E9	3112.768798828125	0.0	2.5731072E7	0.0	3.0	1.0005504E9	42.765892028808594	0.0	0.0	1.06133504E9	1.051189248E9	0.0	0.0	0.07349999994039536	0.05350000038743019	0.05025000125169754	0.9919999837875366	0.7720648646354675	0.0	244.0	371.0	0.0	0.0	0.0	0.0	0.0	0.0	null	null	null	null	null	null	null	null	337.0	334.0	335.0	333.0	336.0	335.0	338.0	336.0	333.0	335.0	334.0	
Mon Jun 05 13:21:00 UTC 2017	0.0	1.047281664E9	2416.649169921875	0.0	2.5731072E7	0.0	2.0	1.000337408E9	48.76500701904297	0.0	0.0	1.06133504E9	1.050161152E9	0.0	0.0	0.09775000065565109	0.0494999997317791	0.045499999076128006	0.9925000071525574	0.7697765827178955	0.0	244.0	371.0	0.0	0.0	0.0	0.0	0.0	0.0	null	null	null	null	null	null	null	null	338.0	336.0	333.0	335.0	341.0	338.0	334.0	333.0	337.0	333.0	335.0	
Mon Jun 05 13:20:00 UTC 2017	0.0	1.047281664E9	2964.166748046875	0.0	2.5731072E7	0.0	2.0	1.00042752E9	48.76500701904297	0.0	0.0	1.06133504E9	1.051189248E9	0.0	0.0	0.07524999976158142	0.05225000157952309	0.0494999997317791	0.9922500252723694	0.7721148133277893	0.0	244.0	371.0	0.0	0.0	0.0	0.0	0.0	0.0	null	null	null	null	null	null	null	null	334.0	333.0	337.0	338.0	331.0	334.0	338.0	334.0	335.0	334.0	335.0	
Mon Jun 05 13:19:00 UTC 2017	0.0	1.047281664E9	2943.666259765625	0.0	2.5731072E7	0.0	3.0	1.000337408E9	49.9831657409668	0.0	0.0	1.06133504E9	1.050161152E9	0.0	0.0	0.07625000178813934	0.051500000059604645	0.04675000160932541	0.9922500252723694	0.7697545289993286	0.0	244.0	371.0	0.0	0.0	0.0	0.0	0.0	0.0	null	null	null	null	null	null	null	null	338.0	335.0	335.0	332.0	337.0	338.0	333.0	338.0	340.0	340.0	336.0	
Mon Jun 05 13:18:00 UTC 2017	0.0	1.047281664E9	2943.666259765625	0.0	2.5731072E7	0.0	2.0	1.000337408E9	48.296749114990234	0.0	0.0	1.06133504E9	1.050161152E9	0.0	0.0	0.06925000250339508	0.05375000089406967	0.04924999922513962	0.9925000071525574	0.7720277309417725	0.0	244.0	371.0	0.0	0.0	0.0	0.0	0.0	0.0	null	null	null	null	null	null	null	null	339.0	336.0	334.0	340.0	335.0	333.0	337.0	332.0	337.0	335.0	333.0	
Mon Jun 05 13:17:00 UTC 2017	0.0	1.047281664E9	2943.666259765625	0.0	2.5731072E7	0.0	3.0	1.000337408E9	47.734886169433594	0.0	0.0	1.06133504E9	1.050161152E9	0.0	0.0	0.07450000196695328	0.04699999839067459	0.04774999991059303	0.9922500252723694	0.7720096111297607	0.0	244.0	371.0	0.0	0.0	0.0	0.0	0.0	0.0	null	null	null	null	null	null	null	null	335.0	338.0	330.0	332.0	339.0	336.0	336.0	334.0	331.0	334.0	336.0	
Mon Jun 05 13:16:00 UTC 2017	0.0	1.047281664E9	2943.666259765625	0.0	2.5731072E7	0.0	4.0	1.000108032E9	47.734886169433594	0.0	0.0	1.06133504E9	1.050161152E9	0.0	null	0.07649999856948853	0.052000001072883606	0.04899999871850014	0.9922500252723694	0.76969975233078	0.0	244.0	371.0	0.0	0.0	0.0	0.0	0.0	0.0	null	null	null	null	null	null	null	null	337.0	332.0	337.0	338.0	333.0	335.0	334.0	334.0	338.0	335.0	336.0	
Mon Jun 05 13:15:00 UTC 2017	0.0	1.047281664E9	2943.666259765625	0.0	2.5731072E7	0.0	2.0	1.000198144E9	47.734886169433594	0.0	0.0	1.06133504E9	1.051189248E9	0.0	null	0.07050000131130219	0.05324999988079071	0.04349999874830246	0.9922500252723694	0.7696850895881653	0.0	244.0	371.0	0.0	0.0	0.0	0.0	0.0	0.0	null	null	null	null	null	null	null	null	336.0	337.0	336.0	334.0	336.0	342.0	330.0	336.0	336.0	337.0	339.0	
Mon Jun 05 13:14:00 UTC 2017	0.0	1.047281664E9	2798.901123046875	0.0	2.5731072E7	0.0	2.0	1.000108032E9	47.734886169433594	0.0	0.0	1.06133504E9	1.051189248E9	0.0	null	0.07575000077486038	0.04749999940395355	0.04874999821186066	0.9922500252723694	0.7696664929389954	0.0	244.0	371.0	0.0	0.0	0.0	0.0	0.0	0.0	null	null	null	null	null	null	null	null	333.0	334.0	335.0	335.0	335.0	334.0	336.0	337.0	335.0	336.0	334.0	
Mon Jun 05 13:13:00 UTC 2017	0.0	1.047281664E9	2798.901123046875	0.0	2.5731072E7	0.0	2.0	1.000108032E9	47.734886169433594	0.0	0.0	1.06133504E9	1.050161152E9	0.0	null	0.07074999809265137	0.05249999836087227	0.05000000074505806	0.9919999837875366	0.7718408107757568	0.0	244.0	371.0	0.0	0.0	0.0	0.0	0.0	0.0	null	null	null	null	null	null	null	null	338.0	341.0	338.0	339.0	338.0	334.0	333.0	332.0	338.0	334.0	339.0	
Mon Jun 05 13:12:00 UTC 2017	0.0	1.047281664E9	2887.973388671875	0.0	2.5731072E7	0.0	3.0	1.000108032E9	42.721885681152344	0.0	0.0	1.06133504E9	1.050161152E9	0.0	null	0.0742499977350235	0.05225000157952309	0.04625000059604645	0.9922500252723694	0.769649863243103	0.0	244.0	371.0	0.0	0.0	0.0	0.0	0.0	0.0	null	null	null	null	null	null	null	null	331.0	335.0	336.0	334.0	335.0	335.0	333.0	334.0	335.0	336.0	332.0	
Mon Jun 05 13:11:00 UTC 2017	0.0	1.047281664E9	2887.973388671875	0.0	2.5731072E7	0.0	2.0	9.99899136E8	43.90390396118164	0.0	0.0	1.06133504E9	1.051189248E9	0.0	null	0.1014999970793724	0.04899999871850014	0.052000001072883606	0.9925000071525574	0.7696337103843689	0.0	244.0	371.0	0.0	0.0	0.0	0.0	0.0	0.0	null	null	null	null	null	null	null	null	339.0	337.0	337.0	338.0	337.0	338.0	335.0	338.0	336.0	336.0	335.0	
Mon Jun 05 13:10:00 UTC 2017	0.0	1.047281664E9	2853.317626953125	0.0	2.5731072E7	0.0	3.0	1.000251392E9	55.510257720947266	0.0	0.0	1.06133504E9	1.050161152E9	0.0	0.0	0.07575000077486038	0.054249998182058334	0.04574999958276749	0.9922500252723694	0.7696160674095154	0.0	244.0	371.0	0.0	0.0	0.0	0.0	0.0	0.0	null	null	null	null	null	null	null	null	334.0	336.0	334.0	334.0	335.0	336.0	334.0	332.0	338.0	339.0	337.0	
Mon Jun 05 13:09:00 UTC 2017	0.0	1.047281664E9	2802.826416015625	0.0	2.5731072E7	0.0	2.0	9.99878656E8	76.48986053466797	0.0	0.0	1.06133504E9	1.051189248E9	0.0	0.0	0.06825000047683716	0.04724999889731407	0.04774999991059303	0.9922500252723694	0.7718207240104675	0.0	244.0	371.0	0.0	0.0	0.0	0.0	0.0	0.0	null	null	null	null	null	null	null	null	336.0	335.0	335.0	339.0	339.0	331.0	334.0	334.0	335.0	333.0	334.0	
Mon Jun 05 13:08:00 UTC 2017	0.0	1.047281664E9	2312.775390625	0.0	2.5731072E7	0.0	3.0	9.99878656E8	38.25745391845703	0.0	0.0	1.06133504E9	1.050161152E9	0.0	0.0	0.07850000262260437	0.05025000125169754	0.04699999839067459	0.9919999837875366	0.7695143222808838	0.0	244.0	371.0	0.0	0.0	0.0	0.0	0.0	0.0	null	null	null	null	null	null	null	null	333.0	337.0	337.0	337.0	335.0	335.0	337.0	335.0	335.0	336.0	334.0	
Mon Jun 05 13:07:00 UTC 2017	0.0	1.047281664E9	2804.999267578125	0.0	2.5731072E7	0.0	2.0	9.99878656E8	38.25745391845703	0.0	0.0	1.06133504E9	1.050161152E9	0.0	0.0	0.07150000333786011	0.05249999836087227	0.051249999552965164	0.9922500252723694	0.7694893479347229	0.0	244.0	371.0	0.0	0.0	0.0	0.0	0.0	0.0	null	null	null	null	null	null	null	null	337.0	334.0	334.0	332.0	336.0	337.0	330.0	334.0	336.0	335.0	337.0	
Mon Jun 05 13:06:00 UTC 2017	0.0	1.047281664E9	3150.341552734375	0.0	2.5731072E7	0.0	2.0	9.99759872E8	54.026329040527344	0.0	0.0	1.06133504E9	1.050161152E9	0.0	0.0	0.06825000047683716	0.04800000041723251	0.048250000923871994	0.9925000071525574	0.76945561170578	0.0	244.0	371.0	0.0	0.0	0.0	0.0	0.0	0.0	null	null	null	null	null	null	null	null	336.0	334.0	336.0	340.0	336.0	335.0	335.0	333.0	334.0	337.0	332.0	
Mon Jun 05 13:05:00 UTC 2017	0.0	1.047281664E9	2576.764892578125	0.0	2.5731072E7	0.0	2.0	9.99759872E8	54.026329040527344	0.0	0.0	1.06133504E9	1.051189248E9	0.0	0.0	0.07850000262260437	0.057999998331069946	0.04800000041723251	0.9925000071525574	0.7694379687309265	0.0	244.0	371.0	0.0	0.0	0.0	0.0	0.0	0.0	null	null	null	null	null	null	null	null	340.0	338.0	330.0	336.0	332.0	336.0	336.0	336.0	334.0	337.0	337.0	
Mon Jun 05 13:04:00 UTC 2017	0.0	1.047281664E9	2576.764892578125	0.0	2.5731072E7	0.0	2.0	9.9966976E8	48.104881286621094	0.0	0.0	1.06133504E9	1.051189248E9	0.0	0.0	0.07225000113248825	0.04899999871850014	0.0442500002682209	0.9922500252723694	0.7694502472877502	0.0	244.0	371.0	0.0	0.0	0.0	0.0	0.0	0.0	null	null	null	null	null	null	null	null	333.0	333.0	337.0	338.0	334.0	335.0	337.0	338.0	332.0	332.0	335.0	
Mon Jun 05 13:03:00 UTC 2017	0.0	1.047281664E9	2576.764892578125	0.0	2.5731072E7	0.0	2.0	9.9966976E8	51.26591110229492	0.0	0.0	1.06133504E9	1.050161152E9	0.0	0.0	0.08049999922513962	0.04774999991059303	0.04574999958276749	0.9919999837875366	0.7694316506385803	0.0	244.0	371.0	0.0	0.0	0.0	0.0	0.0	0.0	null	null	null	null	null	null	null	null	337.0	338.0	331.0	335.0	335.0	334.0	332.0	332.0	337.0	337.0	336.0	
Mon Jun 05 13:02:00 UTC 2017	0.0	1.047281664E9	2576.764892578125	0.0	2.5731072E7	0.0	4.0	9.9966976E8	51.26591110229492	0.0	0.0	1.06133504E9	1.050161152E9	0.0	0.0	0.06424999982118607	0.05525000020861626	0.051249999552965164	0.9919999837875366	0.7694301605224609	0.0	244.0	371.0	0.0	0.0	0.0	0.0	0.0	0.0	null	null	null	null	null	null	null	null	336.0	333.0	339.0	334.0	333.0	335.0	338.0	338.0	334.0	335.0	335.0	
Mon Jun 05 13:01:00 UTC 2017	0.0	1.047281664E9	2576.764892578125	0.0	2.5731072E7	0.0	5.0	9.9954688E8	51.26591110229492	0.0	0.0	1.06133504E9	1.051189248E9	0.0	0.0	0.1185000017285347	0.09375	0.045499999076128006	0.9922500252723694	0.7694159746170044	0.0	244.0	371.0	0.0	0.0	0.0	0.0	0.0	0.0	null	null	null	null	null	null	null	null	333.0	334.0	334.0	335.0	337.0	332.0	334.0	333.0	336.0	335.0	337.0	
Mon Jun 05 13:00:00 UTC 2017	0.0	1.047281664E9	2263.799560546875	0.0	2.5731072E7	0.0	2.0	9.9954688E8	51.26591110229492	0.0	0.0	1.06133504E9	1.051189248E9	0.0	0.0	0.0689999982714653	0.05274999886751175	0.052000001072883606	0.9922500252723694	0.7693988680839539	0.0	244.0	371.0	0.0	0.0	0.0	0.0	0.0	0.0	null	null	null	null	null	null	null	null	337.0	336.0	334.0	337.0	337.0	338.0	337.0	338.0	336.0	334.0	335.0	
Mon Jun 05 12:59:00 UTC 2017	0.0	1.047281664E9	2263.799560546875	0.0	2.5731072E7	0.0	9.0	9.99456768E8	39.65818405151367	0.0	0.0	1.06133504E9	1.050161152E9	0.0	0.0	0.08025000244379044	0.05000000074505806	0.04574999958276749	0.9919999837875366	0.7694008350372314	0.0	244.0	371.0	0.0	0.0	0.0	0.0	0.0	0.0	null	null	null	null	null	null	null	null	336.0	336.0	339.0	332.0	336.0	334.0	335.0	332.0	336.0	336.0	334.0	
Mon Jun 05 12:58:00 UTC 2017	0.0	1.047281664E9	2351.831298828125	0.0	2.5731072E7	0.0	6.0	9.99456768E8	39.65818405151367	0.0	0.0	1.06133504E9	1.051189248E9	0.0	0.0	0.07450000196695328	0.051249999552965164	0.05050000175833702	0.9922500252723694	0.7693831920623779	0.0	244.0	371.0	0.0	0.0	0.0	0.0	0.0	0.0	null	null	null	null	null	null	null	null	335.0	336.0	335.0	337.0	335.0	336.0	335.0	336.0	336.0	338.0	337.0	
Mon Jun 05 12:57:00 UTC 2017	0.0	1.047281664E9	2351.831298828125	0.0	2.5731072E7	0.0	4.0	9.99456768E8	68.60249328613281	0.0	0.0	1.06133504E9	1.051189248E9	0.0	0.0	0.0677499994635582	0.05000000074505806	0.04874999821186066	0.9922500252723694	0.7693670392036438	0.0	244.0	371.0	0.0	0.0	0.0	0.0	0.0	0.0	null	null	null	null	null	null	null	null	335.0	336.0	334.0	333.0	335.0	334.0	333.0	334.0	336.0	331.0	334.0	
Mon Jun 05 12:56:00 UTC 2017	0.0	1.047281664E9	2351.831298828125	0.0	2.5731072E7	0.0	4.0	9.99243776E8	47.009761810302734	0.0	0.0	1.06133504E9	1.051189248E9	0.0	0.0	0.07975000143051147	0.04675000160932541	0.04975000023841858	0.9922500252723694	0.7693665623664856	0.0	244.0	371.0	0.0	0.0	0.0	0.0	0.0	0.0	null	null	null	null	null	null	null	null	333.0	335.0	334.0	338.0	335.0	336.0	335.0	335.0	335.0	339.0	335.0	
Mon Jun 05 12:55:00 UTC 2017	0.0	1.047281664E9	2351.831298828125	0.0	2.5731072E7	0.0	2.0	9.99333888E8	47.009761810302734	0.0	0.0	1.06133504E9	1.050161152E9	0.0	0.0	0.0677499994635582	0.05350000038743019	0.05000000074505806	0.9922500252723694	0.7693538665771484	0.0	244.0	371.0	0.0	0.0	0.0	0.0	0.0	0.0	null	null	null	null	null	null	null	null	337.0	337.0	336.0	334.0	335.0	335.0	332.0	335.0	336.0	336.0	337.0	
Mon Jun 05 12:54:00 UTC 2017	0.0	1.047281664E9	2351.831298828125	0.0	2.5731072E7	0.0	2.0	9.99243776E8	47.009761810302734	0.0	0.0	1.06133504E9	1.050161152E9	0.0	0.0	0.07500000298023224	0.052000001072883606	0.045249998569488525	0.9922500252723694	0.7693518996238708	0.0	244.0	371.0	0.0	0.0	0.0	0.0	0.0	0.0	null	null	null	null	null	null	null	null	335.0	335.0	333.0	332.0	335.0	336.0	336.0	336.0	335.0	336.0	333.0	
Mon Jun 05 12:53:00 UTC 2017	0.0	1.047281664E9	2351.831298828125	0.0	2.5731072E7	0.0	3.0	9.99243776E8	37.643917083740234	0.0	0.0	1.06133504E9	1.051189248E9	0.0	0.0	0.0729999989271164	0.04650000110268593	0.051750000566244125	0.9922500252723694	0.7693381905555725	0.0	244.0	371.0	0.0	0.0	0.0	0.0	0.0	0.0	null	null	null	null	null	null	null	null	335.0	335.0	337.0	339.0	335.0	335.0	335.0	336.0	333.0	335.0	338.0	
Mon Jun 05 12:52:00 UTC 2017	0.0	1.047281664E9	3220.548583984375	0.0	2.5731072E7	0.0	2.0	9.99243776E8	37.643917083740234	0.0	0.0	1.06133504E9	1.051189248E9	0.0	0.0	0.0729999989271164	0.050999999046325684	0.050999999046325684	0.9922500252723694	0.769324004650116	0.0	244.0	371.0	0.0	0.0	0.0	0.0	0.0	0.0	null	null	null	null	null	null	null	null	337.0	335.0	333.0	335.0	335.0	335.0	339.0	335.0	339.0	336.0	335.0	
Mon Jun 05 12:51:00 UTC 2017	0.0	1.047281664E9	2708.468017578125	0.0	2.5731072E7	0.0	4.0	9.9903488E8	37.643917083740234	0.0	0.0	1.06133504E9	1.050161152E9	0.0	0.0	0.10050000250339508	0.05375000089406967	0.04625000059604645	0.9922500252723694	0.7693019509315491	0.0	244.0	371.0	0.0	0.0	0.0	0.0	0.0	0.0	null	null	null	null	null	null	null	null	338.0	337.0	335.0	332.0	337.0	335.0	332.0	338.0	333.0	334.0	336.0	
Mon Jun 05 12:50:00 UTC 2017	0.0	1.047281664E9	2793.601806640625	0.0	2.5731072E7	0.0	2.0	9.99124992E8	55.511863708496094	0.0	0.0	1.06133504E9	1.050161152E9	0.0	null	0.08224999904632568	0.052000001072883606	0.04625000059604645	0.9925000071525574	0.7715579867362976	0.0	244.0	371.0	0.0	0.0	0.0	0.0	0.0	0.0	null	null	null	null	null	null	null	null	334.0	332.0	335.0	336.0	332.0	336.0	337.0	334.0	338.0	336.0	333.0	
Mon Jun 05 12:49:00 UTC 2017	0.0	1.047281664E9	2793.601806640625	0.0	2.5731072E7	0.0	3.0	9.9903488E8	38.03019332885742	0.0	0.0	1.06133504E9	1.050161152E9	0.0	null	0.07100000232458115	0.04500000178813934	0.045499999076128006	0.9925000071525574	0.7692515850067139	0.0	244.0	371.0	0.0	0.0	0.0	0.0	0.0	0.0	null	null	null	null	null	null	null	null	338.0	337.0	336.0	338.0	338.0	333.0	338.0	338.0	335.0	337.0	336.0	
Mon Jun 05 12:48:00 UTC 2017	0.0	1.047281664E9	2845.222412109375	0.0	2.5731072E7	0.0	4.0	9.9903488E8	38.992733001708984	0.0	0.0	1.06133504E9	1.050161152E9	0.0	null	0.0742499977350235	0.05375000089406967	0.05050000175833702	0.9922500252723694	0.7692511081695557	0.0	244.0	371.0	0.0	0.0	0.0	0.0	0.0	0.0	null	null	null	null	null	null	null	null	334.0	335.0	334.0	334.0	335.0	334.0	333.0	334.0	335.0	334.0	337.0	
Mon Jun 05 12:47:00 UTC 2017	0.0	1.047281664E9	2553.444091796875	0.0	2.5731072E7	0.0	2.0	9.9903488E8	38.992733001708984	0.0	0.0	1.06133504E9	1.050161152E9	0.0	null	0.07625000178813934	0.051249999552965164	0.04749999940395355	0.9919999837875366	0.7692320346832275	0.0	244.0	371.0	0.0	0.0	0.0	0.0	0.0	0.0	null	null	null	null	null	null	null	null	336.0	337.0	338.0	333.0	337.0	336.0	339.0	334.0	337.0	334.0	332.0	
Mon Jun 05 12:46:00 UTC 2017	0.0	1.047281664E9	2553.444091796875	0.0	2.5731072E7	0.0	3.0	9.98912E8	53.19942092895508	0.0	0.0	1.06133504E9	1.051189248E9	0.0	null	0.07124999910593033	0.051500000059604645	0.04874999821186066	0.9919999837875366	0.7707101106643677	0.0	244.0	371.0	0.0	0.0	0.0	0.0	0.0	0.0	null	null	null	null	null	null	null	null	335.0	334.0	336.0	334.0	334.0	336.0	336.0	336.0	334.0	335.0	336.0	
Mon Jun 05 12:45:00 UTC 2017	0.0	1.047281664E9	2457.141357421875	0.0	2.5731072E7	0.0	2.0	9.98912E8	53.19942092895508	0.0	0.0	1.06133504E9	1.050161152E9	0.0	0.0	0.07474999874830246	0.05274999886751175	0.04699999839067459	0.9919999837875366	0.7691943645477295	0.0	244.0	371.0	0.0	0.0	0.0	0.0	0.0	0.0	null	null	null	null	null	null	null	null	335.0	338.0	333.0	337.0	335.0	336.0	336.0	336.0	337.0	340.0	337.0	
Mon Jun 05 12:44:00 UTC 2017	0.0	1.047281664E9	2940.73681640625	0.0	2.5731072E7	0.0	2.0	9.98821888E8	45.624664306640625	0.0	0.0	1.06133504E9	1.051189248E9	0.0	0.0	0.07374999672174454	0.04800000041723251	0.048250000923871994	0.9922500252723694	0.7692002058029175	0.0	244.0	371.0	0.0	0.0	0.0	0.0	0.0	0.0	null	null	null	null	null	null	null	null	338.0	335.0	337.0	332.0	336.0	332.0	333.0	336.0	338.0	332.0	332.0	
Mon Jun 05 12:43:00 UTC 2017	0.0	1.047281664E9	2940.73681640625	0.0	2.5731072E7	0.0	2.0	9.98821888E8	45.624664306640625	0.0	0.0	1.06133504E9	1.050161152E9	0.0	0.0	0.0794999971985817	0.05299999937415123	0.0430000014603138	0.9922500252723694	0.7706895470619202	0.0	244.0	371.0	0.0	0.0	0.0	0.0	0.0	0.0	null	null	null	null	null	null	null	null	335.0	337.0	338.0	337.0	336.0	337.0	335.0	335.0	333.0	334.0	340.0	
Mon Jun 05 12:42:00 UTC 2017	0.0	1.047281664E9	2685.54833984375	0.0	2.5731072E7	0.0	2.0	9.98821888E8	45.624664306640625	0.0	0.0	1.06133504E9	1.051189248E9	0.0	0.0	0.07100000232458115	0.05324999988079071	0.05050000175833702	0.9919999837875366	0.7714444994926453	0.0	244.0	371.0	0.0	0.0	0.0	0.0	0.0	0.0	null	null	null	null	null	null	null	null	332.0	333.0	333.0	338.0	338.0	334.0	337.0	337.0	335.0	336.0	333.0	
Mon Jun 05 12:41:00 UTC 2017	0.0	1.047281664E9	3318.543212890625	0.0	2.5731072E7	0.0	5.0	9.986048E8	45.624664306640625	0.0	0.0	1.06133504E9	1.051189248E9	0.0	null	0.10350000113248825	0.05000000074505806	0.048250000923871994	0.9922500252723694	0.7704077363014221	0.0	244.0	371.0	0.0	0.0	0.0	0.0	0.0	0.0	null	null	null	null	null	null	null	null	337.0	338.0	336.0	332.0	333.0	334.0	335.0	333.0	335.0	335.0	332.0	
Mon Jun 05 12:40:00 UTC 2017	0.0	1.047281664E9	3318.543212890625	0.0	2.5731072E7	0.0	2.0	9.98694912E8	45.624664306640625	0.0	0.0	1.06133504E9	1.050161152E9	0.0	null	0.07349999994039536	0.04975000023841858	0.04975000023841858	0.9919999837875366	0.7691468596458435	0.0	244.0	371.0	0.0	0.0	0.0	0.0	0.0	0.0	null	null	null	null	null	null	null	null	337.0	337.0	335.0	336.0	336.0	334.0	333.0	337.0	339.0	336.0	334.0	
Mon Jun 05 12:39:00 UTC 2017	0.0	1.047281664E9	3318.543212890625	0.0	2.5731072E7	0.0	2.0	9.986048E8	55.93235397338867	0.0	0.0	1.06133504E9	1.051189248E9	0.0	0.0	0.07625000178813934	0.05350000038743019	0.048250000923871994	0.9922500252723694	0.769108235836029	0.0	244.0	371.0	0.0	0.0	0.0	0.0	0.0	0.0	null	null	null	null	null	null	null	null	333.0	335.0	333.0	334.0	339.0	336.0	336.0	336.0	335.0	338.0	335.0	
Mon Jun 05 12:38:00 UTC 2017	0.0	1.047281664E9	3318.543212890625	0.0	2.5731072E7	0.0	2.0	9.986048E8	55.93235397338867	0.0	0.0	1.06133504E9	1.050161152E9	0.0	0.0	0.0754999965429306	0.05299999937415123	0.04374999925494194	0.9919999837875366	0.769950270652771	0.0	244.0	371.0	0.0	0.0	0.0	0.0	0.0	0.0	null	null	null	null	null	null	null	null	334.0	322.0	323.0	321.0	330.0	329.0	322.0	322.0	319.0	321.0	329.0	
Mon Jun 05 12:37:00 UTC 2017	0.0	1.047281664E9	3151.041748046875	0.0	2.5731072E7	0.0	2.0	9.986048E8	55.93235397338867	0.0	0.0	1.06133504E9	1.050161152E9	0.0	null	0.06724999845027924	0.04675000160932541	0.04874999821186066	0.9922500252723694	0.7761170268058777	0.0	244.0	371.0	0.0	0.0	0.0	0.0	0.0	0.0	null	null	null	null	null	null	null	null	322.0	332.0	331.0	331.0	322.0	325.0	335.0	330.0	332.0	334.0	327.0	
Mon Jun 05 12:36:00 UTC 2017	0.0	1.047281664E9	3151.041748046875	0.0	2.5731072E7	0.0	5.0	9.98486016E8	56.58542251586914	0.0	0.0	1.06133504E9	1.051189248E9	0.0	0.0	0.08425000309944153	0.05550000071525574	0.04749999940395355	0.9922500252723694	0.7690871953964233	0.0	244.0	371.0	0.0	0.0	0.0	0.0	0.0	0.0	null	null	null	null	null	null	null	null	332.0	334.0	336.0	337.0	333.0	337.0	336.0	338.0	334.0	336.0	336.0	
Mon Jun 05 12:35:00 UTC 2017	0.0	1.047281664E9	3151.041748046875	0.0	2.5731072E7	0.0	3.0	9.9848192E8	56.58542251586914	0.0	0.0	1.06133504E9	1.050161152E9	0.0	0.0	0.07000000029802322	0.04600000008940697	0.0494999997317791	0.9919999837875366	0.769709050655365	0.0	244.0	371.0	0.0	0.0	0.0	0.0	0.0	0.0	null	null	null	null	null	null	null	null	335.0	337.0	335.0	332.0	337.0	334.0	332.0	333.0	336.0	336.0	334.0	
Mon Jun 05 12:34:00 UTC 2017	0.0	1.047281664E9	3151.041748046875	0.0	2.5731072E7	0.0	2.0	9.98391808E8	56.58542251586914	0.0	0.0	1.06133504E9	1.050161152E9	0.0	0.0	0.08275000005960464	0.051249999552965164	0.04899999871850014	0.9919999837875366	0.7690695524215698	0.0	244.0	371.0	0.0	0.0	0.0	0.0	0.0	0.0	null	null	null	null	null	null	null	null	335.0	336.0	337.0	336.0	330.0	335.0	335.0	336.0	335.0	333.0	338.0	
Mon Jun 05 12:33:00 UTC 2017	0.0	1.047281664E9	2678.806640625	0.0	2.5731072E7	0.0	2.0	9.98391808E8	50.058494567871094	0.0	0.0	1.06133504E9	1.051189248E9	0.0	0.0	0.07074999809265137	0.05824999883770943	0.04699999839067459	0.9919999837875366	0.7690504789352417	0.0	244.0	371.0	0.0	0.0	0.0	0.0	0.0	0.0	null	null	null	null	null	null	null	null	336.0	336.0	334.0	333.0	334.0	332.0	336.0	338.0	338.0	338.0	333.0	
Mon Jun 05 12:32:00 UTC 2017	0.0	1.047281664E9	2726.953857421875	0.0	2.5731072E7	0.0	3.0	9.98391808E8	50.058494567871094	0.0	0.0	1.06133504E9	1.051189248E9	0.0	0.0	0.07199999690055847	0.04574999958276749	0.04749999940395355	0.9922500252723694	0.7690524458885193	0.0	244.0	371.0	0.0	0.0	0.0	0.0	0.0	0.0	null	null	null	null	null	null	null	null	336.0	336.0	337.0	338.0	337.0	338.0	334.0	333.0	334.0	336.0	335.0	
Mon Jun 05 12:31:00 UTC 2017	0.0	1.047281664E9	2726.953857421875	0.0	2.5731072E7	0.0	2.0	9.98182912E8	40.1653938293457	0.0	0.0	1.06133504E9	1.051189248E9	0.0	0.0	0.1054999977350235	0.0494999997317791	0.05000000074505806	0.9922500252723694	0.7690191864967346	0.0	244.0	371.0	0.0	0.0	0.0	0.0	0.0	0.0	null	null	null	null	null	null	null	null	332.0	335.0	337.0	335.0	337.0	335.0	336.0	335.0	332.0	334.0	334.0	
Mon Jun 05 12:30:00 UTC 2017	0.0	1.047281664E9	2726.953857421875	0.0	2.5731072E7	0.0	2.0	9.98453248E8	42.75065231323242	0.0	0.0	1.06133504E9	1.051189248E9	0.0	0.0	0.07150000333786011	0.051249999552965164	0.04399999976158142	0.9919999837875366	0.7690152525901794	0.0	244.0	371.0	0.0	0.0	0.0	0.0	0.0	0.0	null	null	null	null	null	null	null	null	339.0	334.0	335.0	336.0	338.0	335.0	335.0	336.0	336.0	332.0	335.0	
Mon Jun 05 12:29:00 UTC 2017	0.0	1.047281664E9	2328.48486328125	0.0	2.5731072E7	0.0	5.0	9.98182912E8	42.75065231323242	0.0	0.0	1.06133504E9	1.051189248E9	0.0	0.0	0.07975000143051147	0.05000000074505806	0.05050000175833702	0.9922500252723694	0.7689917683601379	0.0	244.0	371.0	0.0	0.0	0.0	0.0	0.0	0.0	null	null	null	null	null	null	null	null	336.0	336.0	334.0	337.0	334.0	334.0	337.0	338.0	336.0	336.0	336.0	
Mon Jun 05 12:28:00 UTC 2017	0.0	1.047281664E9	3057.635498046875	0.0	2.5731072E7	0.0	2.0	9.98182912E8	42.75065231323242	0.0	0.0	1.06133504E9	1.050161152E9	0.0	0.0	0.07050000131130219	0.05299999937415123	0.04975000023841858	0.9922500252723694	0.7689780592918396	0.0	244.0	371.0	0.0	0.0	0.0	0.0	0.0	0.0	null	null	null	null	null	null	null	null	334.0	336.0	336.0	332.0	338.0	333.0	337.0	336.0	335.0	335.0	334.0	
Mon Jun 05 12:27:00 UTC 2017	0.0	1.047281664E9	2932.124267578125	0.0	2.5731072E7	0.0	2.0	9.98182912E8	42.75065231323242	0.0	0.0	1.06133504E9	1.051189248E9	0.0	0.0	0.07249999791383743	0.04874999821186066	0.04500000178813934	0.9925000071525574	0.7689071297645569	0.0	244.0	371.0	0.0	0.0	0.0	0.0	0.0	0.0	null	null	null	null	null	null	null	null	337.0	337.0	334.0	339.0	335.0	337.0	334.0	336.0	337.0	337.0	336.0	
Mon Jun 05 12:26:00 UTC 2017	0.0	1.047281664E9	2546.314453125	0.0	2.5731072E7	0.0	5.0	9.9796992E8	56.24370193481445	0.0	0.0	1.06133504E9	1.051189248E9	0.0	null	0.07724999636411667	0.05400000140070915	0.04975000023841858	0.9922500252723694	0.7689492106437683	0.0	244.0	371.0	0.0	0.0	0.0	0.0	0.0	0.0	null	null	null	null	null	null	null	null	334.0	339.0	335.0	335.0	336.0	333.0	336.0	333.0	332.0	333.0	334.0	
Mon Jun 05 12:25:00 UTC 2017	0.0	1.047281664E9	2517.108154296875	0.0	2.5731072E7	0.0	3.0	9.98060032E8	56.24370193481445	0.0	0.0	1.06133504E9	1.050161152E9	0.0	0.0	0.07175000011920929	0.04749999940395355	0.051249999552965164	0.9925000071525574	0.7689316272735596	0.0	244.0	371.0	0.0	0.0	0.0	0.0	0.0	0.0	null	null	null	null	null	null	null	null	338.0	337.0	335.0	338.0	333.0	335.0	336.0	341.0	336.0	339.0	337.0	
Mon Jun 05 12:24:00 UTC 2017	0.0	1.047281664E9	2875.724853515625	0.0	2.5731072E7	0.0	2.0	9.9796992E8	59.615203857421875	0.0	0.0	1.06133504E9	1.051189248E9	0.0	null	0.0742499977350235	0.057750001549720764	0.04899999871850014	0.9919999837875366	0.7689120173454285	0.0	244.0	371.0	0.0	0.0	0.0	0.0	0.0	0.0	null	null	null	null	null	null	null	null	338.0	335.0	337.0	335.0	336.0	336.0	336.0	334.0	336.0	331.0	335.0	
Mon Jun 05 12:23:00 UTC 2017	0.0	1.047281664E9	2875.724853515625	0.0	2.5731072E7	0.0	3.0	9.9796992E8	50.367431640625	0.0	0.0	1.06133504E9	1.051189248E9	0.0	null	0.07050000131130219	0.051500000059604645	0.04724999889731407	0.9919999837875366	0.7712766528129578	0.0	244.0	371.0	0.0	0.0	0.0	0.0	0.0	0.0	null	null	null	null	null	null	null	null	339.0	340.0	335.0	336.0	331.0	333.0	336.0	336.0	335.0	337.0	334.0	
Mon Jun 05 12:22:00 UTC 2017	0.0	1.047281664E9	2550.8857421875	0.0	2.5731072E7	0.0	2.0	9.9796992E8	50.367431640625	0.0	0.0	1.06133504E9	1.050161152E9	0.0	null	0.07124999910593033	0.04650000110268593	0.045249998569488525	0.9922500252723694	0.7689027190208435	0.0	244.0	371.0	0.0	0.0	0.0	0.0	0.0	0.0	null	null	null	null	null	null	null	null	335.0	334.0	335.0	334.0	337.0	336.0	334.0	335.0	333.0	336.0	337.0	
Mon Jun 05 12:21:00 UTC 2017	0.0	1.047281664E9	2793.248291015625	0.0	2.5731072E7	0.0	2.0	9.97756928E8	41.32475662231445	0.0	0.0	1.06133504E9	1.051189248E9	0.0	null	0.09175000339746475	0.05000000074505806	0.04600000008940697	0.9922500252723694	0.7711817622184753	0.0	244.0	371.0	0.0	0.0	0.0	0.0	0.0	0.0	null	null	null	null	null	null	null	null	336.0	339.0	335.0	337.0	336.0	335.0	334.0	338.0	336.0	333.0	331.0	
Mon Jun 05 12:20:00 UTC 2017	0.0	1.047281664E9	3190.36962890625	0.0	2.5731072E7	0.0	5.0	9.9784704E8	41.32475662231445	0.0	0.0	1.06133504E9	1.050161152E9	0.0	null	0.0872500017285347	0.05950000137090683	0.054249998182058334	0.9919999837875366	0.7688596844673157	0.0	244.0	371.0	0.0	0.0	0.0	0.0	0.0	0.0	null	null	null	null	null	null	null	null	336.0	338.0	337.0	334.0	333.0	335.0	335.0	333.0	331.0	337.0	336.0	
Mon Jun 05 12:19:00 UTC 2017	0.0	1.047281664E9	3190.36962890625	0.0	2.5731072E7	0.0	3.0	9.97756928E8	41.32475662231445	0.0	0.0	1.06133504E9	1.051189248E9	0.0	null	0.0689999982714653	0.04574999958276749	0.0442500002682209	0.9922500252723694	0.7688674926757812	0.0	244.0	371.0	0.0	0.0	0.0	0.0	0.0	0.0	null	null	null	null	null	null	null	null	336.0	335.0	334.0	338.0	339.0	336.0	337.0	335.0	333.0	337.0	334.0	
Mon Jun 05 12:18:00 UTC 2017	0.0	1.047281664E9	2502.6796875	0.0	2.5731072E7	0.0	2.0	9.97756928E8	41.32475662231445	0.0	0.0	1.06133504E9	1.050161152E9	0.0	null	0.07374999672174454	0.05249999836087227	0.04749999940395355	0.9919999837875366	0.7688239812850952	0.0	244.0	371.0	0.0	0.0	0.0	0.0	0.0	0.0	null	null	null	null	null	null	null	null	334.0	336.0	336.0	334.0	336.0	333.0	333.0	335.0	341.0	334.0	334.0	
Mon Jun 05 12:17:00 UTC 2017	0.0	1.047281664E9	2609.759033203125	0.0	2.5731072E7	0.0	2.0	9.97756928E8	54.26342010498047	0.0	0.0	1.06133504E9	1.051189248E9	0.0	0.0	0.07325000315904617	0.05249999836087227	0.04625000059604645	0.9925000071525574	0.7688220143318176	0.0	244.0	371.0	0.0	0.0	0.0	0.0	0.0	0.0	null	null	null	null	null	null	null	null	334.0	331.0	337.0	340.0	336.0	339.0	339.0	337.0	339.0	336.0	339.0	
Mon Jun 05 12:16:00 UTC 2017	0.0	1.047281664E9	2803.617919921875	0.0	2.5731072E7	0.0	2.0	9.97548032E8	62.52136993408203	0.0	0.0	1.06133504E9	1.050161152E9	0.0	0.0	0.08675000071525574	0.0507499985396862	0.050999999046325684	0.9922500252723694	0.7688053846359253	0.0	244.0	371.0	0.0	0.0	0.0	0.0	0.0	0.0	null	null	null	null	null	null	null	null	337.0	338.0	334.0	337.0	336.0	334.0	337.0	334.0	337.0	335.0	333.0	
Mon Jun 05 12:15:00 UTC 2017	0.0	1.047281664E9	2803.617919921875	0.0	2.5731072E7	0.0	2.0	9.97638144E8	62.52136993408203	0.0	0.0	1.06133504E9	1.050161152E9	0.0	0.0	0.06650000065565109	0.052000001072883606	0.048500001430511475	0.9925000071525574	0.7687422633171082	0.0	244.0	371.0	0.0	0.0	0.0	0.0	0.0	0.0	null	null	null	null	null	null	null	null	333.0	334.0	339.0	335.0	334.0	335.0	332.0	337.0	339.0	334.0	336.0	
Mon Jun 05 12:14:00 UTC 2017	0.0	1.047281664E9	2803.617919921875	0.0	2.5731072E7	0.0	2.0	9.97548032E8	38.469234466552734	0.0	0.0	1.06133504E9	1.051189248E9	0.0	0.0	0.0729999989271164	0.05324999988079071	0.0442500002682209	0.9925000071525574	0.7687246203422546	0.0	244.0	371.0	0.0	0.0	0.0	0.0	0.0	0.0	null	null	null	null	null	null	null	null	334.0	332.0	332.0	334.0	337.0	335.0	339.0	333.0	337.0	338.0	341.0	
Mon Jun 05 12:13:00 UTC 2017	0.0	1.047281664E9	2439.1005859375	0.0	2.5731072E7	0.0	2.0	9.97548032E8	38.469234466552734	0.0	0.0	1.06133504E9	1.050161152E9	0.0	0.0	0.07975000143051147	0.04574999958276749	0.04924999922513962	0.9925000071525574	0.7709977626800537	0.0	244.0	371.0	0.0	0.0	0.0	0.0	0.0	0.0	null	null	null	null	null	null	null	null	341.0	335.0	337.0	335.0	337.0	336.0	336.0	335.0	337.0	336.0	333.0	
Mon Jun 05 12:12:00 UTC 2017	0.0	1.047281664E9	2439.1005859375	0.0	2.5731072E7	0.0	3.0	9.97548032E8	51.66313171386719	0.0	0.0	1.06133504E9	1.050161152E9	0.0	0.0	0.07275000214576721	0.05874999985098839	0.04699999839067459	0.9922500252723694	0.7709669470787048	0.0	244.0	371.0	0.0	0.0	0.0	0.0	0.0	0.0	null	null	null	null	null	null	null	null	336.0	336.0	337.0	335.0	337.0	334.0	335.0	337.0	332.0	332.0	336.0	
Mon Jun 05 12:11:00 UTC 2017	0.0	1.047281664E9	2851.796875	0.0	2.5731072E7	0.0	6.0	9.97425152E8	52.53105926513672	0.0	0.0	1.06133504E9	1.050161152E9	0.0	null	0.09674999862909317	0.05249999836087227	0.04975000023841858	0.9925000071525574	0.7697668075561523	0.0	244.0	371.0	0.0	0.0	0.0	0.0	0.0	0.0	null	null	null	null	null	null	null	null	334.0	338.0	338.0	336.0	340.0	334.0	337.0	335.0	337.0	337.0	339.0	
Mon Jun 05 12:10:00 UTC 2017	0.0	1.047281664E9	3143.926025390625	0.0	2.5731072E7	0.0	3.0	9.97466112E8	52.53105926513672	0.0	0.0	1.06133504E9	1.051189248E9	0.0	0.0	0.06575000286102295	0.04800000041723251	0.04749999940395355	0.9922500252723694	0.7709336876869202	0.0	244.0	371.0	0.0	0.0	0.0	0.0	0.0	0.0	null	null	null	null	null	null	null	null	337.0	334.0	334.0	336.0	336.0	336.0	335.0	335.0	338.0	336.0	334.0	
Mon Jun 05 12:09:00 UTC 2017	0.0	1.047281664E9	2773.654296875	0.0	2.5731072E7	0.0	2.0	9.97158912E8	52.53105926513672	0.0	0.0	1.06133504E9	1.050161152E9	0.0	0.0	0.07649999856948853	0.04874999821186066	0.048250000923871994	0.9925000071525574	0.7686331272125244	0.0	244.0	371.0	0.0	0.0	0.0	0.0	0.0	0.0	null	null	null	null	null	null	null	null	336.0	339.0	339.0	334.0	335.0	335.0	337.0	333.0	332.0	337.0	335.0	
Mon Jun 05 12:08:00 UTC 2017	0.0	1.047281664E9	2417.03564453125	0.0	2.5731072E7	0.0	2.0	9.97158912E8	52.53105926513672	0.0	0.0	1.06133504E9	1.050161152E9	0.0	null	0.07774999737739563	0.057500001043081284	0.04600000008940697	0.9922500252723694	0.7686160206794739	0.0	244.0	371.0	0.0	0.0	0.0	0.0	0.0	0.0	null	null	null	null	null	null	null	null	335.0	336.0	334.0	337.0	335.0	335.0	332.0	335.0	335.0	336.0	335.0	
Mon Jun 05 12:07:00 UTC 2017	0.0	1.047281664E9	2731.117919921875	0.0	2.5731072E7	0.0	2.0	9.97158912E8	52.53105926513672	0.0	0.0	1.06133504E9	1.051189248E9	0.0	null	0.07100000232458115	0.05350000038743019	0.04724999889731407	0.9919999837875366	0.7686008810997009	0.0	244.0	371.0	0.0	0.0	0.0	0.0	0.0	0.0	null	null	null	null	null	null	null	null	336.0	337.0	335.0	333.0	334.0	336.0	336.0	334.0	337.0	336.0	332.0	
Mon Jun 05 12:06:00 UTC 2017	0.0	1.047281664E9	2731.117919921875	0.0	2.5731072E7	0.0	2.0	9.97036032E8	52.53105926513672	0.0	0.0	1.06133504E9	1.050161152E9	0.0	null	0.07225000113248825	0.04600000008940697	0.051750000566244125	0.9919999837875366	0.7709659934043884	0.0	244.0	371.0	0.0	0.0	0.0	0.0	0.0	0.0	null	null	null	null	null	null	null	null	332.0	338.0	336.0	336.0	339.0	336.0	338.0	335.0	332.0	337.0	337.0	
Mon Jun 05 12:05:00 UTC 2017	0.0	1.047281664E9	2917.764892578125	0.0	2.5731072E7	0.0	4.0	9.97036032E8	59.86289596557617	0.0	0.0	1.06133504E9	1.051189248E9	0.0	null	0.07500000298023224	0.05849999934434891	0.04774999991059303	0.9922500252723694	0.7686590552330017	0.0	244.0	371.0	0.0	0.0	0.0	0.0	0.0	0.0	null	null	null	null	null	null	null	null	339.0	332.0	336.0	335.0	336.0	337.0	335.0	336.0	335.0	332.0	336.0	
Mon Jun 05 12:04:00 UTC 2017	0.0	1.047281664E9	2497.962890625	0.0	2.5731072E7	0.0	4.0	9.9694592E8	59.86289596557617	0.0	0.0	1.06133504E9	1.050161152E9	0.0	null	0.07850000262260437	0.05274999886751175	0.04724999889731407	0.9925000071525574	0.7686361074447632	0.0	244.0	371.0	0.0	0.0	0.0	0.0	0.0	0.0	null	null	null	null	null	null	null	null	334.0	337.0	334.0	335.0	334.0	337.0	337.0	337.0	336.0	337.0	338.0	
Mon Jun 05 12:03:00 UTC 2017	0.0	1.047281664E9	2219.732421875	0.0	2.5731072E7	0.0	2.0	9.9694592E8	59.86289596557617	0.0	0.0	1.06133504E9	1.051189248E9	0.0	null	0.06700000166893005	0.04724999889731407	0.050999999046325684	0.9925000071525574	0.7686346173286438	0.0	244.0	371.0	0.0	0.0	0.0	0.0	0.0	0.0	null	null	null	null	null	null	null	null	336.0	332.0	336.0	337.0	337.0	330.0	338.0	335.0	334.0	337.0	337.0	
Mon Jun 05 12:02:00 UTC 2017	0.0	1.047281664E9	2219.732421875	0.0	2.5731072E7	0.0	2.0	9.9694592E8	59.86289596557617	0.0	0.0	1.06133504E9	1.050161152E9	0.0	null	0.07575000077486038	0.05525000020861626	0.04975000023841858	0.9925000071525574	0.7686175107955933	0.0	244.0	371.0	0.0	0.0	0.0	0.0	0.0	0.0	null	null	null	null	null	null	null	null	337.0	335.0	336.0	337.0	337.0	336.0	336.0	337.0	337.0	335.0	331.0	
Mon Jun 05 12:01:00 UTC 2017	0.0	1.047281664E9	2219.732421875	0.0	2.5731072E7	0.0	3.0	9.96827136E8	59.86289596557617	0.0	0.0	1.06133504E9	1.051189248E9	0.0	null	0.09775000065565109	0.04800000041723251	0.04749999940395355	0.9919999837875366	0.7685969471931458	0.0	244.0	371.0	0.0	0.0	0.0	0.0	0.0	0.0	null	null	null	null	null	null	null	null	333.0	337.0	336.0	333.0	338.0	335.0	333.0	335.0	335.0	334.0	337.0	
Mon Jun 05 12:00:00 UTC 2017	0.0	1.047281664E9	2219.732421875	0.0	2.5731072E7	0.0	3.0	9.96827136E8	50.720367431640625	0.0	0.0	1.06133504E9	1.051189248E9	0.0	null	0.07599999755620956	0.05249999836087227	0.04450000077486038	0.9922500252723694	0.7685983777046204	0.0	244.0	371.0	0.0	0.0	0.0	0.0	0.0	0.0	null	null	null	null	null	null	null	null	334.0	334.0	337.0	336.0	334.0	336.0	341.0	334.0	332.0	338.0	336.0	
Mon Jun 05 11:59:00 UTC 2017	0.0	1.047281664E9	2219.732421875	0.0	2.5731072E7	0.0	2.0	9.96728832E8	44.81126022338867	0.0	0.0	1.06133504E9	1.050161152E9	0.0	0.0	0.07175000011920929	0.05324999988079071	0.04574999958276749	0.9922500252723694	0.7687133550643921	0.0	244.0	371.0	0.0	0.0	0.0	0.0	0.0	0.0	null	null	null	null	null	null	null	null	336.0	334.0	336.0	335.0	335.0	335.0	338.0	339.0	333.0	333.0	332.0	
Mon Jun 05 11:58:00 UTC 2017	0.0	1.047281664E9	2219.732421875	0.0	2.5731072E7	0.0	2.0	9.96728832E8	36.04786682128906	0.0	0.0	1.06133504E9	1.051189248E9	0.0	0.0	0.08275000005960464	0.04899999871850014	0.04975000023841858	0.9922500252723694	0.7685847282409668	0.0	244.0	371.0	0.0	0.0	0.0	0.0	0.0	0.0	null	null	null	null	null	null	null	null	336.0	336.0	333.0	337.0	336.0	336.0	335.0	336.0	339.0	336.0	335.0	
Mon Jun 05 11:57:00 UTC 2017	0.0	1.047281664E9	2219.732421875	0.0	2.5731072E7	0.0	2.0	9.96728832E8	36.04786682128906	0.0	0.0	1.06133504E9	1.050161152E9	0.0	0.0	0.0637499988079071	0.05225000157952309	0.05025000125169754	0.9919999837875366	0.7685666084289551	0.0	244.0	371.0	0.0	0.0	0.0	0.0	0.0	0.0	null	null	null	null	null	null	null	null	337.0	334.0	337.0	336.0	334.0	338.0	336.0	334.0	334.0	337.0	334.0	
Mon Jun 05 11:56:00 UTC 2017	0.0	1.047281664E9	2219.732421875	0.0	2.5731072E7	0.0	5.0	9.9651584E8	36.04786682128906	0.0	0.0	1.06133504E9	1.050161152E9	0.0	0.0	0.07575000077486038	0.04874999821186066	0.050999999046325684	0.9919999837875366	0.7685989141464233	0.0	244.0	371.0	0.0	0.0	0.0	0.0	0.0	0.0	null	null	null	null	null	null	null	null	334.0	338.0	334.0	337.0	335.0	333.0	336.0	336.0	336.0	334.0	335.0	
Mon Jun 05 11:55:00 UTC 2017	0.0	1.047281664E9	2751.1064453125	0.0	2.5731072E7	0.0	2.0	9.96605952E8	58.39479064941406	0.0	0.0	1.06133504E9	1.050161152E9	0.0	0.0	0.08224999904632568	0.05050000175833702	0.04899999871850014	0.9919999837875366	0.768585205078125	0.0	244.0	371.0	0.0	0.0	0.0	0.0	0.0	0.0	null	null	null	null	null	null	null	null	335.0	336.0	340.0	336.0	334.0	339.0	336.0	334.0	333.0	336.0	333.0	
Mon Jun 05 11:54:00 UTC 2017	0.0	1.047281664E9	2751.1064453125	0.0	2.5731072E7	0.0	3.0	9.9651584E8	58.39479064941406	0.0	0.0	1.06133504E9	1.050161152E9	0.0	0.0	0.07500000298023224	0.05674999952316284	0.04625000059604645	0.9919999837875366	0.7685064077377319	0.0	244.0	371.0	0.0	0.0	0.0	0.0	0.0	0.0	null	null	null	null	null	null	null	null	334.0	332.0	333.0	334.0	336.0	336.0	333.0	337.0	335.0	335.0	334.0	
Mon Jun 05 11:53:00 UTC 2017	0.0	1.047281664E9	2701.2451171875	0.0	2.5731072E7	0.0	2.0	9.96696064E8	58.39479064941406	0.0	0.0	1.06133504E9	1.051189248E9	0.0	0.0	0.06350000202655792	0.04749999940395355	0.048250000923871994	0.9919999837875366	0.7685015201568604	0.0	244.0	371.0	0.0	0.0	0.0	0.0	0.0	0.0	null	null	null	null	null	null	null	null	334.0	338.0	336.0	337.0	336.0	338.0	336.0	336.0	335.0	335.0	335.0	
Mon Jun 05 11:52:00 UTC 2017	0.0	1.047281664E9	2177.4560546875	0.0	2.5731072E7	0.0	3.0	9.9651584E8	58.39479064941406	0.0	0.0	1.06133504E9	1.051189248E9	0.0	0.0	0.07625000178813934	0.054999999701976776	0.04699999839067459	0.9922500252723694	0.7684834003448486	0.0	244.0	371.0	0.0	0.0	0.0	0.0	0.0	0.0	null	null	null	null	null	null	null	null	336.0	334.0	337.0	336.0	336.0	336.0	333.0	336.0	335.0	339.0	334.0	
Mon Jun 05 11:51:00 UTC 2017	0.0	1.047281664E9	2795.488525390625	0.0	2.5731072E7	0.0	3.0	9.96298752E8	48.30560302734375	0.0	0.0	1.06133504E9	1.050161152E9	0.0	0.0	0.10649999976158142	0.05025000125169754	0.04650000110268593	0.9925000071525574	0.7699527144432068	0.0	244.0	371.0	0.0	0.0	0.0	0.0	0.0	0.0	null	null	null	null	null	null	null	null	337.0	334.0	338.0	336.0	334.0	335.0	338.0	335.0	335.0	337.0	340.0	
Mon Jun 05 11:50:00 UTC 2017	0.0	1.047281664E9	2497.312744140625	0.0	2.5731072E7	0.0	2.0	9.96388864E8	74.9730224609375	0.0	0.0	1.06133504E9	1.050161152E9	0.0	0.0	0.07400000095367432	0.05225000157952309	0.05299999937415123	0.9922500252723694	0.7706954479217529	0.0	244.0	371.0	0.0	0.0	0.0	0.0	0.0	0.0	null	null	null	null	null	null	null	null	333.0	338.0	334.0	335.0	333.0	334.0	334.0	334.0	336.0	333.0	336.0	
Mon Jun 05 11:49:00 UTC 2017	0.0	1.047281664E9	2497.312744140625	0.0	2.5731072E7	0.0	2.0	9.96298752E8	48.874507904052734	0.0	0.0	1.06133504E9	1.050161152E9	0.0	0.0	0.06724999845027924	0.05225000157952309	0.04574999958276749	0.9917500019073486	0.7683924436569214	0.0	244.0	371.0	0.0	0.0	0.0	0.0	0.0	0.0	null	null	null	null	null	null	null	null	336.0	334.0	333.0	334.0	337.0	337.0	337.0	336.0	340.0	339.0	335.0	
Mon Jun 05 11:48:00 UTC 2017	0.0	1.047281664E9	3074.10498046875	0.0	2.5731072E7	0.0	4.0	9.96298752E8	39.60218811035156	0.0	0.0	1.06133504E9	1.050161152E9	0.0	null	0.07824999839067459	0.04874999821186066	0.051500000059604645	0.9922500252723694	0.768397331237793	0.0	244.0	371.0	0.0	0.0	0.0	0.0	0.0	0.0	null	null	null	null	null	null	null	null	339.0	339.0	341.0	333.0	339.0	334.0	331.0	336.0	333.0	332.0	334.0	
Mon Jun 05 11:47:00 UTC 2017	0.0	1.047281664E9	3074.10498046875	0.0	2.5731072E7	0.0	3.0	9.96298752E8	39.60218811035156	0.0	0.0	1.06133504E9	1.051189248E9	0.0	0.0	0.07774999737739563	0.05649999901652336	0.05000000074505806	0.9922500252723694	0.7706699967384338	0.0	244.0	371.0	0.0	0.0	0.0	0.0	0.0	0.0	null	null	null	null	null	null	null	null	334.0	334.0	337.0	336.0	333.0	338.0	335.0	338.0	336.0	338.0	333.0	
Mon Jun 05 11:46:00 UTC 2017	0.0	1.047281664E9	3074.10498046875	0.0	2.5731072E7	0.0	3.0	9.96089856E8	39.60218811035156	0.0	0.0	1.06133504E9	1.050161152E9	0.0	0.0	0.07249999791383743	0.04899999871850014	0.04500000178813934	0.9925000071525574	0.7683630585670471	0.0	244.0	371.0	0.0	0.0	0.0	0.0	0.0	0.0	null	null	null	null	null	null	null	null	336.0	339.0	336.0	334.0	338.0	334.0	339.0	332.0	335.0	332.0	334.0	
Mon Jun 05 11:45:00 UTC 2017	0.0	1.047281664E9	2607.33056640625	0.0	2.5731072E7	0.0	3.0	9.96175872E8	54.249053955078125	0.0	0.0	1.06133504E9	1.050161152E9	0.0	0.0	0.0794999971985817	0.048250000923871994	0.0507499985396862	0.9922500252723694	0.7683464288711548	0.0	244.0	371.0	0.0	0.0	0.0	0.0	0.0	0.0	null	null	null	null	null	null	null	null	336.0	334.0	337.0	339.0	335.0	338.0	334.0	335.0	331.0	337.0	335.0	
Mon Jun 05 11:44:00 UTC 2017	0.0	1.047281664E9	2607.33056640625	0.0	2.5731072E7	0.0	4.0	9.9608576E8	54.249053955078125	0.0	0.0	1.06133504E9	1.051189248E9	0.0	0.0	0.0729999989271164	0.057999998331069946	0.04899999871850014	0.9922500252723694	0.7683479189872742	0.0	244.0	371.0	0.0	0.0	0.0	0.0	0.0	0.0	null	null	null	null	null	null	null	null	337.0	338.0	333.0	336.0	337.0	339.0	332.0	337.0	336.0	337.0	339.0	
Mon Jun 05 11:43:00 UTC 2017	0.0	1.047281664E9	2748.135498046875	0.0	2.5731072E7	0.0	2.0	9.9608576E8	56.70497512817383	0.0	0.0	1.06133504E9	1.051189248E9	0.0	0.0	0.07450000196695328	0.0494999997317791	0.045249998569488525	0.9922500252723694	0.7684022188186646	0.0	244.0	371.0	0.0	0.0	0.0	0.0	0.0	0.0	null	null	null	null	null	null	null	null	340.0	334.0	336.0	331.0	336.0	334.0	335.0	332.0	337.0	335.0	335.0	
Mon Jun 05 11:42:00 UTC 2017	0.0	1.047281664E9	2748.135498046875	0.0	2.5731072E7	0.0	2.0	9.9608576E8	56.70497512817383	0.0	0.0	1.06133504E9	1.050161152E9	0.0	0.0	0.06925000250339508	0.04625000059604645	0.04675000160932541	0.9922500252723694	0.7688557505607605	0.0	244.0	371.0	0.0	0.0	0.0	0.0	0.0	0.0	null	null	null	null	null	null	null	null	334.0	340.0	337.0	340.0	333.0	336.0	334.0	335.0	330.0	337.0	334.0	
Mon Jun 05 11:41:00 UTC 2017	0.0	1.047281664E9	2908.3505859375	0.0	2.5731072E7	0.0	2.0	9.95876864E8	56.70497512817383	0.0	0.0	1.06133504E9	1.050161152E9	0.0	0.0	0.09749999642372131	0.05274999886751175	0.05225000157952309	0.9925000071525574	0.7698107957839966	0.0	244.0	371.0	0.0	0.0	0.0	0.0	0.0	0.0	null	null	null	null	null	null	null	null	334.0	334.0	338.0	335.0	335.0	338.0	335.0	333.0	335.0	332.0	335.0	
Mon Jun 05 11:40:00 UTC 2017	0.0	1.047281664E9	2733.070556640625	0.0	2.5731072E7	0.0	3.0	9.95966976E8	42.53374099731445	0.0	0.0	1.06133504E9	1.051189248E9	0.0	0.0	0.07249999791383743	0.05400000140070915	0.04625000059604645	0.9922500252723694	0.7696459293365479	0.0	244.0	371.0	0.0	0.0	0.0	0.0	0.0	0.0	null	null	null	null	null	null	null	null	336.0	334.0	335.0	333.0	336.0	334.0	340.0	339.0	336.0	335.0	334.0	
Mon Jun 05 11:39:00 UTC 2017	0.0	1.047281664E9	2733.070556640625	0.0	2.5731072E7	0.0	2.0	9.95876864E8	42.53374099731445	0.0	0.0	1.06133504E9	1.051189248E9	0.0	0.0	0.07824999839067459	0.0442500002682209	0.0494999997317791	0.9922500252723694	0.7683072686195374	0.0	244.0	371.0	0.0	0.0	0.0	0.0	0.0	0.0	null	null	null	null	null	null	null	null	338.0	337.0	337.0	337.0	338.0	335.0	332.0	336.0	332.0	337.0	336.0	
Mon Jun 05 11:38:00 UTC 2017	0.0	1.047281664E9	2372.259033203125	0.0	2.5731072E7	0.0	2.0	9.95876864E8	74.21533966064453	0.0	0.0	1.06133504E9	1.051189248E9	0.0	0.0	0.07500000298023224	0.05324999988079071	0.045249998569488525	0.9922500252723694	0.7683087587356567	0.0	244.0	371.0	0.0	0.0	0.0	0.0	0.0	0.0	null	null	null	null	null	null	null	null	338.0	336.0	337.0	336.0	335.0	332.0	337.0	334.0	337.0	332.0	330.0	
Mon Jun 05 11:37:00 UTC 2017	0.0	1.047281664E9	2372.259033203125	0.0	2.5731072E7	0.0	2.0	9.95876864E8	74.21533966064453	0.0	0.0	1.06133504E9	1.050161152E9	0.0	0.0	0.07699999958276749	0.051750000566244125	0.04724999889731407	0.9922500252723694	0.7682896852493286	0.0	244.0	371.0	0.0	0.0	0.0	0.0	0.0	0.0	null	null	null	null	null	null	null	null	337.0	334.0	336.0	333.0	337.0	337.0	336.0	337.0	331.0	335.0	337.0	
Mon Jun 05 11:36:00 UTC 2017	0.0	1.047281664E9	2372.259033203125	0.0	2.5731072E7	0.0	2.0	9.95753984E8	74.21533966064453	0.0	0.0	1.06133504E9	1.051189248E9	0.0	0.0	0.07450000196695328	0.04899999871850014	0.0494999997317791	0.9922500252723694	0.7695133686065674	0.0	244.0	371.0	0.0	0.0	0.0	0.0	0.0	0.0	null	null	null	null	null	null	null	null	334.0	336.0	335.0	337.0	330.0	333.0	332.0	338.0	337.0	337.0	335.0	
Mon Jun 05 11:35:00 UTC 2017	0.0	1.047281664E9	2372.259033203125	0.0	2.5731072E7	0.0	3.0	9.95753984E8	46.987674713134766	0.0	0.0	1.06133504E9	1.050161152E9	0.0	0.0	0.07100000232458115	0.05525000020861626	0.04349999874830246	0.9917500019073486	0.7682686448097229	0.0	244.0	371.0	0.0	0.0	0.0	0.0	0.0	0.0	null	null	null	null	null	null	null	null	338.0	337.0	336.0	339.0	335.0	331.0	339.0	333.0	335.0	334.0	335.0	
Mon Jun 05 11:34:00 UTC 2017	0.0	1.047281664E9	2617.219970703125	0.0	2.5731072E7	0.0	2.0	9.95663872E8	46.987674713134766	0.0	0.0	1.06133504E9	1.051189248E9	0.0	null	0.07474999874830246	0.0442500002682209	0.050999999046325684	0.9919999837875366	0.7682524919509888	0.0	244.0	371.0	0.0	0.0	0.0	0.0	0.0	0.0	null	null	null	null	null	null	null	null	332.0	336.0	337.0	336.0	335.0	334.0	336.0	335.0	332.0	334.0	331.0	
Mon Jun 05 11:33:00 UTC 2017	0.0	1.047281664E9	2617.219970703125	0.0	2.5731072E7	0.0	3.0	9.95663872E8	39.95166015625	0.0	0.0	1.06133504E9	1.051189248E9	0.0	null	0.07999999821186066	0.054749999195337296	0.04800000041723251	0.9917500019073486	0.7682275176048279	0.0	244.0	371.0	0.0	0.0	0.0	0.0	0.0	0.0	null	null	null	null	null	null	null	null	337.0	335.0	335.0	332.0	336.0	336.0	335.0	335.0	334.0	337.0	338.0	
Mon Jun 05 11:32:00 UTC 2017	0.0	1.047281664E9	2745.39404296875	0.0	2.5731072E7	0.0	3.0	9.95663872E8	39.95166015625	0.0	0.0	1.06133504E9	1.051189248E9	0.0	null	0.061500001698732376	0.051750000566244125	0.04749999940395355	0.9917500019073486	0.7702149748802185	0.0	244.0	371.0	0.0	0.0	0.0	0.0	0.0	0.0	null	null	null	null	null	null	null	null	338.0	336.0	336.0	337.0	334.0	337.0	334.0	335.0	332.0	331.0	334.0	
Mon Jun 05 11:31:00 UTC 2017	0.0	1.047281664E9	2353.88427734375	0.0	2.5731072E7	0.0	2.0	9.9545088E8	55.08359146118164	0.0	0.0	1.06133504E9	1.050161152E9	0.0	null	0.14900000393390656	0.0507499985396862	0.05299999937415123	0.9925000071525574	0.768190860748291	0.0	244.0	371.0	0.0	0.0	0.0	0.0	0.0	0.0	null	null	null	null	null	null	null	null	334.0	337.0	337.0	335.0	338.0	335.0	338.0	337.0	336.0	336.0	336.0	
Mon Jun 05 11:30:00 UTC 2017	0.0	1.047281664E9	3064.962158203125	0.0	2.5731072E7	0.0	2.0	9.95540992E8	44.33089828491211	0.0	0.0	1.06133504E9	1.051189248E9	0.0	null	0.08100000023841858	0.05050000175833702	0.04724999889731407	0.9922500252723694	0.7704390287399292	0.0	244.0	371.0	0.0	0.0	0.0	0.0	0.0	0.0	null	null	null	null	null	null	null	null	335.0	338.0	336.0	335.0	335.0	335.0	335.0	333.0	337.0	339.0	335.0	
Mon Jun 05 11:29:00 UTC 2017	0.0	1.047281664E9	3175.660888671875	0.0	2.5731072E7	0.0	2.0	9.9545088E8	42.39692687988281	0.0	0.0	1.06133504E9	1.050161152E9	0.0	null	0.06975000351667404	0.051500000059604645	0.0430000014603138	0.9922500252723694	0.7681213617324829	0.0	244.0	371.0	0.0	0.0	0.0	0.0	0.0	0.0	null	null	null	null	null	null	null	null	339.0	333.0	339.0	337.0	334.0	337.0	335.0	338.0	336.0	336.0	334.0	
Mon Jun 05 11:28:00 UTC 2017	0.0	1.047281664E9	2519.018798828125	0.0	2.5731072E7	0.0	2.0	9.9545088E8	39.571109771728516	0.0	0.0	1.06133504E9	1.051189248E9	0.0	0.0	0.07400000095367432	0.04749999940395355	0.048250000923871994	0.9925000071525574	0.7686038017272949	0.0	244.0	371.0	0.0	0.0	0.0	0.0	0.0	0.0	null	null	null	null	null	null	null	null	334.0	337.0	334.0	335.0	338.0	337.0	333.0	335.0	337.0	334.0	337.0	
Mon Jun 05 11:27:00 UTC 2017	0.0	1.047281664E9	2519.018798828125	0.0	2.5731072E7	0.0	2.0	9.9545088E8	39.571109771728516	0.0	0.0	1.06133504E9	1.050161152E9	0.0	0.0	0.07724999636411667	0.05050000175833702	0.04899999871850014	0.9922500252723694	0.7680851817131042	0.0	244.0	371.0	0.0	0.0	0.0	0.0	0.0	0.0	null	null	null	null	null	null	null	null	337.0	332.0	338.0	332.0	332.0	334.0	339.0	334.0	335.0	332.0	335.0	
Mon Jun 05 11:26:00 UTC 2017	0.0	1.047281664E9	2584.247802734375	0.0	2.5731072E7	0.0	2.0	9.95241984E8	46.1170539855957	0.0	0.0	1.06133504E9	1.051189248E9	0.0	0.0	0.07625000178813934	0.054999999701976776	0.04899999871850014	0.9922500252723694	0.7680851817131042	0.0	244.0	371.0	0.0	0.0	0.0	0.0	0.0	0.0	null	null	null	null	null	null	null	null	336.0	338.0	333.0	339.0	338.0	333.0	332.0	339.0	337.0	336.0	333.0	
Mon Jun 05 11:25:00 UTC 2017	0.0	1.047281664E9	2584.247802734375	0.0	2.5731072E7	0.0	4.0	9.95332096E8	46.1170539855957	0.0	0.0	1.06133504E9	1.051189248E9	0.0	0.0	0.07925000041723251	0.04899999871850014	0.04800000041723251	0.9922500252723694	0.7680724263191223	0.0	244.0	371.0	0.0	0.0	0.0	0.0	0.0	0.0	null	null	null	null	null	null	null	null	335.0	333.0	339.0	336.0	335.0	335.0	338.0	332.0	333.0	337.0	333.0	
Mon Jun 05 11:24:00 UTC 2017	0.0	1.047281664E9	2898.56982421875	0.0	2.5731072E7	0.0	2.0	9.95241984E8	46.1170539855957	0.0	0.0	1.06133504E9	1.050161152E9	0.0	0.0	0.06875000149011612	0.04874999821186066	0.051249999552965164	0.9922500252723694	0.7702482342720032	0.0	244.0	371.0	0.0	0.0	0.0	0.0	0.0	0.0	null	null	null	null	null	null	null	null	334.0	335.0	335.0	333.0	339.0	337.0	334.0	337.0	337.0	337.0	336.0	
Mon Jun 05 11:23:00 UTC 2017	0.0	1.047281664E9	2898.56982421875	0.0	2.5731072E7	0.0	4.0	9.95241984E8	50.183311462402344	0.0	0.0	1.06133504E9	1.050161152E9	0.0	0.0	0.0729999989271164	0.05525000020861626	0.04650000110268593	0.9919999837875366	0.7680523991584778	0.0	244.0	371.0	0.0	0.0	0.0	0.0	0.0	0.0	null	null	null	null	null	null	null	null	336.0	339.0	335.0	337.0	336.0	335.0	335.0	340.0	339.0	334.0	336.0	
Mon Jun 05 11:22:00 UTC 2017	0.0	1.047281664E9	3481.470703125	0.0	2.5731072E7	0.0	2.0	9.95241984E8	62.92243576049805	0.0	0.0	1.06133504E9	1.050161152E9	0.0	0.0	0.07724999636411667	0.051750000566244125	0.05025000125169754	0.9922500252723694	0.7680367231369019	0.0	244.0	371.0	0.0	0.0	0.0	0.0	0.0	0.0	null	null	null	null	null	null	null	null	338.0	334.0	334.0	334.0	331.0	335.0	335.0	334.0	335.0	337.0	334.0	
Mon Jun 05 11:21:00 UTC 2017	0.0	1.047281664E9	2746.536865234375	0.0	2.5731072E7	0.0	2.0	9.95028992E8	62.92243576049805	0.0	0.0	1.06133504E9	1.051189248E9	0.0	0.0	0.1014999970793724	0.04724999889731407	0.04874999821186066	0.9919999837875366	0.7680655717849731	0.0	244.0	371.0	0.0	0.0	0.0	0.0	0.0	0.0	null	null	null	null	null	null	null	null	337.0	339.0	336.0	338.0	339.0	334.0	338.0	332.0	335.0	332.0	336.0	
Mon Jun 05 11:20:00 UTC 2017	0.0	1.047281664E9	2746.536865234375	0.0	2.5731072E7	0.0	2.0	9.95119104E8	35.5211296081543	0.0	0.0	1.06133504E9	1.050161152E9	0.0	0.0	0.07474999874830246	0.054499998688697815	0.045249998569488525	0.9925000071525574	0.7680469751358032	0.0	244.0	371.0	0.0	0.0	0.0	0.0	0.0	0.0	null	null	null	null	null	null	null	null	335.0	333.0	333.0	335.0	336.0	338.0	334.0	338.0	339.0	336.0	339.0	
Mon Jun 05 11:19:00 UTC 2017	0.0	1.047281664E9	2342.772216796875	0.0	2.5731072E7	0.0	2.0	9.95209216E8	40.29595947265625	0.0	0.0	1.06133504E9	1.050161152E9	0.0	0.0	0.07050000131130219	0.04774999991059303	0.04600000008940697	0.9922500252723694	0.7680479884147644	0.0	244.0	371.0	0.0	0.0	0.0	0.0	0.0	0.0	null	null	null	null	null	null	null	null	337.0	334.0	340.0	337.0	335.0	338.0	337.0	334.0	334.0	339.0	337.0	
Mon Jun 05 11:18:00 UTC 2017	0.0	1.047281664E9	2342.772216796875	0.0	2.5731072E7	0.0	2.0	9.95028992E8	39.61281967163086	0.0	0.0	1.06133504E9	1.050161152E9	0.0	0.0	0.07524999976158142	0.04874999821186066	0.048250000923871994	0.9925000071525574	0.7680283784866333	0.0	244.0	371.0	0.0	0.0	0.0	0.0	0.0	0.0	null	null	null	null	null	null	null	null	337.0	336.0	333.0	333.0	335.0	332.0	337.0	342.0	335.0	335.0	331.0	
Mon Jun 05 11:17:00 UTC 2017	0.0	1.047281664E9	2342.772216796875	0.0	2.5731072E7	0.0	4.0	9.95028992E8	39.61281967163086	0.0	0.0	1.06133504E9	1.050161152E9	0.0	0.0	0.0767500028014183	0.05700000002980232	0.051750000566244125	0.9922500252723694	0.7680112719535828	0.0	244.0	371.0	0.0	0.0	0.0	0.0	0.0	0.0	null	null	null	null	null	null	null	null	333.0	340.0	332.0	340.0	333.0	333.0	336.0	336.0	337.0	332.0	338.0	
Mon Jun 05 11:16:00 UTC 2017	0.0	1.047281664E9	2825.390380859375	0.0	2.5731072E7	0.0	2.0	9.94816E8	39.61281967163086	0.0	0.0	1.06133504E9	1.050161152E9	0.0	0.0	0.07150000333786011	0.04650000110268593	0.04625000059604645	0.9922500252723694	0.7679863572120667	0.0	244.0	371.0	0.0	0.0	0.0	0.0	0.0	0.0	null	null	null	null	null	null	null	null	338.0	334.0	334.0	335.0	338.0	338.0	333.0	334.0	334.0	341.0	334.0	
Mon Jun 05 11:15:00 UTC 2017	0.0	1.047281664E9	3580.572265625	0.0	2.5731072E7	0.0	2.0	9.94906112E8	39.61281967163086	0.0	0.0	1.06133504E9	1.050161152E9	0.0	0.0	0.07349999994039536	0.05400000140070915	0.04724999889731407	0.9919999837875366	0.7686527371406555	0.0	244.0	371.0	0.0	0.0	0.0	0.0	0.0	0.0	null	null	null	null	null	null	null	null	335.0	333.0	338.0	332.0	335.0	335.0	334.0	338.0	337.0	333.0	333.0	
Mon Jun 05 11:14:00 UTC 2017	0.0	1.047281664E9	3580.572265625	0.0	2.5731072E7	0.0	2.0	9.94816E8	49.30174255371094	0.0	0.0	1.06133504E9	1.050161152E9	0.0	0.0	0.07175000011920929	0.051500000059604645	0.05324999988079071	0.9925000071525574	0.7686683535575867	0.0	244.0	371.0	0.0	0.0	0.0	0.0	0.0	0.0	null	null	null	null	null	null	null	null	339.0	337.0	332.0	336.0	333.0	337.0	336.0	334.0	336.0	335.0	338.0	
Mon Jun 05 11:13:00 UTC 2017	0.0	1.047281664E9	3580.572265625	0.0	2.5731072E7	0.0	2.0	9.94816E8	49.30174255371094	1.0	0.0	1.06133504E9	1.051189248E9	0.0	0.0	0.08399999886751175	0.04975000023841858	0.04924999922513962	0.9922500252723694	0.7679868340492249	0.0	244.0	371.0	0.0	0.0	0.0	0.0	0.0	0.0	null	null	null	null	null	null	null	null	336.0	340.0	338.0	336.0	335.0	336.0	337.0	334.0	335.0	335.0	336.0	
Mon Jun 05 11:12:00 UTC 2017	0.0	1.047281664E9	2428.2490234375	0.0	2.5731072E7	0.0	3.0	9.94881536E8	42.58190155029297	0.0	0.0	1.06133504E9	1.051189248E9	0.0	0.0	0.07175000011920929	0.05550000071525574	0.04749999940395355	0.9922500252723694	0.7701190710067749	0.0	244.0	371.0	0.0	0.0	0.0	0.0	0.0	0.0	null	null	null	null	null	null	null	null	334.0	333.0	335.0	335.0	336.0	332.0	335.0	336.0	335.0	335.0	333.0	
Mon Jun 05 11:11:00 UTC 2017	0.0	1.047281664E9	2565.79296875	0.0	2.5731072E7	0.0	2.0	9.9495936E8	34.087257385253906	0.0	0.0	1.06133504E9	1.051189248E9	0.0	0.0	0.08950000256299973	0.051249999552965164	0.04774999991059303	0.9922500252723694	0.7679579257965088	0.0	244.0	371.0	0.0	0.0	0.0	0.0	0.0	0.0	null	null	null	null	null	null	null	null	335.0	335.0	337.0	335.0	335.0	336.0	338.0	335.0	335.0	336.0	337.0	
Mon Jun 05 11:10:00 UTC 2017	0.0	1.047281664E9	2769.933349609375	0.0	2.5731072E7	0.0	7.0	9.9495936E8	34.087257385253906	0.0	0.0	1.06133504E9	1.051189248E9	0.0	0.0	0.07249999791383743	0.045499999076128006	0.0494999997317791	0.9917500019073486	0.7679403424263	0.0	244.0	371.0	0.0	0.0	0.0	0.0	0.0	0.0	null	null	null	null	null	null	null	null	334.0	332.0	335.0	336.0	338.0	338.0	335.0	337.0	338.0	337.0	337.0	
Mon Jun 05 11:09:00 UTC 2017	0.0	1.047281664E9	2766.432373046875	0.0	2.5731072E7	0.0	3.0	9.94664448E8	34.087257385253906	0.0	0.0	1.06133504E9	1.051189248E9	0.0	0.0	0.08049999922513962	0.05000000074505806	0.04724999889731407	0.9919999837875366	0.7693601846694946	0.0	244.0	371.0	0.0	0.0	0.0	0.0	0.0	0.0	null	null	null	null	null	null	null	null	337.0	334.0	336.0	334.0	330.0	334.0	337.0	335.0	335.0	336.0	336.0	
Mon Jun 05 11:08:00 UTC 2017	0.0	1.047281664E9	2565.42626953125	0.0	2.5731072E7	0.0	2.0	9.94664448E8	34.087257385253906	0.0	0.0	1.06133504E9	1.051189248E9	0.0	0.0	0.0689999982714653	0.052000001072883606	0.04600000008940697	0.9922500252723694	0.7678703665733337	0.0	244.0	371.0	0.0	0.0	0.0	0.0	0.0	0.0	null	null	null	null	null	null	null	null	336.0	337.0	337.0	336.0	337.0	335.0	332.0	335.0	334.0	334.0	337.0	
Mon Jun 05 11:07:00 UTC 2017	0.0	1.047281664E9	3234.072265625	0.0	2.5731072E7	0.0	2.0	9.94664448E8	38.59368896484375	0.0	0.0	1.06133504E9	1.051189248E9	0.0	null	0.0742499977350235	0.05274999886751175	0.05225000157952309	0.9922500252723694	0.7678571343421936	0.0	244.0	371.0	0.0	0.0	0.0	0.0	0.0	0.0	null	null	null	null	null	null	null	null	333.0	337.0	331.0	335.0	337.0	333.0	338.0	337.0	336.0	338.0	336.0	
Mon Jun 05 11:06:00 UTC 2017	0.0	1.047281664E9	2568.986328125	0.0	2.5731072E7	0.0	4.0	9.94541568E8	38.59368896484375	0.0	0.0	1.06133504E9	1.050161152E9	0.0	null	0.07774999737739563	0.04800000041723251	0.04475000128149986	0.9925000071525574	0.7678850293159485	0.0	244.0	371.0	0.0	0.0	0.0	0.0	0.0	0.0	null	null	null	null	null	null	null	null	332.0	334.0	337.0	331.0	332.0	337.0	336.0	335.0	336.0	334.0	332.0	
Mon Jun 05 11:05:00 UTC 2017	0.0	1.047281664E9	2714.322021484375	0.0	2.5731072E7	0.0	2.0	9.94541568E8	38.59368896484375	0.0	0.0	1.06133504E9	1.051189248E9	0.0	null	0.0767500028014183	0.05375000089406967	0.051249999552965164	0.9925000071525574	0.7678880095481873	0.0	244.0	371.0	0.0	0.0	0.0	0.0	0.0	0.0	null	null	null	null	null	null	null	null	336.0	338.0	331.0	336.0	335.0	339.0	333.0	338.0	339.0	335.0	336.0	
Mon Jun 05 11:04:00 UTC 2017	0.0	1.047281664E9	2714.322021484375	0.0	2.5731072E7	0.0	2.0	9.94451456E8	50.47880172729492	0.0	0.0	1.06133504E9	1.050161152E9	0.0	null	0.07175000011920929	0.05249999836087227	0.04749999940395355	0.9919999837875366	0.7678718566894531	0.0	244.0	371.0	0.0	0.0	0.0	0.0	0.0	0.0	null	null	null	null	null	null	null	null	336.0	332.0	337.0	334.0	338.0	333.0	337.0	335.0	337.0	336.0	336.0	
Mon Jun 05 11:03:00 UTC 2017	0.0	1.047281664E9	3270.47509765625	0.0	2.5731072E7	0.0	2.0	9.94451456E8	50.47880172729492	0.0	0.0	1.06133504E9	1.051189248E9	0.0	null	0.06624999642372131	0.048500001430511475	0.045249998569488525	0.9922500252723694	0.7701366543769836	0.0	244.0	371.0	0.0	0.0	0.0	0.0	0.0	0.0	null	null	null	null	null	null	null	null	332.0	337.0	335.0	336.0	335.0	339.0	337.0	334.0	336.0	335.0	338.0	
Mon Jun 05 11:02:00 UTC 2017	0.0	1.047281664E9	2396.08203125	0.0	2.5731072E7	0.0	2.0	9.9463168E8	43.95028305053711	0.0	0.0	1.06133504E9	1.051189248E9	0.0	null	0.0832500010728836	0.0507499985396862	0.051750000566244125	0.9922500252723694	0.7678503394126892	0.0	244.0	371.0	0.0	0.0	0.0	0.0	0.0	0.0	null	null	null	null	null	null	null	null	341.0	333.0	335.0	334.0	333.0	335.0	335.0	335.0	333.0	335.0	334.0	
Mon Jun 05 11:01:00 UTC 2017	0.0	1.047281664E9	2396.08203125	0.0	2.5731072E7	0.0	2.0	9.94238464E8	66.98631286621094	0.0	0.0	1.06133504E9	1.050161152E9	0.0	null	0.09324999898672104	0.05050000175833702	0.04749999940395355	0.9922500252723694	0.7678385972976685	0.0	244.0	371.0	0.0	0.0	0.0	0.0	0.0	0.0	null	null	null	null	null	null	null	null	336.0	335.0	334.0	334.0	337.0	336.0	336.0	334.0	337.0	337.0	339.0	
Mon Jun 05 11:00:00 UTC 2017	0.0	1.047281664E9	2361.918701171875	0.0	2.5731072E7	0.0	3.0	9.94328576E8	66.98631286621094	0.0	0.0	1.06133504E9	1.051189248E9	0.0	0.0	0.08399999886751175	0.05525000020861626	0.0507499985396862	0.9922500252723694	0.7678165435791016	0.0	244.0	371.0	0.0	0.0	0.0	0.0	0.0	0.0	null	null	null	null	null	null	null	null	338.0	336.0	336.0	335.0	335.0	334.0	336.0	337.0	335.0	335.0	339.0	
Mon Jun 05 10:59:00 UTC 2017	0.0	1.047281664E9	2361.918701171875	0.0	2.5731072E7	0.0	2.0	9.94238464E8	45.95250701904297	0.0	0.0	1.06133504E9	1.050161152E9	0.0	0.0	0.0742499977350235	0.04749999940395355	0.04800000041723251	0.9922500252723694	0.767796516418457	0.0	244.0	371.0	0.0	0.0	0.0	0.0	0.0	0.0	null	null	null	null	null	null	null	null	336.0	335.0	335.0	336.0	337.0	332.0	337.0	335.0	341.0	336.0	337.0	
Mon Jun 05 10:58:00 UTC 2017	0.0	1.047281664E9	2891.781005859375	0.0	2.5731072E7	0.0	3.0	9.94238464E8	45.95250701904297	0.0	0.0	1.06133504E9	1.051189248E9	0.0	0.0	0.07000000029802322	0.04749999940395355	0.05000000074505806	0.9919999837875366	0.7700368762016296	0.0	244.0	371.0	0.0	0.0	0.0	0.0	0.0	0.0	null	null	null	null	null	null	null	null	336.0	334.0	334.0	333.0	337.0	336.0	335.0	334.0	336.0	337.0	334.0	
Mon Jun 05 10:57:00 UTC 2017	0.0	1.047281664E9	2952.76611328125	0.0	2.5731072E7	0.0	4.0	9.94238464E8	49.72597122192383	0.0	0.0	1.06133504E9	1.051189248E9	0.0	null	0.07000000029802322	0.054249998182058334	0.05874999985098839	0.9919999837875366	0.7692070603370667	0.0	244.0	371.0	0.0	0.0	0.0	0.0	0.0	0.0	null	null	null	null	null	null	null	null	335.0	334.0	336.0	336.0	334.0	337.0	336.0	336.0	334.0	335.0	336.0	
Mon Jun 05 10:56:00 UTC 2017	0.0	1.047281664E9	2952.76611328125	0.0	2.5731072E7	0.0	4.0	9.94025472E8	49.72597122192383	0.0	0.0	1.06133504E9	1.050161152E9	0.0	0.0	0.08299999684095383	0.04874999821186066	0.04574999958276749	0.9919999837875366	0.7677196860313416	0.0	244.0	371.0	0.0	0.0	0.0	0.0	0.0	0.0	null	null	null	null	null	null	null	null	335.0	335.0	333.0	338.0	334.0	333.0	338.0	333.0	337.0	334.0	336.0	
Mon Jun 05 10:55:00 UTC 2017	0.0	1.047281664E9	2952.76611328125	0.0	2.5731072E7	0.0	2.0	9.94115584E8	49.72597122192383	0.0	0.0	1.06133504E9	1.051189248E9	0.0	0.0	0.07774999737739563	0.05050000175833702	0.04699999839067459	0.9917500019073486	0.7692593932151794	0.0	244.0	371.0	0.0	0.0	0.0	0.0	0.0	0.0	null	null	null	null	null	null	null	null	336.0	334.0	335.0	333.0	336.0	334.0	332.0	337.0	335.0	334.0	337.0	
Mon Jun 05 10:54:00 UTC 2017	0.0	1.047281664E9	2952.76611328125	0.0	2.5731072E7	0.0	2.0	9.94025472E8	33.03291320800781	0.0	0.0	1.06133504E9	1.051189248E9	0.0	0.0	0.07199999690055847	0.05324999988079071	0.05274999886751175	0.9919999837875366	0.7677749395370483	0.0	244.0	371.0	0.0	0.0	0.0	0.0	0.0	0.0	null	null	null	null	null	null	null	null	331.0	334.0	336.0	337.0	335.0	337.0	336.0	337.0	334.0	336.0	333.0	
Mon Jun 05 10:53:00 UTC 2017	0.0	1.047281664E9	2500.51416015625	0.0	2.5731072E7	0.0	2.0	9.94025472E8	52.06718063354492	0.0	0.0	1.06133504E9	1.050161152E9	0.0	0.0	0.06875000149011612	0.050999999046325684	0.04600000008940697	0.9919999837875366	0.767699122428894	0.0	244.0	371.0	0.0	0.0	0.0	0.0	0.0	0.0	null	null	null	null	null	null	null	null	337.0	338.0	335.0	340.0	335.0	336.0	339.0	335.0	336.0	336.0	336.0	
Mon Jun 05 10:52:00 UTC 2017	0.0	1.047281664E9	2386.767822265625	0.0	2.5731072E7	0.0	2.0	9.94025472E8	36.345027923583984	0.0	0.0	1.06133504E9	1.050161152E9	0.0	0.0	0.08449999988079071	0.04749999940395355	0.05025000125169754	0.9915000200271606	0.7676947116851807	0.0	244.0	371.0	0.0	0.0	0.0	0.0	0.0	0.0	null	null	null	null	null	null	null	null	332.0	335.0	336.0	332.0	334.0	331.0	332.0	333.0	336.0	334.0	332.0	
Mon Jun 05 10:51:00 UTC 2017	0.0	1.047281664E9	2720.0791015625	0.0	2.5731072E7	0.0	3.0	9.93906688E8	36.345027923583984	0.0	0.0	1.06133504E9	1.050161152E9	0.0	0.0	0.09600000083446503	0.05299999937415123	0.04574999958276749	0.9919999837875366	0.7698993682861328	0.0	244.0	371.0	0.0	0.0	0.0	0.0	0.0	0.0	null	null	null	null	null	null	null	null	336.0	336.0	335.0	341.0	335.0	336.0	337.0	336.0	336.0	330.0	336.0	
Mon Jun 05 10:50:00 UTC 2017	0.0	1.047281664E9	2720.0791015625	0.0	2.5731072E7	0.0	2.0	9.93906688E8	36.345027923583984	0.0	0.0	1.06133504E9	1.050161152E9	0.0	null	0.07150000333786011	0.048250000923871994	0.04600000008940697	0.9922500252723694	0.7698269486427307	0.0	244.0	371.0	0.0	0.0	0.0	0.0	0.0	0.0	null	null	null	null	null	null	null	null	334.0	334.0	339.0	336.0	337.0	336.0	338.0	336.0	333.0	335.0	332.0	
Mon Jun 05 10:49:00 UTC 2017	0.0	1.047281664E9	2720.0791015625	0.0	2.5731072E7	0.0	2.0	9.93816576E8	36.345027923583984	0.0	0.0	1.06133504E9	1.051189248E9	0.0	0.0	0.07050000131130219	0.051500000059604645	0.04724999889731407	0.9919999837875366	0.7676487565040588	0.0	244.0	371.0	0.0	0.0	0.0	0.0	0.0	0.0	null	null	null	null	null	null	null	null	339.0	337.0	334.0	333.0	333.0	336.0	335.0	334.0	337.0	336.0	334.0	
Mon Jun 05 10:48:00 UTC 2017	0.0	1.047281664E9	2720.0791015625	0.0	2.5731072E7	0.0	2.0	9.93816576E8	36.345027923583984	0.0	0.0	1.06133504E9	1.050161152E9	0.0	0.0	0.07524999976158142	0.048500001430511475	0.05050000175833702	0.9922500252723694	0.7676340341567993	0.0	244.0	371.0	0.0	0.0	0.0	0.0	0.0	0.0	null	null	null	null	null	null	null	null	333.0	331.0	337.0	338.0	335.0	337.0	334.0	338.0	335.0	333.0	337.0	
Mon Jun 05 10:47:00 UTC 2017	0.0	1.047281664E9	3238.381103515625	0.0	2.5731072E7	0.0	2.0	9.93816576E8	45.401554107666016	0.0	0.0	1.06133504E9	1.050161152E9	0.0	0.0	0.07724999636411667	0.05350000038743019	0.051750000566244125	0.9919999837875366	0.7676164507865906	0.0	244.0	371.0	0.0	0.0	0.0	0.0	0.0	0.0	null	null	null	null	null	null	null	null	340.0	338.0	332.0	334.0	337.0	334.0	336.0	333.0	339.0	335.0	338.0	
Mon Jun 05 10:46:00 UTC 2017	0.0	1.047281664E9	3238.381103515625	0.0	2.5731072E7	0.0	2.0	9.93603584E8	45.401554107666016	0.0	0.0	1.06133504E9	1.051189248E9	0.0	0.0	0.07800000160932541	0.048500001430511475	0.04574999958276749	0.9922500252723694	0.7688454985618591	0.0	244.0	371.0	0.0	0.0	0.0	0.0	0.0	0.0	null	null	null	null	null	null	null	null	332.0	333.0	337.0	332.0	335.0	339.0	333.0	334.0	333.0	342.0	335.0	
Mon Jun 05 10:45:00 UTC 2017	0.0	1.047281664E9	2614.838623046875	0.0	2.5731072E7	0.0	3.0	9.93693696E8	45.401554107666016	0.0	0.0	1.06133504E9	1.051189248E9	0.0	0.0	0.06525000184774399	0.0507499985396862	0.048500001430511475	0.9925000071525574	0.7698807716369629	0.0	244.0	371.0	0.0	0.0	0.0	0.0	0.0	0.0	null	null	null	null	null	null	null	null	336.0	335.0	336.0	334.0	336.0	337.0	335.0	337.0	333.0	334.0	335.0	
Mon Jun 05 10:44:00 UTC 2017	0.0	1.047281664E9	2662.297607421875	0.0	2.5731072E7	0.0	2.0	9.93603584E8	34.56430435180664	0.0	0.0	1.06133504E9	1.050161152E9	0.0	0.0	0.07500000298023224	0.05375000089406967	0.045499999076128006	0.9922500252723694	0.7698807716369629	0.0	244.0	371.0	0.0	0.0	0.0	0.0	0.0	0.0	null	null	null	null	null	null	null	null	339.0	340.0	337.0	338.0	335.0	335.0	336.0	333.0	336.0	336.0	336.0	
Mon Jun 05 10:43:00 UTC 2017	0.0	1.047281664E9	2662.297607421875	0.0	2.5731072E7	0.0	3.0	9.93603584E8	56.8291130065918	0.0	0.0	1.06133504E9	1.051189248E9	0.0	0.0	0.07874999940395355	0.04800000041723251	0.04874999821186066	0.9925000071525574	0.7675768136978149	0.0	244.0	371.0	0.0	0.0	0.0	0.0	0.0	0.0	null	null	null	null	null	null	null	null	338.0	332.0	331.0	333.0	336.0	339.0	336.0	337.0	335.0	334.0	334.0	
Mon Jun 05 10:42:00 UTC 2017	0.0	1.047281664E9	2211.958251953125	0.0	2.5731072E7	0.0	2.0	9.93603584E8	55.838531494140625	0.0	0.0	1.06133504E9	1.051189248E9	0.0	0.0	0.07625000178813934	0.05649999901652336	0.04924999922513962	0.9922500252723694	0.767561137676239	0.0	244.0	371.0	0.0	0.0	0.0	0.0	0.0	0.0	null	null	null	null	null	null	null	null	331.0	338.0	336.0	337.0	333.0	333.0	336.0	336.0	335.0	335.0	339.0	
Mon Jun 05 10:41:00 UTC 2017	0.0	1.047281664E9	2211.958251953125	0.0	2.5731072E7	0.0	2.0	9.93390592E8	56.151580810546875	0.0	0.0	1.06133504E9	1.051189248E9	0.0	null	0.09099999815225601	0.04699999839067459	0.05225000157952309	0.9919999837875366	0.7677348256111145	0.0	244.0	371.0	0.0	0.0	0.0	0.0	0.0	0.0	null	null	null	null	null	null	null	null	334.0	333.0	337.0	333.0	336.0	337.0	335.0	336.0	336.0	334.0	333.0	
Mon Jun 05 10:40:00 UTC 2017	0.0	1.047281664E9	2211.958251953125	0.0	2.5731072E7	0.0	2.0	9.93480704E8	56.151580810546875	0.0	0.0	1.06133504E9	1.050161152E9	0.0	0.0	0.0767500028014183	0.04924999922513962	0.04874999821186066	0.9922500252723694	0.7675391435623169	0.0	244.0	371.0	0.0	0.0	0.0	0.0	0.0	0.0	null	null	null	null	null	null	null	null	337.0	337.0	337.0	337.0	335.0	337.0	337.0	334.0	335.0	335.0	337.0	
Mon Jun 05 10:39:00 UTC 2017	0.0	1.047281664E9	3284.44677734375	0.0	2.5731072E7	0.0	3.0	9.93390592E8	56.151580810546875	0.0	0.0	1.06133504E9	1.051189248E9	0.0	0.0	0.06875000149011612	0.052000001072883606	0.04625000059604645	0.9917500019073486	0.7675127387046814	0.0	244.0	371.0	0.0	0.0	0.0	0.0	0.0	0.0	null	null	null	null	null	null	null	null	331.0	337.0	337.0	334.0	338.0	333.0	335.0	334.0	333.0	335.0	337.0	
Mon Jun 05 10:38:00 UTC 2017	0.0	1.047281664E9	2925.959228515625	0.0	2.5731072E7	0.0	2.0	9.93390592E8	56.151580810546875	0.0	0.0	1.06133504E9	1.051189248E9	0.0	0.0	0.07999999821186066	0.05025000125169754	0.0507499985396862	0.9915000200271606	0.7674960494041443	0.0	244.0	371.0	0.0	0.0	0.0	0.0	0.0	0.0	null	null	null	null	null	null	null	null	335.0	335.0	332.0	334.0	331.0	337.0	335.0	335.0	335.0	336.0	334.0	
Mon Jun 05 10:37:00 UTC 2017	0.0	1.047281664E9	2925.959228515625	0.0	2.5731072E7	0.0	3.0	9.93390592E8	49.9509391784668	0.0	0.0	1.06133504E9	1.051189248E9	0.0	0.0	0.07575000077486038	0.05274999886751175	0.04675000160932541	0.9919999837875366	0.7675024271011353	0.0	244.0	371.0	0.0	0.0	0.0	0.0	0.0	0.0	null	null	null	null	null	null	null	null	331.0	337.0	335.0	337.0	337.0	337.0	336.0	336.0	337.0	331.0	336.0	
Mon Jun 05 10:36:00 UTC 2017	0.0	1.047281664E9	2925.959228515625	0.0	2.5731072E7	0.0	2.0	9.93247232E8	49.9509391784668	0.0	0.0	1.06133504E9	1.051189248E9	0.0	0.0	0.0689999982714653	0.0494999997317791	0.04874999821186066	0.9919999837875366	0.7681947350502014	0.0	244.0	371.0	0.0	0.0	0.0	0.0	0.0	0.0	null	null	null	null	null	null	null	null	338.0	336.0	336.0	335.0	334.0	334.0	336.0	336.0	336.0	335.0	334.0	
Mon Jun 05 10:35:00 UTC 2017	0.0	1.047281664E9	2925.959228515625	0.0	2.5731072E7	0.0	3.0	9.93271808E8	49.9509391784668	0.0	0.0	1.06133504E9	1.051189248E9	0.0	0.0	0.08174999803304672	0.04724999889731407	0.04800000041723251	0.9919999837875366	0.767479419708252	0.0	244.0	371.0	0.0	0.0	0.0	0.0	0.0	0.0	null	null	null	null	null	null	null	null	334.0	337.0	336.0	338.0	338.0	334.0	336.0	332.0	335.0	337.0	334.0	
Mon Jun 05 10:34:00 UTC 2017	0.0	1.047281664E9	2460.44970703125	0.0	2.5731072E7	0.0	2.0	9.93181696E8	49.9509391784668	0.0	0.0	1.06133504E9	1.050161152E9	0.0	0.0	0.06324999779462814	0.050999999046325684	0.045249998569488525	0.9922500252723694	0.7674848437309265	0.0	244.0	371.0	0.0	0.0	0.0	0.0	0.0	0.0	null	null	null	null	null	null	null	null	337.0	333.0	334.0	332.0	334.0	337.0	337.0	338.0	334.0	335.0	336.0	
Mon Jun 05 10:33:00 UTC 2017	0.0	1.047281664E9	3060.0068359375	0.0	2.5731072E7	0.0	3.0	9.93181696E8	49.9509391784668	1.0	0.0	1.06133504E9	1.050161152E9	0.0	0.0	0.07874999940395355	0.051750000566244125	0.0507499985396862	0.9919999837875366	0.7674686908721924	0.0	244.0	371.0	0.0	0.0	0.0	0.0	0.0	0.0	null	null	null	null	null	null	null	null	333.0	336.0	336.0	337.0	332.0	335.0	336.0	332.0	335.0	338.0	337.0	
Mon Jun 05 10:32:00 UTC 2017	0.0	1.047281664E9	3060.0068359375	0.0	2.5731072E7	0.0	3.0	9.93181696E8	49.9509391784668	0.0	0.0	1.06133504E9	1.050161152E9	0.0	0.0	0.07374999672174454	0.05674999952316284	0.04699999839067459	0.9922500252723694	0.7674530148506165	0.0	244.0	371.0	0.0	0.0	0.0	0.0	0.0	0.0	null	null	null	null	null	null	null	null	334.0	335.0	335.0	336.0	335.0	334.0	335.0	338.0	336.0	336.0	331.0	
Mon Jun 05 10:31:00 UTC 2017	0.0	1.047281664E9	2749.566162109375	0.0	2.5731072E7	0.0	2.0	9.92968704E8	39.93034362792969	0.0	0.0	1.06133504E9	1.050161152E9	0.0	0.0	0.09375	0.04574999958276749	0.04500000178813934	0.9922500252723694	0.7674916982650757	0.0	244.0	371.0	0.0	0.0	0.0	0.0	0.0	0.0	null	null	null	null	null	null	null	null	335.0	336.0	334.0	336.0	335.0	334.0	337.0	338.0	335.0	337.0	335.0	
Mon Jun 05 10:30:00 UTC 2017	0.0	1.047281664E9	2674.187744140625	0.0	2.5731072E7	0.0	2.0	9.93124352E8	39.93034362792969	0.0	1.0	1.06133504E9	1.051189248E9	0.0	0.0	0.07450000196695328	0.05550000071525574	0.05025000125169754	0.9925000071525574	0.7674393057823181	0.0	244.0	371.0	0.0	0.0	0.0	0.0	0.0	0.0	null	null	null	null	null	null	null	null	337.0	340.0	337.0	336.0	336.0	335.0	338.0	336.0	337.0	337.0	333.0	
Mon Jun 05 10:29:00 UTC 2017	0.0	1.047281664E9	2954.13720703125	0.0	2.5731072E7	0.0	4.0	9.92968704E8	39.93034362792969	2.0	1.0	1.06133504E9	1.051189248E9	0.0	0.0	0.08299999684095383	0.061000000685453415	0.04975000023841858	0.9922500252723694	0.7674217224121094	0.0	244.0	371.0	0.0	0.0	0.0	0.0	0.0	0.0	null	null	null	null	null	null	null	null	334.0	334.0	333.0	339.0	334.0	337.0	336.0	333.0	332.0	339.0	336.0	
Mon Jun 05 10:28:00 UTC 2017	0.0	1.047281664E9	2954.13720703125	0.0	2.5731072E7	0.0	5.0	9.92968704E8	48.00913619995117	0.0	0.0	1.06133504E9	1.050161152E9	0.0	0.0	0.06800000369548798	0.05025000125169754	0.04699999839067459	0.9922500252723694	0.76742023229599	0.0	244.0	371.0	0.0	0.0	0.0	0.0	0.0	0.0	null	null	null	null	null	null	null	null	334.0	338.0	337.0	335.0	332.0	336.0	336.0	337.0	337.0	337.0	333.0	
Mon Jun 05 10:27:00 UTC 2017	0.0	1.047281664E9	2684.46337890625	0.0	2.5731072E7	0.0	2.0	9.92968704E8	48.00913619995117	0.0	0.0	1.06133504E9	1.051189248E9	0.0	0.0	0.07249999791383743	0.04574999958276749	0.04899999871850014	0.9925000071525574	0.7674045562744141	0.0	244.0	371.0	0.0	0.0	0.0	0.0	0.0	0.0	null	null	null	null	null	null	null	null	336.0	337.0	336.0	334.0	337.0	337.0	335.0	333.0	336.0	336.0	332.0	
Mon Jun 05 10:26:00 UTC 2017	0.0	1.047281664E9	2684.46337890625	0.0	2.5731072E7	0.0	2.0	9.92845824E8	48.00913619995117	0.0	0.0	1.06133504E9	1.051189248E9	0.0	0.0	0.07999999821186066	0.05225000157952309	0.04749999940395355	0.9925000071525574	0.7672768831253052	0.0	244.0	371.0	0.0	0.0	0.0	0.0	0.0	0.0	null	null	null	null	null	null	null	null	334.0	336.0	333.0	338.0	335.0	337.0	334.0	338.0	337.0	338.0	338.0	
Mon Jun 05 10:25:00 UTC 2017	0.0	1.047281664E9	2684.46337890625	0.0	2.5731072E7	0.0	2.0	9.92845824E8	36.23365783691406	0.0	0.0	1.06133504E9	1.051189248E9	0.0	0.0	0.08025000244379044	0.050999999046325684	0.051750000566244125	0.9922500252723694	0.7672563195228577	0.0	244.0	371.0	0.0	0.0	0.0	0.0	0.0	0.0	null	null	null	null	null	null	null	null	335.0	335.0	338.0	338.0	336.0	336.0	338.0	333.0	335.0	334.0	333.0	
Mon Jun 05 10:24:00 UTC 2017	0.0	1.047281664E9	2684.46337890625	0.0	2.5731072E7	0.0	3.0	9.92755712E8	36.23365783691406	0.0	0.0	1.06133504E9	1.050161152E9	0.0	0.0	0.06724999845027924	0.05274999886751175	0.048250000923871994	0.9922500252723694	0.7672719955444336	0.0	244.0	371.0	0.0	0.0	0.0	0.0	0.0	0.0	null	null	null	null	null	null	null	null	336.0	336.0	336.0	334.0	333.0	335.0	338.0	336.0	337.0	333.0	340.0	
Mon Jun 05 10:23:00 UTC 2017	0.0	1.047281664E9	2601.39208984375	0.0	2.5731072E7	0.0	2.0	9.92755712E8	36.23365783691406	0.0	0.0	1.06133504E9	1.050161152E9	0.0	0.0	0.0794999971985817	0.048250000923871994	0.042750000953674316	0.9922500252723694	0.7672543525695801	0.0	244.0	371.0	0.0	0.0	0.0	0.0	0.0	0.0	null	null	null	null	null	null	null	null	334.0	334.0	335.0	338.0	338.0	336.0	333.0	339.0	334.0	336.0	333.0	
Mon Jun 05 10:22:00 UTC 2017	0.0	1.047281664E9	2956.45849609375	0.0	2.5731072E7	0.0	3.0	9.92755712E8	36.23365783691406	0.0	0.0	1.06133504E9	1.050161152E9	0.0	0.0	0.07800000160932541	0.04800000041723251	0.05000000074505806	0.9922500252723694	0.7695373296737671	0.0	244.0	371.0	0.0	0.0	0.0	0.0	0.0	0.0	null	null	null	null	null	null	null	null	338.0	339.0	339.0	335.0	333.0	335.0	334.0	333.0	337.0	338.0	334.0	
Mon Jun 05 10:21:00 UTC 2017	0.0	1.047281664E9	2956.45849609375	0.0	2.5731072E7	0.0	2.0	9.92722944E8	36.32929992675781	0.0	0.0	1.06133504E9	1.050161152E9	0.0	0.0	0.09200000017881393	0.05249999836087227	0.04800000041723251	0.9919999837875366	0.767861545085907	0.0	244.0	371.0	0.0	0.0	0.0	0.0	0.0	0.0	null	null	null	null	null	null	null	null	335.0	336.0	333.0	336.0	338.0	332.0	336.0	334.0	334.0	335.0	337.0	
Mon Jun 05 10:20:00 UTC 2017	0.0	1.047281664E9	2648.71875	0.0	2.5731072E7	0.0	2.0	9.92632832E8	76.64732360839844	0.0	0.0	1.06133504E9	1.050161152E9	0.0	0.0	0.0794999971985817	0.0560000017285347	0.0494999997317791	0.9922500252723694	0.7694795727729797	0.0	244.0	371.0	0.0	0.0	0.0	0.0	0.0	0.0	null	null	null	null	null	null	null	null	336.0	332.0	341.0	339.0	333.0	333.0	339.0	339.0	334.0	335.0	332.0	
Mon Jun 05 10:19:00 UTC 2017	0.0	1.047281664E9	2410.10107421875	0.0	2.5731072E7	0.0	2.0	9.9254272E8	42.22850036621094	0.0	0.0	1.06133504E9	1.050161152E9	0.0	0.0	0.07175000011920929	0.04899999871850014	0.04374999925494194	0.9919999837875366	0.7672925591468811	0.0	244.0	371.0	0.0	0.0	0.0	0.0	0.0	0.0	null	null	null	null	null	null	null	null	334.0	336.0	332.0	337.0	336.0	337.0	332.0	334.0	340.0	333.0	334.0	
Mon Jun 05 10:18:00 UTC 2017	0.0	1.047281664E9	2725.788818359375	0.0	2.5731072E7	0.0	2.0	9.9254272E8	42.22850036621094	0.0	0.0	1.06133504E9	1.050161152E9	0.0	0.0	0.0689999982714653	0.05299999937415123	0.052000001072883606	0.9919999837875366	0.769561767578125	0.0	244.0	371.0	0.0	0.0	0.0	0.0	0.0	0.0	null	null	null	null	null	null	null	null	336.0	340.0	337.0	335.0	335.0	337.0	337.0	336.0	334.0	337.0	339.0	
Mon Jun 05 10:17:00 UTC 2017	0.0	1.047281664E9	2725.788818359375	0.0	2.5731072E7	0.0	3.0	9.92722944E8	57.010135650634766	1.0	1.0	1.06133504E9	1.051189248E9	0.0	0.0	0.07074999809265137	0.05274999886751175	0.04675000160932541	0.9922500252723694	0.7672582864761353	0.0	244.0	371.0	0.0	0.0	0.0	0.0	0.0	0.0	null	null	null	null	null	null	null	null	337.0	332.0	333.0	333.0	332.0	336.0	334.0	335.0	335.0	332.0	335.0	
Mon Jun 05 10:16:00 UTC 2017	0.0	1.047281664E9	2725.788818359375	0.0	2.5731072E7	0.0	2.0	9.92329728E8	57.010135650634766	0.0	1.0	1.06133504E9	1.050161152E9	0.0	0.0	0.07524999976158142	0.04749999940395355	0.04975000023841858	0.9919999837875366	0.7672567963600159	0.0	244.0	371.0	0.0	0.0	0.0	0.0	0.0	0.0	null	null	null	null	null	null	null	null	333.0	335.0	336.0	335.0	335.0	334.0	338.0	337.0	336.0	334.0	329.0	
Mon Jun 05 10:15:00 UTC 2017	0.0	1.047281664E9	2725.788818359375	0.0	2.5731072E7	0.0	5.0	9.92600064E8	48.297889709472656	0.0	0.0	1.06133504E9	1.050161152E9	0.0	0.0	0.08150000125169754	0.05025000125169754	0.04475000128149986	0.9922500252723694	0.7671330571174622	0.0	244.0	371.0	0.0	0.0	0.0	0.0	0.0	0.0	null	null	null	null	null	null	null	null	338.0	338.0	335.0	336.0	339.0	334.0	332.0	337.0	334.0	338.0	335.0	
Mon Jun 05 10:14:00 UTC 2017	0.0	1.047281664E9	2725.788818359375	0.0	2.5731072E7	0.0	5.0	9.92329728E8	48.297889709472656	0.0	0.0	1.06133504E9	1.050161152E9	0.0	0.0	0.06825000047683716	0.05375000089406967	0.05274999886751175	0.9919999837875366	0.7671183347702026	0.0	244.0	371.0	0.0	0.0	0.0	0.0	0.0	0.0	null	null	null	null	null	null	null	null	335.0	335.0	335.0	336.0	332.0	336.0	336.0	335.0	337.0	335.0	337.0	
Mon Jun 05 10:13:00 UTC 2017	0.0	1.047281664E9	2750.510986328125	0.0	2.5731072E7	0.0	3.0	9.92329728E8	48.297889709472656	0.0	0.0	1.06133504E9	1.051189248E9	0.0	0.0	0.07750000059604645	0.04675000160932541	0.05025000125169754	0.9919999837875366	0.7671022415161133	0.0	244.0	371.0	0.0	0.0	0.0	0.0	0.0	0.0	null	null	null	null	null	null	null	null	335.0	334.0	336.0	332.0	337.0	340.0	337.0	338.0	337.0	331.0	334.0	
Mon Jun 05 10:12:00 UTC 2017	0.0	1.047281664E9	2849.135986328125	0.0	2.5731072E7	0.0	3.0	9.92329728E8	41.13612365722656	0.0	0.0	1.06133504E9	1.051189248E9	0.0	0.0	0.0729999989271164	0.05000000074505806	0.04625000059604645	0.9922500252723694	0.7670748233795166	0.0	244.0	371.0	0.0	0.0	0.0	0.0	0.0	0.0	null	null	null	null	null	null	null	null	336.0	335.0	338.0	336.0	334.0	336.0	334.0	335.0	338.0	337.0	335.0	
Mon Jun 05 10:11:00 UTC 2017	0.0	1.047281664E9	2548.93896484375	0.0	2.5731072E7	0.0	2.0	9.92116736E8	48.329185485839844	0.0	0.0	1.06133504E9	1.051189248E9	0.0	0.0	0.10949999839067459	0.05525000020861626	0.045499999076128006	0.9925000071525574	0.7693464756011963	0.0	244.0	371.0	0.0	0.0	0.0	0.0	0.0	0.0	null	null	null	null	null	null	null	null	338.0	333.0	337.0	334.0	335.0	331.0	334.0	335.0	334.0	334.0	336.0	
Mon Jun 05 10:10:00 UTC 2017	0.0	1.047281664E9	2630.68408203125	0.0	2.5731072E7	0.0	4.0	9.92534528E8	59.62799072265625	0.0	0.0	1.06133504E9	1.051189248E9	0.0	0.0	0.06700000166893005	0.045499999076128006	0.05000000074505806	0.9922500252723694	0.7670567035675049	0.0	244.0	371.0	0.0	0.0	0.0	0.0	0.0	0.0	null	null	null	null	null	null	null	null	337.0	337.0	331.0	338.0	336.0	337.0	335.0	336.0	336.0	337.0	336.0	
Mon Jun 05 10:09:00 UTC 2017	0.0	1.047281664E9	2630.68408203125	0.0	2.5731072E7	0.0	3.0	9.92108544E8	45.867366790771484	0.0	0.0	1.06133504E9	1.050161152E9	0.0	0.0	0.0860000029206276	0.052000001072883606	0.051249999552965164	0.9925000071525574	0.7670391201972961	0.0	244.0	371.0	0.0	0.0	0.0	0.0	0.0	0.0	null	null	null	null	null	null	null	null	336.0	334.0	336.0	332.0	337.0	335.0	335.0	336.0	336.0	331.0	333.0	
Mon Jun 05 10:08:00 UTC 2017	0.0	1.047281664E9	2423.9658203125	0.0	2.5731072E7	0.0	3.0	9.92108544E8	40.13660430908203	0.0	0.0	1.06133504E9	1.050161152E9	0.0	0.0	0.0625	0.048500001430511475	0.04749999940395355	0.9922500252723694	0.7670205235481262	0.0	244.0	371.0	0.0	0.0	0.0	0.0	0.0	0.0	null	null	null	null	null	null	null	null	333.0	333.0	338.0	334.0	336.0	335.0	337.0	338.0	338.0	334.0	337.0	
Mon Jun 05 10:07:00 UTC 2017	0.0	1.047281664E9	3120.994873046875	0.0	2.5731072E7	0.0	2.0	9.92108544E8	53.45289611816406	0.0	0.0	1.06133504E9	1.051189248E9	0.0	0.0	0.08449999988079071	0.05925000086426735	0.04600000008940697	0.9919999837875366	0.7670102119445801	0.0	244.0	371.0	0.0	0.0	0.0	0.0	0.0	0.0	null	null	null	null	null	null	null	null	336.0	336.0	336.0	334.0	335.0	337.0	337.0	336.0	336.0	337.0	332.0	
Mon Jun 05 10:06:00 UTC 2017	0.0	1.047281664E9	3120.994873046875	0.0	2.5731072E7	0.0	4.0	9.91895552E8	52.794410705566406	0.0	0.0	1.06133504E9	1.050161152E9	0.0	0.0	0.06800000369548798	0.04774999991059303	0.05299999937415123	0.9922500252723694	0.767016589641571	0.0	244.0	371.0	0.0	0.0	0.0	0.0	0.0	0.0	null	null	null	null	null	null	null	null	335.0	337.0	338.0	338.0	335.0	336.0	333.0	336.0	335.0	334.0	336.0	
Mon Jun 05 10:05:00 UTC 2017	0.0	1.047281664E9	2797.045654296875	0.0	2.5731072E7	0.0	4.0	9.91985664E8	52.77335739135742	0.0	0.0	1.06133504E9	1.050161152E9	0.0	0.0	0.07999999821186066	0.0507499985396862	0.045249998569488525	0.9922500252723694	0.7669984698295593	0.0	244.0	371.0	0.0	0.0	0.0	0.0	0.0	0.0	null	null	null	null	null	null	null	null	337.0	336.0	332.0	337.0	336.0	337.0	337.0	336.0	336.0	335.0	335.0	
Mon Jun 05 10:04:00 UTC 2017	0.0	1.047281664E9	2797.045654296875	0.0	2.5731072E7	0.0	4.0	9.91895552E8	52.77335739135742	0.0	0.0	1.06133504E9	1.050161152E9	0.0	0.0	0.07699999958276749	0.045249998569488525	0.05000000074505806	0.9922500252723694	0.7670205235481262	0.0	244.0	371.0	0.0	0.0	0.0	0.0	0.0	0.0	null	null	null	null	null	null	null	null	336.0	332.0	338.0	335.0	334.0	336.0	337.0	336.0	333.0	338.0	339.0	
Mon Jun 05 10:03:00 UTC 2017	0.0	1.047281664E9	2797.045654296875	0.0	2.5731072E7	0.0	5.0	9.91895552E8	52.77335739135742	0.0	0.0	1.06133504E9	1.051189248E9	0.0	0.0	0.07150000333786011	0.05925000086426735	0.04800000041723251	0.9922500252723694	0.768432080745697	0.0	244.0	371.0	0.0	0.0	0.0	0.0	0.0	0.0	null	null	null	null	null	null	null	null	335.0	334.0	333.0	331.0	334.0	337.0	333.0	337.0	338.0	333.0	334.0	
Mon Jun 05 10:02:00 UTC 2017	0.0	1.047281664E9	2797.045654296875	0.0	2.5731072E7	0.0	3.0	9.91961088E8	52.77335739135742	0.0	0.0	1.06133504E9	1.051189248E9	0.0	0.0	0.07100000232458115	0.04800000041723251	0.048500001430511475	0.9919999837875366	0.7669554352760315	0.0	244.0	371.0	0.0	0.0	0.0	0.0	0.0	0.0	null	null	null	null	null	null	null	null	337.0	335.0	341.0	337.0	334.0	336.0	333.0	336.0	334.0	332.0	333.0	
Mon Jun 05 10:01:00 UTC 2017	0.0	1.047281664E9	2797.045654296875	0.0	2.5731072E7	0.0	3.0	9.9168256E8	52.77335739135742	0.0	0.0	1.06133504E9	1.051189248E9	0.0	0.0	0.10824999958276749	0.05375000089406967	0.04699999839067459	0.9922500252723694	0.7669417262077332	0.0	244.0	371.0	0.0	0.0	0.0	0.0	0.0	0.0	null	null	null	null	null	null	null	null	334.0	335.0	334.0	336.0	337.0	338.0	336.0	337.0	335.0	337.0	338.0	
Mon Jun 05 10:00:00 UTC 2017	0.0	1.047281664E9	2797.045654296875	0.0	2.5731072E7	0.0	2.0	9.91772672E8	75.94056701660156	0.0	0.0	1.06133504E9	1.051189248E9	0.0	0.0	0.07275000214576721	0.050999999046325684	0.05000000074505806	0.9922500252723694	0.7668443918228149	0.0	244.0	371.0	0.0	0.0	0.0	0.0	0.0	0.0	null	null	null	null	null	null	null	null	337.0	338.0	335.0	338.0	334.0	333.0	337.0	337.0	336.0	337.0	335.0	
Mon Jun 05 09:59:00 UTC 2017	0.0	1.047281664E9	2294.734130859375	0.0	2.5731072E7	0.0	2.0	9.9168256E8	53.68207550048828	0.0	0.0	1.06133504E9	1.050161152E9	0.0	0.0	0.08250000327825546	0.04699999839067459	0.048250000923871994	0.9925000071525574	0.7668302059173584	0.0	244.0	371.0	0.0	0.0	0.0	0.0	0.0	0.0	null	null	null	null	null	null	null	null	335.0	337.0	336.0	337.0	336.0	335.0	334.0	332.0	334.0	338.0	336.0	
Mon Jun 05 09:58:00 UTC 2017	0.0	1.047281664E9	2453.498779296875	0.0	2.5731072E7	0.0	3.0	9.9168256E8	53.68207550048828	0.0	0.0	1.06133504E9	1.050161152E9	0.0	0.0	0.06674999743700027	0.05375000089406967	0.04774999991059303	0.9925000071525574	0.7690950036048889	0.0	244.0	371.0	0.0	0.0	0.0	0.0	0.0	0.0	null	null	null	null	null	null	null	null	334.0	337.0	333.0	338.0	336.0	332.0	339.0	336.0	335.0	337.0	335.0	
Mon Jun 05 09:57:00 UTC 2017	0.0	1.047281664E9	2941.652099609375	0.0	2.5731072E7	0.0	2.0	9.9168256E8	53.68207550048828	0.0	0.0	1.06133504E9	1.050161152E9	0.0	null	0.08550000190734863	0.045499999076128006	0.04749999940395355	0.9922500252723694	0.7668067216873169	0.0	244.0	371.0	0.0	0.0	0.0	0.0	0.0	0.0	null	null	null	null	null	null	null	null	334.0	338.0	336.0	334.0	333.0	333.0	335.0	335.0	332.0	339.0	334.0	
Mon Jun 05 09:56:00 UTC 2017	0.0	1.047281664E9	3253.228515625	0.0	2.5731072E7	0.0	2.0	9.91473664E8	53.68207550048828	0.0	0.0	1.06133504E9	1.051189248E9	0.0	null	0.06800000369548798	0.05025000125169754	0.04650000110268593	0.9919999837875366	0.7668624520301819	0.0	244.0	371.0	0.0	0.0	0.0	0.0	0.0	0.0	null	null	null	null	null	null	null	null	336.0	333.0	334.0	334.0	335.0	334.0	333.0	339.0	337.0	335.0	335.0	
Mon Jun 05 09:55:00 UTC 2017	0.0	1.047281664E9	3253.228515625	0.0	2.5731072E7	0.0	4.0	9.91563776E8	38.32583999633789	3.0	2.0	1.06133504E9	1.050161152E9	0.0	null	0.07575000077486038	0.06174999848008156	0.04899999871850014	0.9919999837875366	0.7668443918228149	0.0	244.0	371.0	0.0	0.0	0.0	0.0	0.0	0.0	null	null	null	null	null	null	null	null	337.0	335.0	335.0	336.0	338.0	340.0	335.0	335.0	334.0	336.0	332.0	
Mon Jun 05 09:54:00 UTC 2017	0.0	1.047281664E9	3253.228515625	0.0	2.5731072E7	0.0	2.0	9.91473664E8	56.388465881347656	0.0	0.0	1.06133504E9	1.051189248E9	0.0	0.0	0.07000000029802322	0.04475000128149986	0.05299999937415123	0.9919999837875366	0.7668414115905762	0.0	244.0	371.0	0.0	0.0	0.0	0.0	0.0	0.0	null	null	null	null	null	null	null	null	336.0	335.0	334.0	339.0	336.0	336.0	338.0	337.0	332.0	334.0	339.0	
Mon Jun 05 09:53:00 UTC 2017	0.0	1.047281664E9	2396.115234375	0.0	2.5731072E7	0.0	2.0	9.91473664E8	34.37947463989258	0.0	0.0	1.06133504E9	1.050161152E9	0.0	null	0.08275000005960464	0.05249999836087227	0.04574999958276749	0.9919999837875366	0.7668012976646423	0.0	244.0	371.0	0.0	0.0	0.0	0.0	0.0	0.0	null	null	null	null	null	null	null	null	332.0	338.0	335.0	333.0	333.0	335.0	337.0	335.0	339.0	339.0	336.0	
Mon Jun 05 09:52:00 UTC 2017	0.0	1.047281664E9	3399.802978515625	0.0	2.5731072E7	0.0	2.0	9.91473664E8	61.064327239990234	0.0	0.0	1.06133504E9	1.050161152E9	0.0	null	0.06925000250339508	0.05350000038743019	0.04800000041723251	0.9922500252723694	0.7674212455749512	0.0	244.0	371.0	0.0	0.0	0.0	0.0	0.0	0.0	null	null	null	null	null	null	null	null	334.0	336.0	335.0	340.0	338.0	334.0	335.0	333.0	333.0	333.0	334.0	
Mon Jun 05 09:51:00 UTC 2017	0.0	1.047281664E9	3399.802978515625	0.0	2.5731072E7	0.0	2.0	9.91326208E8	50.65653610229492	0.0	0.0	1.06133504E9	1.050161152E9	0.0	null	0.09324999898672104	0.05375000089406967	0.04675000160932541	0.9917500019073486	0.7690524458885193	0.0	244.0	371.0	0.0	0.0	0.0	0.0	0.0	0.0	null	null	null	null	null	null	null	null	337.0	333.0	332.0	335.0	334.0	333.0	332.0	337.0	335.0	343.0	336.0	
Mon Jun 05 09:50:00 UTC 2017	0.0	1.047281664E9	2761.873779296875	0.0	2.5731072E7	0.0	2.0	9.91350784E8	50.65653610229492	1.0	1.0	1.06133504E9	1.050161152E9	0.0	null	0.0754999965429306	0.05350000038743019	0.04874999821186066	0.9919999837875366	0.7667631506919861	0.0	244.0	371.0	0.0	0.0	0.0	0.0	0.0	0.0	null	null	null	null	null	null	null	null	333.0	336.0	335.0	335.0	337.0	335.0	336.0	333.0	335.0	336.0	336.0	
Mon Jun 05 09:49:00 UTC 2017	0.0	1.047281664E9	2761.873779296875	0.0	2.5731072E7	0.0	3.0	9.91260672E8	52.54826736450195	0.0	0.0	1.06133504E9	1.051189248E9	0.0	null	0.08150000125169754	0.05350000038743019	0.05050000175833702	0.9922500252723694	0.766744077205658	0.0	244.0	371.0	0.0	0.0	0.0	0.0	0.0	0.0	null	null	null	null	null	null	null	null	336.0	336.0	336.0	333.0	334.0	332.0	334.0	338.0	339.0	333.0	336.0	
Mon Jun 05 09:48:00 UTC 2017	0.0	1.047281664E9	2441.823486328125	0.0	2.5731072E7	0.0	2.0	9.91260672E8	52.54826736450195	0.0	0.0	1.06133504E9	1.050161152E9	0.0	null	0.0677499994635582	0.051500000059604645	0.04699999839067459	0.9922500252723694	0.7690299153327942	0.0	244.0	371.0	0.0	0.0	0.0	0.0	0.0	0.0	null	null	null	null	null	null	null	null	334.0	335.0	334.0	337.0	335.0	336.0	339.0	331.0	335.0	337.0	338.0	
Mon Jun 05 09:47:00 UTC 2017	0.0	1.047281664E9	3051.50390625	0.0	2.5731072E7	0.0	3.0	9.91260672E8	45.5823860168457	0.0	0.0	1.06133504E9	1.051189248E9	0.0	null	0.07500000298023224	0.041999999433755875	0.04774999991059303	0.9922500252723694	0.7689990997314453	0.0	244.0	371.0	0.0	0.0	0.0	0.0	0.0	0.0	null	null	null	null	null	null	null	null	337.0	335.0	336.0	336.0	337.0	334.0	329.0	336.0	333.0	336.0	330.0	
Mon Jun 05 09:46:00 UTC 2017	0.0	1.047281664E9	3051.50390625	0.0	2.5731072E7	0.0	2.0	9.9104768E8	61.017826080322266	0.0	0.0	1.06133504E9	1.050161152E9	0.0	null	0.07874999940395355	0.051750000566244125	0.04650000110268593	0.9919999837875366	0.7666922211647034	0.0	244.0	371.0	0.0	0.0	0.0	0.0	0.0	0.0	null	null	null	null	null	null	null	null	329.0	335.0	335.0	336.0	334.0	337.0	338.0	339.0	336.0	338.0	334.0	
Mon Jun 05 09:45:00 UTC 2017	0.0	1.047281664E9	2676.328369140625	0.0	2.5731072E7	0.0	2.0	9.91137792E8	39.24672317504883	0.0	0.0	1.06133504E9	1.051189248E9	0.0	0.0	0.07000000029802322	0.0560000017285347	0.04975000023841858	0.9919999837875366	0.7679926753044128	0.0	244.0	371.0	0.0	0.0	0.0	0.0	0.0	0.0	null	null	null	null	null	null	null	null	339.0	338.0	336.0	337.0	337.0	334.0	334.0	334.0	336.0	336.0	336.0	
Mon Jun 05 09:44:00 UTC 2017	0.0	1.047281664E9	2467.365966796875	0.0	2.5731072E7	0.0	3.0	9.9104768E8	39.24672317504883	0.0	0.0	1.06133504E9	1.050161152E9	0.0	0.0	0.08425000309944153	0.045499999076128006	0.045499999076128006	0.9922500252723694	0.7685338258743286	0.0	244.0	371.0	0.0	0.0	0.0	0.0	0.0	0.0	null	null	null	null	null	null	null	null	335.0	334.0	336.0	330.0	332.0	337.0	337.0	333.0	333.0	336.0	337.0	
Mon Jun 05 09:43:00 UTC 2017	0.0	1.047281664E9	2249.044677734375	0.0	2.5731072E7	0.0	2.0	9.9104768E8	39.24672317504883	0.0	0.0	1.06133504E9	1.051189248E9	0.0	null	0.06849999725818634	0.054249998182058334	0.0507499985396862	0.9922500252723694	0.766693651676178	0.0	244.0	371.0	0.0	0.0	0.0	0.0	0.0	0.0	null	null	null	null	null	null	null	null	330.0	335.0	334.0	338.0	336.0	336.0	336.0	334.0	337.0	334.0	337.0	
Mon Jun 05 09:42:00 UTC 2017	0.0	1.047281664E9	2249.044677734375	0.0	2.5731072E7	0.0	2.0	9.9104768E8	39.24672317504883	0.0	0.0	1.06133504E9	1.051189248E9	0.0	null	0.07074999809265137	0.04899999871850014	0.0494999997317791	0.9922500252723694	0.7666559815406799	0.0	244.0	371.0	0.0	0.0	0.0	0.0	0.0	0.0	null	null	null	null	null	null	null	null	333.0	339.0	335.0	331.0	338.0	331.0	332.0	335.0	336.0	333.0	336.0	
Mon Jun 05 09:41:00 UTC 2017	0.0	1.047281664E9	2249.044677734375	0.0	2.5731072E7	0.0	2.0	9.90928896E8	42.320098876953125	0.0	0.0	1.06133504E9	1.050161152E9	0.0	0.0	0.10125000029802322	0.05000000074505806	0.04374999925494194	0.9922500252723694	0.7666486501693726	0.0	244.0	371.0	0.0	0.0	0.0	0.0	0.0	0.0	null	null	null	null	null	null	null	null	336.0	335.0	337.0	336.0	334.0	335.0	336.0	335.0	333.0	336.0	340.0	
Mon Jun 05 09:40:00 UTC 2017	0.0	1.047281664E9	2249.044677734375	0.0	2.5731072E7	0.0	4.0	9.90928896E8	42.320098876953125	0.0	0.0	1.06133504E9	1.051189248E9	0.0	0.0	0.08399999886751175	0.04650000110268593	0.04874999821186066	0.9922500252723694	0.7666530609130859	0.0	244.0	371.0	0.0	0.0	0.0	0.0	0.0	0.0	null	null	null	null	null	null	null	null	336.0	333.0	335.0	336.0	338.0	336.0	336.0	336.0	338.0	334.0	335.0	
Mon Jun 05 09:39:00 UTC 2017	0.0	1.047281664E9	2249.044677734375	0.0	2.5731072E7	0.0	2.0	9.90838784E8	42.320098876953125	0.0	0.0	1.06133504E9	1.051189248E9	0.0	0.0	0.06975000351667404	0.057500001043081284	0.050999999046325684	0.9919999837875366	0.7666603922843933	0.0	244.0	371.0	0.0	0.0	0.0	0.0	0.0	0.0	null	null	null	null	null	null	null	null	338.0	334.0	339.0	334.0	336.0	334.0	330.0	337.0	337.0	333.0	336.0	
Mon Jun 05 09:38:00 UTC 2017	0.0	1.047281664E9	3176.17626953125	0.0	2.5731072E7	0.0	2.0	9.90838784E8	42.320098876953125	0.0	0.0	1.06133504E9	1.051189248E9	0.0	0.0	0.06800000369548798	0.04749999940395355	0.04874999821186066	0.9922500252723694	0.767573893070221	0.0	244.0	371.0	0.0	0.0	0.0	0.0	0.0	0.0	null	null	null	null	null	null	null	null	336.0	334.0	334.0	338.0	334.0	333.0	335.0	334.0	337.0	336.0	337.0	
Mon Jun 05 09:37:00 UTC 2017	0.0	1.047281664E9	2925.4384765625	0.0	2.5731072E7	0.0	2.0	9.90838784E8	42.320098876953125	0.0	0.0	1.06133504E9	1.051189248E9	0.0	0.0	0.08449999988079071	0.05025000125169754	0.045499999076128006	0.9927499890327454	0.7689120173454285	0.0	244.0	371.0	0.0	0.0	0.0	0.0	0.0	0.0	null	null	null	null	null	null	null	null	336.0	335.0	337.0	335.0	335.0	334.0	338.0	339.0	336.0	335.0	335.0	
Mon Jun 05 09:36:00 UTC 2017	0.0	1.047281664E9	3021.039306640625	0.0	2.5731072E7	0.0	2.0	9.90625792E8	37.19063949584961	0.0	0.0	1.06133504E9	1.051189248E9	0.0	0.0	0.07100000232458115	0.054749999195337296	0.04625000059604645	0.9922500252723694	0.7689159512519836	0.0	244.0	371.0	0.0	0.0	0.0	0.0	0.0	0.0	null	null	null	null	null	null	null	null	333.0	336.0	334.0	334.0	338.0	339.0	334.0	332.0	335.0	336.0	337.0	
Mon Jun 05 09:35:00 UTC 2017	0.0	1.047281664E9	3021.039306640625	0.0	2.5731072E7	0.0	2.0	9.90715904E8	37.19063949584961	0.0	0.0	1.06133504E9	1.051189248E9	0.0	0.0	0.07975000143051147	0.0507499985396862	0.048250000923871994	0.9922500252723694	0.7683102488517761	0.0	244.0	371.0	0.0	0.0	0.0	0.0	0.0	0.0	null	null	null	null	null	null	null	null	337.0	334.0	336.0	337.0	336.0	334.0	335.0	338.0	336.0	332.0	332.0	
Mon Jun 05 09:34:00 UTC 2017	0.0	1.047281664E9	3021.039306640625	0.0	2.5731072E7	0.0	2.0	9.90625792E8	37.19063949584961	0.0	0.0	1.06133504E9	1.050161152E9	0.0	0.0	0.07100000232458115	0.0442500002682209	0.05225000157952309	0.9922500252723694	0.76869136095047	0.0	244.0	371.0	0.0	0.0	0.0	0.0	0.0	0.0	null	null	null	null	null	null	null	null	341.0	332.0	336.0	334.0	335.0	333.0	336.0	339.0	334.0	334.0	339.0	
Mon Jun 05 09:33:00 UTC 2017	0.0	1.047281664E9	3021.039306640625	0.0	2.5731072E7	0.0	4.0	9.90625792E8	47.50384521484375	0.0	0.0	1.06133504E9	1.050161152E9	0.0	0.0	0.07000000029802322	0.05274999886751175	0.04675000160932541	0.9922500252723694	0.7687906622886658	0.0	244.0	371.0	0.0	0.0	0.0	0.0	0.0	0.0	null	null	null	null	null	null	null	null	337.0	335.0	337.0	337.0	337.0	335.0	335.0	334.0	333.0	336.0	337.0	
Mon Jun 05 09:32:00 UTC 2017	0.0	1.047281664E9	3021.039306640625	0.0	2.5731072E7	0.0	3.0	9.90625792E8	40.79718017578125	0.0	0.0	1.06133504E9	1.050161152E9	0.0	0.0	0.0807500034570694	0.05274999886751175	0.05025000125169754	0.9922500252723694	0.7664798498153687	0.0	244.0	371.0	0.0	0.0	0.0	0.0	0.0	0.0	null	null	null	null	null	null	null	null	334.0	334.0	334.0	334.0	335.0	339.0	335.0	336.0	337.0	334.0	334.0	
Mon Jun 05 09:31:00 UTC 2017	0.0	1.047281664E9	3021.039306640625	0.0	2.5731072E7	0.0	2.0	9.904128E8	49.43492126464844	0.0	0.0	1.06133504E9	1.051189248E9	0.0	0.0	0.10350000113248825	0.045499999076128006	0.04450000077486038	0.9922500252723694	0.7664607763290405	0.0	244.0	371.0	0.0	0.0	0.0	0.0	0.0	0.0	null	null	null	null	null	null	null	null	337.0	334.0	334.0	337.0	336.0	336.0	339.0	338.0	336.0	338.0	337.0	
Mon Jun 05 09:30:00 UTC 2017	0.0	1.047281664E9	2879.98193359375	0.0	2.5731072E7	0.0	2.0	9.90502912E8	49.43492126464844	0.0	0.0	1.06133504E9	1.051189248E9	0.0	0.0	0.07400000095367432	0.04975000023841858	0.05000000074505806	0.9922500252723694	0.7664598226547241	0.0	244.0	371.0	0.0	0.0	0.0	0.0	0.0	0.0	null	null	null	null	null	null	null	null	334.0	334.0	340.0	335.0	335.0	337.0	331.0	335.0	334.0	332.0	333.0	
Mon Jun 05 09:29:00 UTC 2017	0.0	1.047281664E9	2404.77783203125	0.0	2.5731072E7	0.0	2.0	9.904128E8	41.41630172729492	0.0	0.0	1.06133504E9	1.051189248E9	0.0	0.0	0.0742499977350235	0.05525000020861626	0.05050000175833702	0.9922500252723694	0.7665131092071533	0.0	244.0	371.0	0.0	0.0	0.0	0.0	0.0	0.0	null	null	null	null	null	null	null	null	336.0	337.0	336.0	333.0	333.0	332.0	334.0	335.0	335.0	333.0	340.0	
Mon Jun 05 09:28:00 UTC 2017	0.0	1.047281664E9	2404.77783203125	0.0	2.5731072E7	0.0	2.0	9.904128E8	47.020286560058594	0.0	0.0	1.06133504E9	1.051189248E9	0.0	0.0	0.07100000232458115	0.0507499985396862	0.04874999821186066	0.9919999837875366	0.7664940357208252	0.0	244.0	371.0	0.0	0.0	0.0	0.0	0.0	0.0	null	null	null	null	null	null	null	null	340.0	341.0	333.0	338.0	338.0	341.0	337.0	337.0	335.0	334.0	335.0	
Mon Jun 05 09:27:00 UTC 2017	0.0	1.047281664E9	2404.77783203125	0.0	2.5731072E7	0.0	3.0	9.904128E8	41.8712158203125	0.0	0.0	1.06133504E9	1.050161152E9	0.0	0.0	0.08275000005960464	0.04324999824166298	0.04349999874830246	0.9922500252723694	0.7664911150932312	0.0	244.0	371.0	0.0	0.0	0.0	0.0	0.0	0.0	null	null	null	null	null	null	null	null	335.0	335.0	336.0	332.0	334.0	335.0	338.0	339.0	338.0	334.0	332.0	
Mon Jun 05 09:26:00 UTC 2017	0.0	1.047281664E9	2682.46337890625	0.0	2.5731072E7	0.0	3.0	9.90199808E8	41.8712158203125	0.0	0.0	1.06133504E9	1.050161152E9	0.0	0.0	0.07575000077486038	0.05824999883770943	0.04899999871850014	0.9922500252723694	0.7664837837219238	0.0	244.0	371.0	0.0	0.0	0.0	0.0	0.0	0.0	null	null	null	null	null	null	null	null	337.0	336.0	338.0	337.0	337.0	336.0	332.0	334.0	333.0	337.0	334.0	
Mon Jun 05 09:25:00 UTC 2017	0.0	1.047281664E9	2682.46337890625	0.0	2.5731072E7	0.0	3.0	9.9028992E8	54.66384506225586	0.0	0.0	1.06133504E9	1.051189248E9	0.0	0.0	0.07325000315904617	0.04874999821186066	0.0507499985396862	0.9922500252723694	0.7679687142372131	0.0	244.0	371.0	0.0	0.0	0.0	0.0	0.0	0.0	null	null	null	null	null	null	null	null	336.0	337.0	335.0	337.0	334.0	336.0	338.0	335.0	337.0	334.0	340.0	
Mon Jun 05 09:24:00 UTC 2017	0.0	1.047281664E9	2682.46337890625	0.0	2.5731072E7	0.0	2.0	9.90199808E8	44.15968322753906	0.0	0.0	1.06133504E9	1.050161152E9	0.0	0.0	0.07074999809265137	0.04574999958276749	0.048250000923871994	0.9922500252723694	0.7664480805397034	0.0	244.0	371.0	0.0	0.0	0.0	0.0	0.0	0.0	null	null	null	null	null	null	null	null	332.0	332.0	338.0	336.0	333.0	332.0	333.0	336.0	334.0	335.0	332.0	
Mon Jun 05 09:23:00 UTC 2017	0.0	1.047281664E9	2754.75732421875	0.0	2.5731072E7	0.0	2.0	9.90199808E8	45.103515625	0.0	0.0	1.06133504E9	1.050161152E9	0.0	0.0	0.07474999874830246	0.05249999836087227	0.04749999940395355	0.9922500252723694	0.766399621963501	0.0	244.0	371.0	0.0	0.0	0.0	0.0	0.0	0.0	null	null	null	null	null	null	null	null	341.0	336.0	336.0	334.0	335.0	337.0	335.0	336.0	337.0	335.0	337.0	
Mon Jun 05 09:22:00 UTC 2017	0.0	1.047281664E9	2754.75732421875	0.0	2.5731072E7	0.0	2.0	9.90199808E8	31.047962188720703	0.0	0.0	1.06133504E9	1.050161152E9	0.0	0.0	0.07400000095367432	0.05550000071525574	0.05000000074505806	0.9919999837875366	0.7686737775802612	0.0	244.0	371.0	0.0	0.0	0.0	0.0	0.0	0.0	null	null	null	null	null	null	null	null	335.0	335.0	337.0	337.0	335.0	332.0	334.0	338.0	333.0	333.0	336.0	
Mon Jun 05 09:21:00 UTC 2017	0.0	1.047281664E9	2754.75732421875	0.0	2.5731072E7	0.0	3.0	9.89986816E8	41.66108322143555	0.0	0.0	1.06133504E9	1.051189248E9	0.0	0.0	0.10949999839067459	0.04600000008940697	0.0442500002682209	0.9922500252723694	0.7686620354652405	0.0	244.0	371.0	0.0	0.0	0.0	0.0	0.0	0.0	null	null	null	null	null	null	null	null	336.0	337.0	334.0	336.0	333.0	336.0	338.0	339.0	338.0	333.0	336.0	
Mon Jun 05 09:20:00 UTC 2017	0.0	1.047281664E9	3097.95068359375	0.0	2.5731072E7	0.0	2.0	9.90076928E8	41.66108322143555	0.0	0.0	1.06133504E9	1.051189248E9	0.0	0.0	0.07100000232458115	0.05375000089406967	0.048250000923871994	0.9925000071525574	0.7663409113883972	0.0	244.0	371.0	0.0	0.0	0.0	0.0	0.0	0.0	null	null	null	null	null	null	null	null	337.0	337.0	335.0	333.0	337.0	335.0	335.0	338.0	336.0	336.0	333.0	
Mon Jun 05 09:19:00 UTC 2017	0.0	1.047281664E9	2285.13037109375	0.0	2.5731072E7	0.0	3.0	9.9016704E8	41.66108322143555	0.0	0.0	1.06133504E9	1.051189248E9	0.0	0.0	0.07325000315904617	0.05050000175833702	0.04899999871850014	0.9922500252723694	0.7663272023200989	0.0	244.0	371.0	0.0	0.0	0.0	0.0	0.0	0.0	null	null	null	null	null	null	null	null	335.0	336.0	336.0	338.0	336.0	335.0	338.0	334.0	335.0	336.0	337.0	
Mon Jun 05 09:18:00 UTC 2017	0.0	1.047281664E9	2755.987548828125	0.0	2.5731072E7	0.0	2.0	9.89986816E8	65.47859191894531	0.0	0.0	1.06133504E9	1.050161152E9	0.0	0.0	0.07450000196695328	0.05525000020861626	0.05025000125169754	0.9922500252723694	0.7678258419036865	0.0	244.0	371.0	0.0	0.0	0.0	0.0	0.0	0.0	null	null	null	null	null	null	null	null	337.0	337.0	335.0	334.0	336.0	335.0	334.0	335.0	338.0	333.0	335.0	
Mon Jun 05 09:17:00 UTC 2017	0.0	1.047281664E9	2755.987548828125	0.0	2.5731072E7	0.0	3.0	9.9016704E8	65.47859191894531	0.0	0.0	1.06133504E9	1.050161152E9	0.0	0.0	0.07500000298023224	0.04574999958276749	0.04349999874830246	0.9922500252723694	0.7662959098815918	0.0	244.0	371.0	0.0	0.0	0.0	0.0	0.0	0.0	null	null	null	null	null	null	null	null	334.0	333.0	336.0	338.0	336.0	338.0	335.0	336.0	334.0	337.0	336.0	
Mon Jun 05 09:16:00 UTC 2017	0.0	1.047281664E9	2755.987548828125	0.0	2.5731072E7	0.0	2.0	9.89863936E8	65.47859191894531	0.0	0.0	1.06133504E9	1.050161152E9	0.0	0.0	0.07474999874830246	0.05299999937415123	0.04699999839067459	0.9922500252723694	0.7662562727928162	0.0	244.0	371.0	0.0	0.0	0.0	0.0	0.0	0.0	null	null	null	null	null	null	null	null	336.0	333.0	335.0	336.0	339.0	336.0	337.0	338.0	337.0	336.0	334.0	
Mon Jun 05 09:15:00 UTC 2017	0.0	1.047281664E9	2755.987548828125	0.0	2.5731072E7	0.0	2.0	9.89863936E8	48.59711837768555	0.0	0.0	1.06133504E9	1.050161152E9	0.0	0.0	0.0702499970793724	0.048250000923871994	0.05000000074505806	0.9925000071525574	0.7662186026573181	0.0	244.0	371.0	0.0	0.0	0.0	0.0	0.0	0.0	null	null	null	null	null	null	null	null	337.0	334.0	336.0	336.0	336.0	336.0	335.0	334.0	337.0	338.0	335.0	
Mon Jun 05 09:14:00 UTC 2017	0.0	1.047281664E9	2615.728759765625	0.0	2.5731072E7	0.0	4.0	9.89773824E8	48.59711837768555	0.0	0.0	1.06133504E9	1.050161152E9	0.0	null	0.07100000232458115	0.05225000157952309	0.04699999839067459	0.9922500252723694	0.7662034034729004	0.0	244.0	371.0	0.0	0.0	0.0	0.0	0.0	0.0	null	null	null	null	null	null	null	null	334.0	335.0	338.0	335.0	333.0	335.0	332.0	337.0	337.0	334.0	338.0	
Mon Jun 05 09:13:00 UTC 2017	0.0	1.047281664E9	2615.728759765625	0.0	2.5731072E7	0.0	4.0	9.89773824E8	48.59711837768555	0.0	0.0	1.06133504E9	1.051189248E9	0.0	null	0.07975000143051147	0.048250000923871994	0.048250000923871994	0.9922500252723694	0.7662004828453064	0.0	244.0	371.0	0.0	0.0	0.0	0.0	0.0	0.0	null	null	null	null	null	null	null	null	335.0	334.0	335.0	336.0	334.0	337.0	335.0	335.0	335.0	336.0	334.0	
Mon Jun 05 09:12:00 UTC 2017	0.0	1.047281664E9	2615.728759765625	0.0	2.5731072E7	0.0	5.0	9.89773824E8	48.59711837768555	0.0	0.0	1.06133504E9	1.050161152E9	0.0	null	0.07175000011920929	0.048250000923871994	0.04774999991059303	0.9922500252723694	0.7673860192298889	0.0	244.0	371.0	0.0	0.0	0.0	0.0	0.0	0.0	null	null	null	null	null	null	null	null	330.0	334.0	335.0	338.0	333.0	336.0	337.0	335.0	337.0	336.0	334.0	
Mon Jun 05 09:11:00 UTC 2017	0.0	1.047281664E9	2536.794189453125	0.0	2.5731072E7	0.0	3.0	9.89560832E8	48.59711837768555	0.0	0.0	1.06133504E9	1.051189248E9	0.0	null	0.1172500029206276	0.05274999886751175	0.048250000923871994	0.9922500252723694	0.767717719078064	0.0	244.0	371.0	0.0	0.0	0.0	0.0	0.0	0.0	null	null	null	null	null	null	null	null	339.0	335.0	336.0	336.0	334.0	338.0	335.0	335.0	337.0	336.0	339.0	
Mon Jun 05 09:10:00 UTC 2017	0.0	1.047281664E9	2626.18359375	0.0	2.5731072E7	0.0	4.0	9.89704192E8	69.98428344726562	0.0	0.0	1.06133504E9	1.051189248E9	0.0	null	0.07150000333786011	0.045249998569488525	0.04975000023841858	0.9925000071525574	0.7661667466163635	0.0	244.0	371.0	0.0	0.0	0.0	0.0	0.0	0.0	null	null	null	null	null	null	null	null	335.0	336.0	336.0	334.0	338.0	338.0	336.0	335.0	333.0	337.0	334.0	
Mon Jun 05 09:09:00 UTC 2017	0.0	1.047281664E9	2626.18359375	0.0	2.5731072E7	0.0	2.0	9.89507584E8	53.6412467956543	0.0	0.0	1.06133504E9	1.050161152E9	0.0	null	0.07175000011920929	0.0560000017285347	0.04475000128149986	0.9925000071525574	0.7661545276641846	0.0	244.0	371.0	0.0	0.0	0.0	0.0	0.0	0.0	null	null	null	null	null	null	null	null	334.0	334.0	337.0	337.0	337.0	336.0	336.0	336.0	338.0	336.0	335.0	
Mon Jun 05 09:08:00 UTC 2017	0.0	1.047281664E9	2626.18359375	0.0	2.5731072E7	0.0	2.0	9.89507584E8	53.6412467956543	0.0	0.0	1.06133504E9	1.051189248E9	0.0	null	0.07649999856948853	0.04874999821186066	0.04975000023841858	0.9922500252723694	0.7670518159866333	0.0	244.0	371.0	0.0	0.0	0.0	0.0	0.0	0.0	null	null	null	null	null	null	null	null	333.0	338.0	336.0	339.0	334.0	333.0	335.0	337.0	335.0	334.0	338.0	
Mon Jun 05 09:07:00 UTC 2017	0.0	1.047281664E9	2903.69921875	0.0	2.5731072E7	0.0	2.0	9.89507584E8	45.33678436279297	0.0	0.0	1.06133504E9	1.050161152E9	0.0	null	0.07050000131130219	0.04899999871850014	0.05025000125169754	0.9925000071525574	0.7661359310150146	0.0	244.0	371.0	0.0	0.0	0.0	0.0	0.0	0.0	null	null	null	null	null	null	null	null	335.0	335.0	333.0	331.0	336.0	337.0	333.0	335.0	335.0	337.0	333.0	
Mon Jun 05 09:06:00 UTC 2017	0.0	1.047281664E9	2903.69921875	0.0	2.5731072E7	0.0	4.0	9.89298688E8	45.33678436279297	0.0	0.0	1.06133504E9	1.051189248E9	0.0	0.0	0.08349999785423279	0.05025000125169754	0.04724999889731407	0.9922500252723694	0.7661187648773193	0.0	244.0	371.0	0.0	0.0	0.0	0.0	0.0	0.0	null	null	null	null	null	null	null	null	339.0	338.0	340.0	337.0	337.0	336.0	339.0	336.0	336.0	336.0	334.0	
Mon Jun 05 09:05:00 UTC 2017	0.0	1.047281664E9	2903.69921875	0.0	2.5731072E7	0.0	2.0	9.893888E8	45.33678436279297	0.0	0.0	1.06133504E9	1.050161152E9	0.0	0.0	0.07524999976158142	0.05249999836087227	0.04924999922513962	0.9922500252723694	0.7661911845207214	0.0	244.0	371.0	0.0	0.0	0.0	0.0	0.0	0.0	null	null	null	null	null	null	null	null	334.0	335.0	334.0	334.0	335.0	331.0	335.0	336.0	338.0	334.0	337.0	
Mon Jun 05 09:04:00 UTC 2017	0.0	1.047281664E9	2611.661376953125	0.0	2.5731072E7	0.0	2.0	9.89298688E8	52.02787780761719	0.0	0.0	1.06133504E9	1.050161152E9	0.0	null	0.07524999976158142	0.05249999836087227	0.04574999958276749	0.9922500252723694	0.7661031484603882	0.0	244.0	371.0	0.0	0.0	0.0	0.0	0.0	0.0	null	null	null	null	null	null	null	null	335.0	337.0	335.0	336.0	335.0	340.0	337.0	337.0	333.0	334.0	339.0	
Mon Jun 05 09:03:00 UTC 2017	0.0	1.047281664E9	2611.661376953125	0.0	2.5731072E7	0.0	2.0	9.89298688E8	44.86701965332031	0.0	0.0	1.06133504E9	1.051189248E9	0.0	0.0	0.0807500034570694	0.04650000110268593	0.0494999997317791	0.9922500252723694	0.7683464288711548	0.0	244.0	371.0	0.0	0.0	0.0	0.0	0.0	0.0	null	null	null	null	null	null	null	null	335.0	336.0	338.0	338.0	336.0	333.0	338.0	336.0	337.0	337.0	333.0	
Mon Jun 05 09:02:00 UTC 2017	0.0	1.047281664E9	2611.661376953125	0.0	2.5731072E7	0.0	4.0	9.89298688E8	50.29146957397461	0.0	0.0	1.06133504E9	1.050161152E9	0.0	0.0	0.07225000113248825	0.05225000157952309	0.04600000008940697	0.9922500252723694	0.7660126090049744	0.0	244.0	371.0	0.0	0.0	0.0	0.0	0.0	0.0	null	null	null	null	null	null	null	null	334.0	332.0	332.0	335.0	333.0	335.0	333.0	336.0	336.0	334.0	339.0	
Mon Jun 05 09:01:00 UTC 2017	0.0	1.047281664E9	2951.3798828125	0.0	2.5731072E7	0.0	2.0	9.89089792E8	70.57171630859375	0.0	0.0	1.06133504E9	1.050161152E9	0.0	0.0	0.10125000029802322	0.0507499985396862	0.045249998569488525	0.9925000071525574	0.7680469751358032	0.0	244.0	371.0	0.0	0.0	0.0	0.0	0.0	0.0	null	null	null	null	null	null	null	null	335.0	339.0	336.0	335.0	339.0	333.0	337.0	334.0	335.0	334.0	334.0	
Mon Jun 05 09:00:00 UTC 2017	0.0	1.047281664E9	2951.3798828125	0.0	2.5731072E7	0.0	3.0	9.89179904E8	60.632423400878906	0.0	0.0	1.06133504E9	1.050161152E9	0.0	0.0	0.07474999874830246	0.05324999988079071	0.05225000157952309	0.9922500252723694	0.7660140991210938	0.0	244.0	371.0	0.0	0.0	0.0	0.0	0.0	0.0	null	null	null	null	null	null	null	null	338.0	335.0	336.0	333.0	333.0	340.0	339.0	335.0	336.0	333.0	335.0	
Mon Jun 05 08:59:00 UTC 2017	0.0	1.047281664E9	2951.3798828125	0.0	2.5731072E7	0.0	2.0	9.8920448E8	60.632423400878906	0.0	0.0	1.06133504E9	1.050161152E9	0.0	0.0	0.0754999965429306	0.050999999046325684	0.04724999889731407	0.9925000071525574	0.7659984230995178	0.0	244.0	371.0	0.0	0.0	0.0	0.0	0.0	0.0	null	null	null	null	null	null	null	null	334.0	335.0	339.0	340.0	335.0	333.0	336.0	339.0	333.0	338.0	335.0	
Mon Jun 05 08:58:00 UTC 2017	0.0	1.047281664E9	2967.040771484375	0.0	2.5731072E7	0.0	2.0	9.89089792E8	60.632423400878906	0.0	0.0	1.06133504E9	1.051189248E9	0.0	null	0.07724999636411667	0.04774999991059303	0.04625000059604645	0.9919999837875366	0.7659955024719238	0.0	244.0	371.0	0.0	0.0	0.0	0.0	0.0	0.0	null	null	null	null	null	null	null	null	338.0	335.0	334.0	331.0	339.0	334.0	336.0	334.0	341.0	335.0	338.0	
Mon Jun 05 08:57:00 UTC 2017	0.0	1.047281664E9	2967.040771484375	0.0	2.5731072E7	0.0	2.0	9.89270016E8	60.632423400878906	0.0	0.0	1.06133504E9	1.051189248E9	0.0	null	0.07199999690055847	0.05375000089406967	0.04874999821186066	0.9922500252723694	0.7659822702407837	0.0	244.0	371.0	0.0	0.0	0.0	0.0	0.0	0.0	null	null	null	null	null	null	null	null	332.0	336.0	334.0	336.0	337.0	335.0	333.0	335.0	333.0	336.0	336.0	
Mon Jun 05 08:56:00 UTC 2017	0.0	1.047281664E9	2794.54248046875	0.0	2.5731072E7	0.0	5.0	9.888768E8	40.02986145019531	0.0	0.0	1.06133504E9	1.050161152E9	0.0	0.0	0.07225000113248825	0.05000000074505806	0.0494999997317791	0.9925000071525574	0.7660233974456787	0.0	244.0	371.0	0.0	0.0	0.0	0.0	0.0	0.0	null	null	null	null	null	null	null	null	336.0	335.0	334.0	335.0	333.0	340.0	339.0	335.0	336.0	339.0	333.0	
Mon Jun 05 08:55:00 UTC 2017	0.0	1.047281664E9	2906.28515625	0.0	2.5731072E7	0.0	4.0	9.88966912E8	40.02986145019531	0.0	0.0	1.06133504E9	1.051189248E9	0.0	0.0	0.07349999994039536	0.04625000059604645	0.04724999889731407	0.9922500252723694	0.7682544589042664	0.0	244.0	371.0	0.0	0.0	0.0	0.0	0.0	0.0	null	null	null	null	null	null	null	null	339.0	336.0	332.0	336.0	338.0	335.0	332.0	338.0	336.0	340.0	337.0	
Mon Jun 05 08:54:00 UTC 2017	0.0	1.047281664E9	2281.20703125	0.0	2.5731072E7	0.0	3.0	9.888768E8	52.141075134277344	0.0	0.0	1.06133504E9	1.050161152E9	0.0	0.0	0.07199999690055847	0.05225000157952309	0.04924999922513962	0.9919999837875366	0.768237829208374	0.0	244.0	371.0	0.0	0.0	0.0	0.0	0.0	0.0	null	null	null	null	null	null	null	null	333.0	336.0	336.0	332.0	335.0	336.0	334.0	334.0	337.0	334.0	337.0	
Mon Jun 05 08:53:00 UTC 2017	0.0	1.047281664E9	2281.20703125	0.0	2.5731072E7	0.0	3.0	9.888768E8	53.410797119140625	0.0	0.0	1.06133504E9	1.050161152E9	0.0	0.0	0.07374999672174454	0.05249999836087227	0.052000001072883606	0.9922500252723694	0.7681595087051392	0.0	244.0	371.0	0.0	0.0	0.0	0.0	0.0	0.0	null	null	null	null	null	null	null	null	333.0	335.0	335.0	339.0	334.0	336.0	336.0	335.0	336.0	336.0	332.0	
Mon Jun 05 08:52:00 UTC 2017	0.0	1.047281664E9	2677.11279296875	0.0	2.5731072E7	0.0	3.0	9.888768E8	53.410797119140625	0.0	0.0	1.06133504E9	1.051189248E9	0.0	0.0	0.07599999755620956	0.04924999922513962	0.04500000178813934	0.9919999837875366	0.7659108638763428	0.0	244.0	371.0	0.0	0.0	0.0	0.0	0.0	0.0	null	null	null	null	null	null	null	null	335.0	335.0	335.0	332.0	336.0	331.0	335.0	337.0	337.0	335.0	337.0	
Mon Jun 05 08:51:00 UTC 2017	0.0	1.047281664E9	2677.11279296875	0.0	2.5731072E7	0.0	2.0	9.88758016E8	43.924564361572266	0.0	0.0	1.06133504E9	1.050161152E9	0.0	null	0.1054999977350235	0.04899999871850014	0.0507499985396862	0.9922500252723694	0.7658379673957825	0.0	244.0	371.0	0.0	0.0	0.0	0.0	0.0	0.0	null	null	null	null	null	null	null	null	335.0	339.0	335.0	336.0	334.0	336.0	335.0	335.0	334.0	334.0	332.0	
Mon Jun 05 08:50:00 UTC 2017	0.0	1.047281664E9	2677.11279296875	0.0	2.5731072E7	0.0	2.0	9.88758016E8	43.924564361572266	0.0	0.0	1.06133504E9	1.050161152E9	0.0	null	0.07050000131130219	0.05299999937415123	0.04399999976158142	0.9922500252723694	0.766437292098999	0.0	244.0	371.0	0.0	0.0	0.0	0.0	0.0	0.0	null	null	null	null	null	null	null	null	338.0	333.0	338.0	337.0	336.0	334.0	336.0	337.0	337.0	338.0	339.0	
Mon Jun 05 08:49:00 UTC 2017	0.0	1.047281664E9	2539.95703125	0.0	2.5731072E7	0.0	3.0	9.88667904E8	45.65359878540039	0.0	0.0	1.06133504E9	1.050161152E9	0.0	null	0.08224999904632568	0.04724999889731407	0.0507499985396862	0.9919999837875366	0.7658638954162598	0.0	244.0	371.0	0.0	0.0	0.0	0.0	0.0	0.0	null	null	null	null	null	null	null	null	337.0	336.0	335.0	332.0	337.0	337.0	335.0	335.0	334.0	332.0	335.0	
Mon Jun 05 08:48:00 UTC 2017	0.0	1.047281664E9	2539.95703125	0.0	2.5731072E7	0.0	2.0	9.88667904E8	45.65359878540039	0.0	0.0	1.06133504E9	1.051189248E9	0.0	null	0.07774999737739563	0.05375000089406967	0.04500000178813934	0.9925000071525574	0.7657787203788757	0.0	244.0	371.0	0.0	0.0	0.0	0.0	0.0	0.0	null	null	null	null	null	null	null	null	335.0	336.0	336.0	339.0	334.0	335.0	336.0	334.0	337.0	339.0	338.0	
Mon Jun 05 08:47:00 UTC 2017	0.0	1.047281664E9	3007.675537109375	0.0	2.5731072E7	0.0	3.0	9.88667904E8	35.53910827636719	0.0	0.0	1.06133504E9	1.050161152E9	0.0	null	0.07074999809265137	0.045249998569488525	0.045249998569488525	0.9925000071525574	0.765773355960846	0.0	244.0	371.0	0.0	0.0	0.0	0.0	0.0	0.0	null	null	null	null	null	null	null	null	333.0	336.0	332.0	336.0	334.0	333.0	337.0	336.0	331.0	335.0	338.0	
Mon Jun 05 08:46:00 UTC 2017	0.0	1.047281664E9	2820.20361328125	0.0	2.5731072E7	0.0	2.0	9.88454912E8	35.53910827636719	0.0	0.0	1.06133504E9	1.051189248E9	0.0	null	0.06975000351667404	0.05575000122189522	0.0507499985396862	0.9922500252723694	0.7657552361488342	0.0	244.0	371.0	0.0	0.0	0.0	0.0	0.0	0.0	null	null	null	null	null	null	null	null	338.0	337.0	338.0	333.0	336.0	333.0	331.0	331.0	336.0	337.0	335.0	
Mon Jun 05 08:45:00 UTC 2017	0.0	1.047281664E9	3651.00830078125	0.0	2.5731072E7	0.0	5.0	9.88545024E8	46.891841888427734	0.0	0.0	1.06133504E9	1.050161152E9	0.0	null	0.07975000143051147	0.04600000008940697	0.04749999940395355	0.9922500252723694	0.7657273411750793	0.0	244.0	371.0	0.0	0.0	0.0	0.0	0.0	0.0	null	null	null	null	null	null	null	null	333.0	339.0	334.0	336.0	333.0	335.0	336.0	336.0	337.0	336.0	333.0	
Mon Jun 05 08:44:00 UTC 2017	0.0	1.047281664E9	3651.00830078125	0.0	2.5731072E7	0.0	4.0	9.88454912E8	44.4723014831543	0.0	0.0	1.06133504E9	1.051189248E9	0.0	null	0.0702499970793724	0.05274999886751175	0.05050000175833702	0.9922500252723694	0.7657293081283569	0.0	244.0	371.0	0.0	0.0	0.0	0.0	0.0	0.0	null	null	null	null	null	null	null	null	340.0	337.0	336.0	336.0	332.0	335.0	336.0	336.0	333.0	338.0	340.0	
Mon Jun 05 08:43:00 UTC 2017	0.0	1.047281664E9	2424.911865234375	0.0	2.5731072E7	0.0	4.0	9.88454912E8	49.592140197753906	0.0	0.0	1.06133504E9	1.050161152E9	0.0	null	0.08025000244379044	0.04450000077486038	0.042750000953674316	0.9922500252723694	0.7657068371772766	0.0	244.0	371.0	0.0	0.0	0.0	0.0	0.0	0.0	null	null	null	null	null	null	null	null	336.0	332.0	337.0	334.0	334.0	336.0	335.0	333.0	338.0	335.0	334.0	
Mon Jun 05 08:42:00 UTC 2017	0.0	1.047281664E9	3037.779296875	0.0	2.5731072E7	0.0	3.0	9.88454912E8	66.04920959472656	0.0	0.0	1.06133504E9	1.051189248E9	0.0	0.0	0.07100000232458115	0.05874999985098839	0.054999999701976776	0.9922500252723694	0.7656882405281067	0.0	244.0	371.0	0.0	0.0	0.0	0.0	0.0	0.0	null	null	null	null	null	null	null	null	333.0	335.0	336.0	334.0	339.0	339.0	337.0	339.0	335.0	336.0	332.0	
Mon Jun 05 08:41:00 UTC 2017	0.0	1.047281664E9	3037.779296875	0.0	2.5731072E7	0.0	2.0	9.88332032E8	47.01626968383789	1.0	1.0	1.06133504E9	1.050161152E9	0.0	0.0	0.1042499989271164	0.04874999821186066	0.04399999976158142	0.9922500252723694	0.7656921148300171	0.0	244.0	371.0	0.0	0.0	0.0	0.0	0.0	0.0	null	null	null	null	null	null	null	null	333.0	335.0	331.0	339.0	334.0	332.0	335.0	338.0	336.0	332.0	336.0	
Mon Jun 05 08:40:00 UTC 2017	0.0	1.047281664E9	2906.806884765625	0.0	2.5731072E7	0.0	2.0	9.88332032E8	38.47943115234375	3.0	3.0	1.06133504E9	1.050161152E9	0.0	0.0	0.07175000011920929	0.060750000178813934	0.052000001072883606	0.9922500252723694	0.7656774520874023	0.0	244.0	371.0	0.0	0.0	0.0	0.0	0.0	0.0	null	null	null	null	null	null	null	null	338.0	336.0	337.0	335.0	337.0	337.0	336.0	335.0	337.0	335.0	338.0	
Mon Jun 05 08:39:00 UTC 2017	0.0	1.047281664E9	2906.806884765625	0.0	2.5731072E7	0.0	2.0	9.8824192E8	38.47943115234375	0.0	0.0	1.06133504E9	1.050161152E9	0.0	0.0	0.07225000113248825	0.04800000041723251	0.0442500002682209	0.9922500252723694	0.765667200088501	0.0	244.0	371.0	0.0	0.0	0.0	0.0	0.0	0.0	null	null	null	null	null	null	null	null	332.0	335.0	332.0	333.0	334.0	337.0	335.0	336.0	336.0	339.0	336.0	
Mon Jun 05 08:38:00 UTC 2017	0.0	1.047281664E9	2906.806884765625	0.0	2.5731072E7	0.0	2.0	9.8824192E8	38.47943115234375	0.0	0.0	1.06133504E9	1.050161152E9	0.0	0.0	0.07750000059604645	0.04899999871850014	0.04574999958276749	0.9919999837875366	0.765663743019104	0.0	244.0	371.0	0.0	0.0	0.0	0.0	0.0	0.0	null	null	null	null	null	null	null	null	338.0	335.0	339.0	339.0	338.0	336.0	336.0	336.0	332.0	334.0	332.0	
Mon Jun 05 08:37:00 UTC 2017	0.0	1.047281664E9	2608.0107421875	0.0	2.5731072E7	0.0	3.0	9.8824192E8	53.894989013671875	0.0	0.0	1.06133504E9	1.050161152E9	0.0	0.0	0.07249999791383743	0.052000001072883606	0.051750000566244125	0.9922500252723694	0.76781165599823	0.0	244.0	371.0	0.0	0.0	0.0	0.0	0.0	0.0	null	null	null	null	null	null	null	null	335.0	333.0	336.0	333.0	336.0	335.0	334.0	335.0	336.0	337.0	336.0	
Mon Jun 05 08:36:00 UTC 2017	0.0	1.047281664E9	2800.6806640625	0.0	2.5731072E7	0.0	2.0	9.88028928E8	59.49906921386719	0.0	0.0	1.06133504E9	1.050161152E9	0.0	0.0	0.08375000208616257	0.0560000017285347	0.04800000041723251	0.9925000071525574	0.7655208706855774	0.0	244.0	371.0	0.0	0.0	0.0	0.0	0.0	0.0	null	null	null	null	null	null	null	null	336.0	339.0	334.0	333.0	334.0	335.0	337.0	337.0	336.0	336.0	337.0	
Mon Jun 05 08:35:00 UTC 2017	0.0	1.047281664E9	2800.6806640625	0.0	2.5731072E7	0.0	2.0	9.88114944E8	38.87441635131836	0.0	0.0	1.06133504E9	1.051189248E9	0.0	0.0	0.0729999989271164	0.04399999976158142	0.045499999076128006	0.9922500252723694	0.7654900550842285	0.0	244.0	371.0	0.0	0.0	0.0	0.0	0.0	0.0	null	null	null	null	null	null	null	null	336.0	332.0	336.0	339.0	338.0	333.0	335.0	334.0	334.0	332.0	332.0	
Mon Jun 05 08:34:00 UTC 2017	0.0	1.047281664E9	2635.1806640625	0.0	2.5731072E7	0.0	2.0	9.88024832E8	38.87441635131836	0.0	0.0	1.06133504E9	1.050161152E9	0.0	0.0	0.07824999839067459	0.054499998688697815	0.0507499985396862	0.9922500252723694	0.765460729598999	0.0	244.0	371.0	0.0	0.0	0.0	0.0	0.0	0.0	null	null	null	null	null	null	null	null	334.0	340.0	336.0	334.0	334.0	339.0	340.0	336.0	336.0	339.0	339.0	
Mon Jun 05 08:33:00 UTC 2017	0.0	1.047281664E9	2635.1806640625	0.0	2.5731072E7	0.0	2.0	9.88024832E8	42.91904067993164	0.0	0.0	1.06133504E9	1.050161152E9	0.0	null	0.06925000250339508	0.05025000125169754	0.04924999922513962	0.9922500252723694	0.7654553055763245	0.0	244.0	371.0	0.0	0.0	0.0	0.0	0.0	0.0	null	null	null	null	null	null	null	null	337.0	334.0	333.0	339.0	337.0	333.0	333.0	339.0	336.0	335.0	336.0	
Mon Jun 05 08:32:00 UTC 2017	0.0	1.047281664E9	2861.87060546875	0.0	2.5731072E7	0.0	4.0	9.88024832E8	42.91904067993164	0.0	0.0	1.06133504E9	1.051189248E9	0.0	null	0.07699999958276749	0.05225000157952309	0.04774999991059303	0.9917500019073486	0.7654328346252441	0.0	244.0	371.0	0.0	0.0	0.0	0.0	0.0	0.0	null	null	null	null	null	null	null	null	336.0	335.0	335.0	334.0	333.0	336.0	338.0	334.0	333.0	335.0	334.0	
Mon Jun 05 08:31:00 UTC 2017	0.0	1.047281664E9	2467.174560546875	0.0	2.5731072E7	0.0	5.0	9.87815936E8	42.91904067993164	0.0	0.0	1.06133504E9	1.051189248E9	0.0	null	0.09525000303983688	0.05000000074505806	0.04600000008940697	0.9919999837875366	0.7655057311058044	0.0	244.0	371.0	0.0	0.0	0.0	0.0	0.0	0.0	null	null	null	null	null	null	null	null	334.0	339.0	334.0	333.0	337.0	334.0	334.0	333.0	332.0	332.0	331.0	
Mon Jun 05 08:30:00 UTC 2017	0.0	1.047281664E9	2467.174560546875	0.0	2.5731072E7	0.0	2.0	9.87906048E8	42.91904067993164	0.0	0.0	1.06133504E9	1.050161152E9	0.0	null	0.0754999965429306	0.04650000110268593	0.04899999871850014	0.9919999837875366	0.7654910683631897	0.0	244.0	371.0	0.0	0.0	0.0	0.0	0.0	0.0	null	null	null	null	null	null	null	null	341.0	333.0	336.0	338.0	336.0	338.0	333.0	338.0	339.0	335.0	337.0	
Mon Jun 05 08:29:00 UTC 2017	0.0	1.047281664E9	2505.302734375	0.0	2.5731072E7	0.0	2.0	9.87815936E8	42.91904067993164	0.0	0.0	1.06133504E9	1.050161152E9	0.0	null	0.07450000196695328	0.051249999552965164	0.04650000110268593	0.9919999837875366	0.7655159831047058	0.0	244.0	371.0	0.0	0.0	0.0	0.0	0.0	0.0	null	null	null	null	null	null	null	null	333.0	338.0	334.0	331.0	332.0	335.0	334.0	338.0	334.0	337.0	336.0	
Mon Jun 05 08:28:00 UTC 2017	0.0	1.047281664E9	2282.150634765625	0.0	2.5731072E7	0.0	2.0	9.87815936E8	46.715576171875	0.0	0.0	1.06133504E9	1.050161152E9	0.0	null	0.07124999910593033	0.05274999886751175	0.04975000023841858	0.9925000071525574	0.7654988765716553	0.0	244.0	371.0	0.0	0.0	0.0	0.0	0.0	0.0	null	null	null	null	null	null	null	null	337.0	333.0	337.0	336.0	338.0	335.0	340.0	333.0	339.0	333.0	334.0	
Mon Jun 05 08:27:00 UTC 2017	0.0	1.047281664E9	2282.150634765625	0.0	2.5731072E7	0.0	4.0	9.87815936E8	46.715576171875	0.0	0.0	1.06133504E9	1.051189248E9	0.0	null	0.07500000298023224	0.04975000023841858	0.04675000160932541	0.9922500252723694	0.7654827237129211	0.0	244.0	371.0	0.0	0.0	0.0	0.0	0.0	0.0	null	null	null	null	null	null	null	null	335.0	338.0	335.0	336.0	336.0	335.0	334.0	335.0	336.0	336.0	335.0	
Mon Jun 05 08:26:00 UTC 2017	0.0	1.047281664E9	2282.150634765625	0.0	2.5731072E7	0.0	2.0	9.87602944E8	47.362037658691406	0.0	1.0	1.06133504E9	1.050161152E9	0.0	null	0.07824999839067459	0.04699999839067459	0.04899999871850014	0.9922500252723694	0.7654656171798706	0.0	244.0	371.0	0.0	0.0	0.0	0.0	0.0	0.0	null	null	null	null	null	null	null	null	339.0	333.0	340.0	331.0	337.0	334.0	333.0	336.0	334.0	333.0	332.0	
Mon Jun 05 08:25:00 UTC 2017	0.0	1.047281664E9	2282.150634765625	0.0	2.5731072E7	0.0	2.0	9.87693056E8	47.362037658691406	0.0	1.0	1.06133504E9	1.050161152E9	0.0	null	0.07000000029802322	0.05700000002980232	0.04574999958276749	0.9922500252723694	0.7654631733894348	0.0	244.0	371.0	0.0	0.0	0.0	0.0	0.0	0.0	null	null	null	null	null	null	null	null	334.0	337.0	334.0	336.0	333.0	336.0	335.0	338.0	337.0	337.0	335.0	
Mon Jun 05 08:24:00 UTC 2017	0.0	1.047281664E9	2282.150634765625	0.0	2.5731072E7	0.0	2.0	9.87602944E8	47.362037658691406	0.0	0.0	1.06133504E9	1.050161152E9	0.0	null	0.08349999785423279	0.04450000077486038	0.04699999839067459	0.9922500252723694	0.7654465436935425	0.0	244.0	371.0	0.0	0.0	0.0	0.0	0.0	0.0	null	null	null	null	null	null	null	null	334.0	334.0	338.0	335.0	340.0	336.0	336.0	336.0	334.0	334.0	334.0	
Mon Jun 05 08:23:00 UTC 2017	0.0	1.047281664E9	2282.150634765625	0.0	2.5731072E7	0.0	2.0	9.87602944E8	47.362037658691406	0.0	1.0	1.06133504E9	1.051189248E9	0.0	null	0.0702499970793724	0.05274999886751175	0.04724999889731407	0.9922500252723694	0.7654367089271545	0.0	244.0	371.0	0.0	0.0	0.0	0.0	0.0	0.0	null	null	null	null	null	null	null	null	336.0	335.0	335.0	336.0	336.0	338.0	336.0	337.0	333.0	336.0	339.0	
Mon Jun 05 08:22:00 UTC 2017	0.0	1.047281664E9	2282.150634765625	0.0	2.5731072E7	0.0	2.0	9.87602944E8	36.10371780395508	0.0	0.0	1.06133504E9	1.051189248E9	0.0	null	0.0729999989271164	0.05649999901652336	0.048250000923871994	0.9922500252723694	0.7654176354408264	0.0	244.0	371.0	0.0	0.0	0.0	0.0	0.0	0.0	null	null	null	null	null	null	null	null	335.0	336.0	333.0	335.0	334.0	335.0	334.0	335.0	336.0	336.0	332.0	
Mon Jun 05 08:21:00 UTC 2017	0.0	1.047281664E9	2282.150634765625	0.0	2.5731072E7	0.0	4.0	9.87389952E8	36.10371780395508	0.0	0.0	1.06133504E9	1.050161152E9	0.0	null	0.1042499989271164	0.05000000074505806	0.04625000059604645	0.9922500252723694	0.7675870656967163	0.0	244.0	371.0	0.0	0.0	0.0	0.0	0.0	0.0	null	null	null	null	null	null	null	null	338.0	334.0	339.0	336.0	337.0	332.0	337.0	334.0	332.0	334.0	334.0	
Mon Jun 05 08:20:00 UTC 2017	0.0	1.047281664E9	2551.3935546875	0.0	2.5731072E7	0.0	2.0	9.87480064E8	36.10371780395508	0.0	0.0	1.06133504E9	1.051189248E9	0.0	null	0.07050000131130219	0.04749999940395355	0.04924999922513962	0.9925000071525574	0.7652611136436462	0.0	244.0	371.0	0.0	0.0	0.0	0.0	0.0	0.0	null	null	null	null	null	null	null	null	338.0	338.0	335.0	336.0	337.0	337.0	333.0	338.0	336.0	335.0	338.0	
Mon Jun 05 08:19:00 UTC 2017	0.0	1.047281664E9	2551.3935546875	0.0	2.5731072E7	0.0	3.0	9.87389952E8	59.914703369140625	0.0	0.0	1.06133504E9	1.050161152E9	0.0	null	0.07800000160932541	0.04874999821186066	0.04650000110268593	0.9925000071525574	0.7652463912963867	0.0	244.0	371.0	0.0	0.0	0.0	0.0	0.0	0.0	null	null	null	null	null	null	null	null	336.0	333.0	336.0	337.0	336.0	336.0	337.0	339.0	336.0	335.0	336.0	
Mon Jun 05 08:18:00 UTC 2017	0.0	1.047281664E9	2551.3935546875	0.0	2.5731072E7	0.0	2.0	9.87389952E8	59.914703369140625	0.0	0.0	1.06133504E9	1.051189248E9	0.0	null	0.07000000029802322	0.05400000140070915	0.050999999046325684	0.9925000071525574	0.7675088047981262	0.0	244.0	371.0	0.0	0.0	0.0	0.0	0.0	0.0	null	null	null	null	null	null	null	null	335.0	337.0	335.0	337.0	338.0	334.0	336.0	334.0	337.0	337.0	336.0	
Mon Jun 05 08:17:00 UTC 2017	0.0	1.047281664E9	2757.494384765625	0.0	2.5731072E7	0.0	2.0	9.87389952E8	59.914703369140625	0.0	0.0	1.06133504E9	1.050161152E9	0.0	null	0.08224999904632568	0.04924999922513962	0.04800000041723251	0.9925000071525574	0.7652048468589783	0.0	244.0	371.0	0.0	0.0	0.0	0.0	0.0	0.0	null	null	null	null	null	null	null	null	335.0	336.0	336.0	336.0	337.0	339.0	337.0	338.0	337.0	336.0	337.0	
Mon Jun 05 08:16:00 UTC 2017	0.0	1.047281664E9	2463.2431640625	0.0	2.5731072E7	0.0	2.0	9.87271168E8	59.914703369140625	0.0	0.0	1.06133504E9	1.051189248E9	0.0	null	0.07199999690055847	0.05375000089406967	0.04899999871850014	0.9925000071525574	0.7651896476745605	0.0	244.0	371.0	0.0	0.0	0.0	0.0	0.0	0.0	null	null	null	null	null	null	null	null	341.0	334.0	338.0	332.0	335.0	334.0	337.0	333.0	332.0	334.0	336.0	
Mon Jun 05 08:15:00 UTC 2017	0.0	1.047281664E9	2977.71044921875	0.0	2.5731072E7	0.0	5.0	9.87271168E8	42.065589904785156	0.0	0.0	1.06133504E9	1.051189248E9	0.0	null	0.0689999982714653	0.04500000178813934	0.04149999842047691	0.9919999837875366	0.766484260559082	0.0	244.0	371.0	0.0	0.0	0.0	0.0	0.0	0.0	null	null	null	null	null	null	null	null	335.0	337.0	334.0	337.0	337.0	336.0	334.0	338.0	338.0	333.0	334.0	
Mon Jun 05 08:14:00 UTC 2017	0.0	1.047281664E9	2977.71044921875	0.0	2.5731072E7	0.0	2.0	9.87181056E8	31.452102661132812	0.0	0.0	1.06133504E9	1.050161152E9	0.0	0.0	0.08049999922513962	0.052000001072883606	0.04975000023841858	0.9922500252723694	0.7651974558830261	0.0	244.0	371.0	0.0	0.0	0.0	0.0	0.0	0.0	null	null	null	null	null	null	null	null	334.0	336.0	336.0	334.0	332.0	336.0	338.0	335.0	333.0	337.0	334.0	
Mon Jun 05 08:13:00 UTC 2017	0.0	1.047281664E9	2977.71044921875	0.0	2.5731072E7	0.0	2.0	9.87181056E8	37.04078674316406	0.0	0.0	1.06133504E9	1.051189248E9	0.0	0.0	0.07774999737739563	0.04800000041723251	0.04724999889731407	0.9922500252723694	0.7651461362838745	0.0	244.0	371.0	0.0	0.0	0.0	0.0	0.0	0.0	null	null	null	null	null	null	null	null	336.0	333.0	335.0	338.0	337.0	334.0	338.0	335.0	334.0	333.0	336.0	
Mon Jun 05 08:12:00 UTC 2017	0.0	1.047281664E9	2977.71044921875	0.0	2.5731072E7	0.0	3.0	9.87181056E8	37.04078674316406	0.0	0.0	1.06133504E9	1.051189248E9	0.0	0.0	0.07225000113248825	0.05375000089406967	0.04600000008940697	0.9922500252723694	0.7651495337486267	0.0	244.0	371.0	0.0	0.0	0.0	0.0	0.0	0.0	null	null	null	null	null	null	null	null	336.0	334.0	335.0	332.0	337.0	334.0	334.0	335.0	337.0	338.0	334.0	
Mon Jun 05 08:11:00 UTC 2017	0.0	1.047281664E9	2604.396240234375	0.0	2.5731072E7	0.0	7.0	9.86968064E8	48.340675354003906	0.0	0.0	1.06133504E9	1.050161152E9	0.0	0.0	0.10824999958276749	0.05225000157952309	0.04800000041723251	0.9922500252723694	0.7651304602622986	0.0	244.0	371.0	0.0	0.0	0.0	0.0	0.0	0.0	null	null	null	null	null	null	null	null	335.0	335.0	336.0	334.0	334.0	338.0	337.0	334.0	337.0	335.0	340.0	
Mon Jun 05 08:10:00 UTC 2017	0.0	1.047281664E9	2604.396240234375	0.0	2.5731072E7	0.0	4.0	9.8732032E8	48.340675354003906	0.0	0.0	1.06133504E9	1.050161152E9	0.0	0.0	0.06674999743700027	0.04450000077486038	0.04874999821186066	0.9922500252723694	0.7651045322418213	0.0	244.0	371.0	0.0	0.0	0.0	0.0	0.0	0.0	null	null	null	null	null	null	null	null	338.0	334.0	335.0	336.0	339.0	334.0	334.0	336.0	337.0	337.0	335.0	
Mon Jun 05 08:09:00 UTC 2017	0.0	1.047281664E9	3070.681884765625	0.0	2.5731072E7	0.0	2.0	9.8699264E8	48.340675354003906	0.0	0.0	1.06133504E9	1.051189248E9	0.0	0.0	0.08550000190734863	0.05400000140070915	0.05000000074505806	0.9919999837875366	0.7651045322418213	0.0	244.0	371.0	0.0	0.0	0.0	0.0	0.0	0.0	null	null	null	null	null	null	null	null	336.0	335.0	334.0	336.0	336.0	336.0	340.0	336.0	336.0	334.0	336.0	
Mon Jun 05 08:08:00 UTC 2017	0.0	1.047281664E9	3070.681884765625	0.0	2.5731072E7	0.0	3.0	9.8699264E8	48.252559661865234	0.0	0.0	1.06133504E9	1.050161152E9	0.0	0.0	0.07000000029802322	0.04899999871850014	0.04899999871850014	0.9922500252723694	0.7650864124298096	0.0	244.0	371.0	0.0	0.0	0.0	0.0	0.0	0.0	null	null	null	null	null	null	null	null	335.0	336.0	337.0	333.0	336.0	336.0	332.0	336.0	333.0	339.0	336.0	
Mon Jun 05 08:07:00 UTC 2017	0.0	1.047281664E9	3070.681884765625	0.0	2.5731072E7	0.0	4.0	9.8699264E8	59.89296340942383	0.0	0.0	1.06133504E9	1.050161152E9	0.0	0.0	0.0729999989271164	0.05375000089406967	0.050999999046325684	0.9922500252723694	0.7673502564430237	0.0	244.0	371.0	0.0	0.0	0.0	0.0	0.0	0.0	null	null	null	null	null	null	null	null	339.0	334.0	334.0	334.0	339.0	334.0	337.0	336.0	333.0	335.0	333.0	
Mon Jun 05 08:06:00 UTC 2017	0.0	1.047281664E9	3262.5078125	0.0	2.5731072E7	0.0	4.0	9.87049984E8	59.89296340942383	0.0	0.0	1.06133504E9	1.050161152E9	0.0	0.0	0.08124999701976776	0.04899999871850014	0.04749999940395355	0.9919999837875366	0.7650634050369263	0.0	244.0	371.0	0.0	0.0	0.0	0.0	0.0	0.0	null	null	null	null	null	null	null	null	336.0	334.0	333.0	337.0	336.0	335.0	335.0	338.0	336.0	338.0	335.0	
Mon Jun 05 08:05:00 UTC 2017	0.0	1.047281664E9	3262.5078125	0.0	2.5731072E7	0.0	2.0	9.8686976E8	41.44579315185547	0.0	0.0	1.06133504E9	1.051189248E9	0.0	0.0	0.0702499970793724	0.05700000002980232	0.04600000008940697	0.9922500252723694	0.7668135166168213	0.0	244.0	371.0	0.0	0.0	0.0	0.0	0.0	0.0	null	null	null	null	null	null	null	null	335.0	337.0	336.0	336.0	334.0	335.0	334.0	336.0	333.0	335.0	336.0	
Mon Jun 05 08:04:00 UTC 2017	0.0	1.047281664E9	3262.5078125	0.0	2.5731072E7	0.0	2.0	9.86779648E8	41.44579315185547	1.0	2.0	1.06133504E9	1.051189248E9	0.0	0.0	0.0767500028014183	0.04924999922513962	0.04899999871850014	0.9917500019073486	0.7650051712989807	0.0	244.0	371.0	0.0	0.0	0.0	0.0	0.0	0.0	null	null	null	null	null	null	null	null	334.0	334.0	335.0	334.0	333.0	335.0	333.0	336.0	336.0	334.0	334.0	
Mon Jun 05 08:03:00 UTC 2017	0.0	1.047281664E9	2954.574462890625	0.0	2.5731072E7	0.0	2.0	9.86779648E8	39.08743667602539	2.0	1.0	1.06133504E9	1.050161152E9	0.0	0.0	0.07874999940395355	0.060750000178813934	0.0430000014603138	0.9922500252723694	0.7649953961372375	0.0	244.0	371.0	0.0	0.0	0.0	0.0	0.0	0.0	null	null	null	null	null	null	null	null	336.0	333.0	337.0	337.0	341.0	334.0	338.0	333.0	337.0	335.0	338.0	
Mon Jun 05 08:02:00 UTC 2017	0.0	1.047281664E9	2954.574462890625	0.0	2.5731072E7	0.0	3.0	9.86779648E8	38.9997673034668	0.0	0.0	1.06133504E9	1.051189248E9	0.0	0.0	0.07100000232458115	0.0507499985396862	0.05050000175833702	0.9919999837875366	0.7649802565574646	0.0	244.0	371.0	0.0	0.0	0.0	0.0	0.0	0.0	null	null	null	null	null	null	null	null	335.0	336.0	333.0	335.0	333.0	339.0	335.0	334.0	335.0	338.0	333.0	
Mon Jun 05 08:01:00 UTC 2017	0.0	1.047281664E9	2954.574462890625	0.0	2.5731072E7	0.0	2.0	9.86566656E8	38.50381088256836	0.0	0.0	1.06133504E9	1.051189248E9	0.0	0.0	0.09925000369548798	0.05000000074505806	0.045249998569488525	0.9922500252723694	0.7649650573730469	0.0	244.0	371.0	0.0	0.0	0.0	0.0	0.0	0.0	null	null	null	null	null	null	null	null	338.0	338.0	336.0	335.0	340.0	337.0	337.0	340.0	330.0	336.0	333.0	
Mon Jun 05 08:00:00 UTC 2017	0.0	1.047281664E9	2376.592041015625	0.0	2.5731072E7	0.0	2.0	9.86656768E8	46.888343811035156	0.0	0.0	1.06133504E9	1.051189248E9	0.0	0.0	0.07524999976158142	0.05350000038743019	0.04924999922513962	0.9917500019073486	0.7659127712249756	0.0	244.0	371.0	0.0	0.0	0.0	0.0	0.0	0.0	null	null	null	null	null	null	null	null	334.0	334.0	336.0	339.0	335.0	333.0	333.0	333.0	340.0	334.0	334.0	
Mon Jun 05 07:59:00 UTC 2017	0.0	1.047281664E9	2376.592041015625	0.0	2.5731072E7	0.0	2.0	9.86566656E8	38.908172607421875	0.0	0.0	1.06133504E9	1.051189248E9	0.0	0.0	0.07100000232458115	0.048500001430511475	0.04625000059604645	0.9919999837875366	0.764940619468689	0.0	244.0	371.0	0.0	0.0	0.0	0.0	0.0	0.0	null	null	null	null	null	null	null	null	335.0	337.0	336.0	336.0	335.0	337.0	340.0	338.0	334.0	335.0	334.0	
Mon Jun 05 07:58:00 UTC 2017	0.0	1.047281664E9	2376.592041015625	0.0	2.5731072E7	0.0	3.0	9.86566656E8	52.235435485839844	0.0	0.0	1.06133504E9	1.051189248E9	0.0	0.0	0.07999999821186066	0.050999999046325684	0.04774999991059303	0.9917500019073486	0.7649401426315308	0.0	244.0	371.0	0.0	0.0	0.0	0.0	0.0	0.0	null	null	null	null	null	null	null	null	335.0	332.0	336.0	332.0	333.0	334.0	334.0	330.0	333.0	335.0	339.0	
Mon Jun 05 07:57:00 UTC 2017	0.0	1.047281664E9	2644.53369140625	0.0	2.5731072E7	0.0	2.0	9.86566656E8	52.235435485839844	0.0	0.0	1.06133504E9	1.051189248E9	0.0	0.0	0.07450000196695328	0.051249999552965164	0.04625000059604645	0.9919999837875366	0.7648853063583374	0.0	244.0	371.0	0.0	0.0	0.0	0.0	0.0	0.0	null	null	null	null	null	null	null	null	338.0	337.0	335.0	335.0	338.0	338.0	334.0	334.0	337.0	339.0	335.0	
Mon Jun 05 07:56:00 UTC 2017	0.0	1.047281664E9	2644.53369140625	0.0	2.5731072E7	0.0	2.0	9.86447872E8	52.235435485839844	0.0	0.0	1.06133504E9	1.051189248E9	0.0	0.0	0.06975000351667404	0.051249999552965164	0.04800000041723251	0.9917500019073486	0.7649758458137512	0.0	244.0	371.0	0.0	0.0	0.0	0.0	0.0	0.0	null	null	null	null	null	null	null	null	333.0	337.0	333.0	339.0	335.0	333.0	336.0	337.0	335.0	334.0	332.0	
Mon Jun 05 07:55:00 UTC 2017	0.0	1.047281664E9	2644.53369140625	0.0	2.5731072E7	0.0	2.0	9.86447872E8	95.95777130126953	0.0	0.0	1.06133504E9	1.051189248E9	0.0	0.0	0.0794999971985817	0.05025000125169754	0.051500000059604645	0.9922500252723694	0.7649650573730469	0.0	244.0	371.0	0.0	0.0	0.0	0.0	0.0	0.0	null	null	null	null	null	null	null	null	336.0	338.0	339.0	332.0	334.0	338.0	336.0	339.0	336.0	336.0	337.0	
Mon Jun 05 07:54:00 UTC 2017	0.0	1.047281664E9	2644.53369140625	0.0	2.5731072E7	0.0	2.0	9.8635776E8	38.42954635620117	0.0	0.0	1.06133504E9	1.050161152E9	0.0	0.0	0.06975000351667404	0.04650000110268593	0.04924999922513962	0.9919999837875366	0.7649596929550171	0.0	244.0	371.0	0.0	0.0	0.0	0.0	0.0	0.0	null	null	null	null	null	null	null	null	338.0	334.0	331.0	333.0	339.0	332.0	336.0	334.0	335.0	336.0	338.0	
Mon Jun 05 07:53:00 UTC 2017	0.0	1.047281664E9	2857.246826171875	0.0	2.5731072E7	0.0	4.0	9.8635776E8	40.14116668701172	0.0	0.0	1.06133504E9	1.051189248E9	0.0	0.0	0.0767500028014183	0.05225000157952309	0.04724999889731407	0.9917500019073486	0.7649421095848083	0.0	244.0	371.0	0.0	0.0	0.0	0.0	0.0	0.0	null	null	null	null	null	null	null	null	332.0	337.0	336.0	338.0	332.0	334.0	332.0	333.0	334.0	335.0	334.0	
Mon Jun 05 07:52:00 UTC 2017	0.0	1.047281664E9	2857.246826171875	0.0	2.5731072E7	0.0	4.0	9.8635776E8	40.14116668701172	0.0	0.0	1.06133504E9	1.051189248E9	0.0	0.0	0.08574999868869781	0.05025000125169754	0.04574999958276749	0.9917500019073486	0.7654014825820923	0.0	244.0	371.0	0.0	0.0	0.0	0.0	0.0	0.0	null	null	null	null	null	null	null	null	333.0	335.0	338.0	333.0	336.0	337.0	334.0	336.0	333.0	336.0	331.0	
Mon Jun 05 07:51:00 UTC 2017	0.0	1.047281664E9	2857.246826171875	0.0	2.5731072E7	0.0	2.0	9.86144768E8	40.14116668701172	0.0	0.0	1.06133504E9	1.050161152E9	0.0	0.0	0.09175000339746475	0.054249998182058334	0.04625000059604645	0.9919999837875366	0.7649229764938354	0.0	244.0	371.0	0.0	0.0	0.0	0.0	0.0	0.0	null	null	null	null	null	null	null	null	338.0	336.0	335.0	336.0	337.0	334.0	337.0	336.0	337.0	334.0	335.0	
Mon Jun 05 07:50:00 UTC 2017	0.0	1.047281664E9	2857.246826171875	0.0	2.5731072E7	0.0	2.0	9.8623488E8	57.900699615478516	0.0	0.0	1.06133504E9	1.050161152E9	0.0	0.0	0.07824999839067459	0.05299999937415123	0.05050000175833702	0.9919999837875366	0.7649029493331909	0.0	244.0	371.0	0.0	0.0	0.0	0.0	0.0	0.0	null	null	null	null	null	null	null	null	336.0	334.0	332.0	334.0	334.0	335.0	335.0	335.0	335.0	334.0	337.0	
Mon Jun 05 07:49:00 UTC 2017	0.0	1.047281664E9	2473.802978515625	0.0	2.5731072E7	0.0	3.0	9.86144768E8	28.32692527770996	0.0	0.0	1.06133504E9	1.050161152E9	0.0	0.0	0.07225000113248825	0.04899999871850014	0.04749999940395355	0.9919999837875366	0.7674119472503662	0.0	244.0	371.0	0.0	0.0	0.0	0.0	0.0	0.0	null	null	null	null	null	null	null	null	330.0	337.0	335.0	335.0	331.0	338.0	337.0	335.0	335.0	337.0	332.0	
Mon Jun 05 07:48:00 UTC 2017	0.0	1.047281664E9	3124.83349609375	0.0	2.5731072E7	0.0	2.0	9.86144768E8	46.08173370361328	0.0	0.0	1.06133504E9	1.051189248E9	0.0	0.0	0.08524999767541885	0.0494999997317791	0.045499999076128006	0.9922500252723694	0.7648055553436279	0.0	244.0	371.0	0.0	0.0	0.0	0.0	0.0	0.0	null	null	null	null	null	null	null	null	337.0	335.0	337.0	339.0	335.0	333.0	335.0	335.0	336.0	336.0	334.0	
Mon Jun 05 07:47:00 UTC 2017	0.0	1.047281664E9	3124.83349609375	0.0	2.5731072E7	0.0	3.0	9.86144768E8	46.08173370361328	0.0	0.0	1.06133504E9	1.051189248E9	0.0	0.0	0.06750000268220901	0.0507499985396862	0.04774999991059303	0.9917500019073486	0.767085075378418	0.0	244.0	371.0	0.0	0.0	0.0	0.0	0.0	0.0	null	null	null	null	null	null	null	null	334.0	338.0	337.0	333.0	337.0	336.0	333.0	331.0	332.0	334.0	335.0	
Mon Jun 05 07:46:00 UTC 2017	0.0	1.047281664E9	2540.211669921875	0.0	2.5731072E7	0.0	6.0	9.8592768E8	46.08173370361328	0.0	0.0	1.06133504E9	1.050161152E9	0.0	0.0	0.07575000077486038	0.05050000175833702	0.0494999997317791	0.9919999837875366	0.7647625207901001	0.0	244.0	371.0	0.0	0.0	0.0	0.0	0.0	0.0	null	null	null	null	null	null	null	null	334.0	333.0	334.0	336.0	337.0	336.0	336.0	336.0	338.0	335.0	337.0	
Mon Jun 05 07:45:00 UTC 2017	0.0	1.047281664E9	3095.119873046875	0.0	2.5731072E7	0.0	6.0	9.86017792E8	46.08173370361328	0.0	0.0	1.06133504E9	1.051189248E9	0.0	0.0	0.07599999755620956	0.05400000140070915	0.04349999874830246	0.9919999837875366	0.7647086977958679	0.0	244.0	371.0	0.0	0.0	0.0	0.0	0.0	0.0	null	null	null	null	null	null	null	null	334.0	333.0	337.0	336.0	335.0	334.0	337.0	335.0	332.0	335.0	337.0	
Mon Jun 05 07:44:00 UTC 2017	0.0	1.047281664E9	2475.296142578125	0.0	2.5731072E7	0.0	3.0	9.8592768E8	46.08173370361328	0.0	0.0	1.06133504E9	1.051189248E9	0.0	0.0	0.07724999636411667	0.0442500002682209	0.051249999552965164	0.9919999837875366	0.764740526676178	0.0	244.0	371.0	0.0	0.0	0.0	0.0	0.0	0.0	null	null	null	null	null	null	null	null	338.0	336.0	333.0	339.0	335.0	336.0	333.0	335.0	336.0	335.0	333.0	
Mon Jun 05 07:43:00 UTC 2017	0.0	1.047281664E9	2475.296142578125	0.0	2.5731072E7	0.0	2.0	9.8592768E8	46.08173370361328	0.0	0.0	1.06133504E9	1.050161152E9	0.0	0.0	0.0702499970793724	0.04975000023841858	0.045249998569488525	0.9919999837875366	0.7647547125816345	0.0	244.0	371.0	0.0	0.0	0.0	0.0	0.0	0.0	null	null	null	null	null	null	null	null	336.0	335.0	336.0	335.0	335.0	336.0	335.0	336.0	339.0	335.0	337.0	
Mon Jun 05 07:42:00 UTC 2017	0.0	1.047281664E9	2930.53466796875	0.0	2.5731072E7	0.0	3.0	9.8592768E8	46.08173370361328	0.0	0.0	1.06133504E9	1.050161152E9	0.0	null	0.08124999701976776	0.0560000017285347	0.04874999821186066	0.9919999837875366	0.7647390365600586	0.0	244.0	371.0	0.0	0.0	0.0	0.0	0.0	0.0	null	null	null	null	null	null	null	null	335.0	334.0	335.0	333.0	336.0	334.0	337.0	334.0	333.0	334.0	330.0	
Mon Jun 05 07:41:00 UTC 2017	0.0	1.047281664E9	2930.53466796875	0.0	2.5731072E7	0.0	2.0	9.85718784E8	42.06293487548828	0.0	0.0	1.06133504E9	1.051189248E9	0.0	0.0	0.09350000321865082	0.045249998569488525	0.04899999871850014	0.9919999837875366	0.764702320098877	0.0	244.0	371.0	0.0	0.0	0.0	0.0	0.0	0.0	null	null	null	null	null	null	null	null	334.0	339.0	336.0	339.0	334.0	336.0	334.0	337.0	340.0	338.0	338.0	
Mon Jun 05 07:40:00 UTC 2017	0.0	1.047281664E9	2301.846435546875	0.0	2.5731072E7	0.0	2.0	9.85808896E8	42.06293487548828	0.0	0.0	1.06133504E9	1.050161152E9	0.0	0.0	0.08124999701976776	0.05274999886751175	0.04800000041723251	0.9922500252723694	0.766975998878479	0.0	244.0	371.0	0.0	0.0	0.0	0.0	0.0	0.0	null	null	null	null	null	null	null	null	337.0	334.0	335.0	336.0	335.0	334.0	335.0	336.0	336.0	334.0	337.0	
Mon Jun 05 07:39:00 UTC 2017	0.0	1.047281664E9	2301.846435546875	0.0	2.5731072E7	0.0	2.0	9.85718784E8	42.06293487548828	0.0	0.0	1.06133504E9	1.051189248E9	0.0	0.0	0.07050000131130219	0.051500000059604645	0.04749999940395355	0.9919999837875366	0.764693558216095	0.0	244.0	371.0	0.0	0.0	0.0	0.0	0.0	0.0	null	null	null	null	null	null	null	null	335.0	337.0	337.0	333.0	334.0	335.0	336.0	332.0	335.0	335.0	334.0	
Mon Jun 05 07:38:00 UTC 2017	0.0	1.047281664E9	2301.846435546875	0.0	2.5731072E7	0.0	2.0	9.85718784E8	42.06293487548828	0.0	0.0	1.06133504E9	1.050161152E9	0.0	null	0.07275000214576721	0.04975000023841858	0.04349999874830246	0.9919999837875366	0.7646725177764893	0.0	244.0	371.0	0.0	0.0	0.0	0.0	0.0	0.0	null	null	null	null	null	null	null	null	336.0	334.0	335.0	340.0	334.0	333.0	338.0	336.0	335.0	338.0	339.0	
Mon Jun 05 07:37:00 UTC 2017	0.0	1.047281664E9	2301.846435546875	0.0	2.5731072E7	0.0	3.0	9.85718784E8	58.467308044433594	0.0	0.0	1.06133504E9	1.050161152E9	0.0	null	0.07800000160932541	0.054499998688697815	0.048250000923871994	0.9922500252723694	0.7646725177764893	0.0	244.0	371.0	0.0	0.0	0.0	0.0	0.0	0.0	null	null	null	null	null	null	null	null	336.0	337.0	338.0	334.0	337.0	334.0	334.0	336.0	336.0	333.0	336.0	
Mon Jun 05 07:36:00 UTC 2017	0.0	1.047281664E9	2394.5439453125	0.0	2.5731072E7	0.0	2.0	9.85505792E8	49.7125244140625	0.0	0.0	1.06133504E9	1.051189248E9	0.0	0.0	0.07874999940395355	0.0507499985396862	0.04899999871850014	0.9919999837875366	0.7669392824172974	0.0	244.0	371.0	0.0	0.0	0.0	0.0	0.0	0.0	null	null	null	null	null	null	null	null	336.0	335.0	333.0	334.0	335.0	338.0	339.0	334.0	334.0	338.0	333.0	
Mon Jun 05 07:35:00 UTC 2017	0.0	1.047281664E9	2394.5439453125	0.0	2.5731072E7	0.0	5.0	9.85595904E8	49.7125244140625	0.0	1.0	1.06133504E9	1.050161152E9	0.0	0.0	0.07374999672174454	0.05274999886751175	0.04924999922513962	0.9917500019073486	0.7646269798278809	0.0	244.0	371.0	0.0	0.0	0.0	0.0	0.0	0.0	null	null	null	null	null	null	null	null	334.0	335.0	335.0	334.0	335.0	335.0	337.0	336.0	340.0	333.0	339.0	
Mon Jun 05 07:34:00 UTC 2017	0.0	1.047281664E9	2394.5439453125	0.0	2.5731072E7	0.0	3.0	9.85505792E8	42.162715911865234	0.0	0.0	1.06133504E9	1.050161152E9	0.0	0.0	0.07774999737739563	0.04800000041723251	0.04975000023841858	0.9919999837875366	0.7669035792350769	0.0	244.0	371.0	0.0	0.0	0.0	0.0	0.0	0.0	null	null	null	null	null	null	null	null	335.0	335.0	335.0	339.0	335.0	334.0	337.0	334.0	335.0	333.0	334.0	
Mon Jun 05 07:33:00 UTC 2017	0.0	1.047281664E9	2394.5439453125	0.0	2.5731072E7	0.0	2.0	9.85505792E8	41.80690002441406	0.0	0.0	1.06133504E9	1.051189248E9	0.0	0.0	0.06650000065565109	0.05225000157952309	0.0430000014603138	0.9919999837875366	0.7646269798278809	0.0	244.0	371.0	0.0	0.0	0.0	0.0	0.0	0.0	null	null	null	null	null	null	null	null	335.0	336.0	337.0	334.0	335.0	336.0	335.0	338.0	336.0	336.0	334.0	
Mon Jun 05 07:32:00 UTC 2017	0.0	1.047281664E9	2394.5439453125	0.0	2.5731072E7	0.0	3.0	9.85505792E8	41.80690002441406	0.0	1.0	1.06133504E9	1.050161152E9	0.0	0.0	0.08100000023841858	0.0494999997317791	0.05225000157952309	0.9919999837875366	0.7646118402481079	0.0	244.0	371.0	0.0	0.0	0.0	0.0	0.0	0.0	null	null	null	null	null	null	null	null	337.0	331.0	332.0	337.0	337.0	337.0	336.0	334.0	333.0	336.0	339.0	
Mon Jun 05 07:31:00 UTC 2017	0.0	1.047281664E9	2394.5439453125	0.0	2.5731072E7	0.0	2.0	9.85563136E8	41.80690002441406	1.0	3.0	1.06133504E9	1.051189248E9	0.0	0.0	0.09300000220537186	0.05849999934434891	0.045249998569488525	0.9919999837875366	0.7662337422370911	0.0	244.0	371.0	0.0	0.0	0.0	0.0	0.0	0.0	null	null	null	null	null	null	null	null	333.0	340.0	339.0	334.0	336.0	336.0	336.0	336.0	334.0	337.0	333.0	
Mon Jun 05 07:30:00 UTC 2017	0.0	1.047281664E9	2832.952392578125	0.0	2.5731072E7	0.0	3.0	9.85382912E8	41.80690002441406	0.0	0.0	1.06133504E9	1.051189248E9	0.0	0.0	0.08275000005960464	0.04800000041723251	0.04650000110268593	0.9919999837875366	0.7645946741104126	0.0	244.0	371.0	0.0	0.0	0.0	0.0	0.0	0.0	null	null	null	null	null	null	null	null	335.0	333.0	336.0	335.0	333.0	337.0	334.0	336.0	338.0	336.0	336.0	
Mon Jun 05 07:29:00 UTC 2017	0.0	1.047281664E9	2832.952392578125	0.0	2.5731072E7	0.0	2.0	9.852928E8	41.80690002441406	0.0	0.0	1.06133504E9	1.050161152E9	0.0	0.0	0.06875000149011612	0.05400000140070915	0.04749999940395355	0.9922500252723694	0.7645770907402039	0.0	244.0	371.0	0.0	0.0	0.0	0.0	0.0	0.0	null	null	null	null	null	null	null	null	339.0	336.0	334.0	333.0	339.0	334.0	337.0	333.0	336.0	334.0	336.0	
Mon Jun 05 07:28:00 UTC 2017	0.0	1.047281664E9	2832.952392578125	0.0	2.5731072E7	0.0	2.0	9.852928E8	49.47249984741211	0.0	0.0	1.06133504E9	1.050161152E9	0.0	0.0	0.07599999755620956	0.0494999997317791	0.04625000059604645	0.9922500252723694	0.7645604610443115	0.0	244.0	371.0	0.0	0.0	0.0	0.0	0.0	0.0	null	null	null	null	null	null	null	null	334.0	335.0	336.0	339.0	333.0	338.0	339.0	337.0	334.0	339.0	331.0	
Mon Jun 05 07:27:00 UTC 2017	0.0	1.047281664E9	2832.952392578125	0.0	2.5731072E7	0.0	2.0	9.852928E8	36.35382080078125	1.0	1.0	1.06133504E9	1.051189248E9	0.0	null	0.07824999839067459	0.04749999940395355	0.05000000074505806	0.9922500252723694	0.7644767761230469	0.0	244.0	371.0	0.0	0.0	0.0	0.0	0.0	0.0	null	null	null	null	null	null	null	null	333.0	339.0	336.0	338.0	331.0	334.0	334.0	337.0	334.0	336.0	333.0	
Mon Jun 05 07:26:00 UTC 2017	0.0	1.047281664E9	2832.952392578125	0.0	2.5731072E7	0.0	2.0	9.85083904E8	58.64466857910156	0.0	0.0	1.06133504E9	1.051189248E9	0.0	null	0.0729999989271164	0.05324999988079071	0.045499999076128006	0.9919999837875366	0.7667460441589355	0.0	244.0	371.0	0.0	0.0	0.0	0.0	0.0	0.0	null	null	null	null	null	null	null	null	338.0	334.0	331.0	332.0	337.0	333.0	339.0	335.0	334.0	334.0	337.0	
Mon Jun 05 07:25:00 UTC 2017	0.0	1.047281664E9	2518.9375	0.0	2.5731072E7	0.0	2.0	9.8516992E8	58.64466857910156	0.0	0.0	1.06133504E9	1.050161152E9	0.0	null	0.07999999821186066	0.04749999940395355	0.04899999871850014	0.9922500252723694	0.7644498944282532	0.0	244.0	371.0	0.0	0.0	0.0	0.0	0.0	0.0	null	null	null	null	null	null	null	null	336.0	336.0	338.0	338.0	338.0	337.0	332.0	337.0	337.0	335.0	334.0	
Mon Jun 05 07:24:00 UTC 2017	0.0	1.047281664E9	3284.0869140625	0.0	2.5731072E7	0.0	2.0	9.85079808E8	34.22488021850586	0.0	0.0	1.06133504E9	1.050161152E9	0.0	null	0.06575000286102295	0.05700000002980232	0.04724999889731407	0.9919999837875366	0.7655052542686462	0.0	244.0	371.0	0.0	0.0	0.0	0.0	0.0	0.0	null	null	null	null	null	null	null	null	333.0	332.0	331.0	333.0	335.0	341.0	339.0	337.0	339.0	339.0	333.0	
Mon Jun 05 07:23:00 UTC 2017	0.0	1.047281664E9	3284.0869140625	0.0	2.5731072E7	0.0	5.0	9.85079808E8	34.22488021850586	0.0	0.0	1.06133504E9	1.051189248E9	0.0	null	0.07474999874830246	0.051249999552965164	0.045249998569488525	0.9922500252723694	0.7666139006614685	0.0	244.0	371.0	0.0	0.0	0.0	0.0	0.0	0.0	null	null	null	null	null	null	null	null	340.0	334.0	336.0	335.0	334.0	336.0	333.0	335.0	336.0	337.0	339.0	
Mon Jun 05 07:22:00 UTC 2017	0.0	1.047281664E9	2808.430419921875	0.0	2.5731072E7	0.0	3.0	9.85079808E8	40.21949768066406	0.0	0.0	1.06133504E9	1.050161152E9	0.0	0.0	0.0767500028014183	0.0494999997317791	0.05225000157952309	0.9922500252723694	0.7659387588500977	0.0	244.0	371.0	0.0	0.0	0.0	0.0	0.0	0.0	null	null	null	null	null	null	null	null	335.0	341.0	334.0	333.0	334.0	336.0	342.0	337.0	333.0	335.0	331.0	
Mon Jun 05 07:21:00 UTC 2017	0.0	1.047281664E9	3099.2802734375	0.0	2.5731072E7	0.0	2.0	9.84870912E8	40.21949768066406	0.0	0.0	1.06133504E9	1.051189248E9	0.0	0.0	0.1054999977350235	0.04749999940395355	0.042750000953674316	0.9925000071525574	0.764392614364624	0.0	244.0	371.0	0.0	0.0	0.0	0.0	0.0	0.0	null	null	null	null	null	null	null	null	335.0	334.0	333.0	334.0	335.0	339.0	336.0	335.0	341.0	336.0	340.0	
Mon Jun 05 07:20:00 UTC 2017	0.0	1.047281664E9	3099.2802734375	0.0	2.5731072E7	0.0	2.0	9.85141248E8	41.988155364990234	0.0	0.0	1.06133504E9	1.051189248E9	0.0	0.0	0.06525000184774399	0.05050000175833702	0.05400000140070915	0.9919999837875366	0.7643735408782959	0.0	244.0	371.0	0.0	0.0	0.0	0.0	0.0	0.0	null	null	null	null	null	null	null	null	336.0	335.0	339.0	335.0	337.0	333.0	334.0	334.0	335.0	333.0	333.0	
Mon Jun 05 07:19:00 UTC 2017	0.0	1.047281664E9	2998.050048828125	0.0	2.5731072E7	0.0	2.0	9.84870912E8	61.61655044555664	0.0	0.0	1.06133504E9	1.050161152E9	0.0	0.0	0.0860000029206276	0.04899999871850014	0.04625000059604645	0.9922500252723694	0.7643579244613647	0.0	244.0	371.0	0.0	0.0	0.0	0.0	0.0	0.0	null	null	null	null	null	null	null	null	339.0	334.0	333.0	333.0	333.0	338.0	339.0	333.0	334.0	335.0	335.0	
Mon Jun 05 07:18:00 UTC 2017	0.0	1.047281664E9	2998.050048828125	0.0	2.5731072E7	0.0	2.0	9.84870912E8	72.42938232421875	0.0	0.0	1.06133504E9	1.050161152E9	0.0	0.0	0.07474999874830246	0.054999999701976776	0.048500001430511475	0.9922500252723694	0.7643148303031921	0.0	244.0	371.0	0.0	0.0	0.0	0.0	0.0	0.0	null	null	null	null	null	null	null	null	333.0	335.0	337.0	334.0	334.0	334.0	333.0	339.0	337.0	335.0	335.0	
Mon Jun 05 07:17:00 UTC 2017	0.0	1.047281664E9	2998.050048828125	0.0	2.5731072E7	0.0	2.0	9.84870912E8	72.42938232421875	0.0	0.0	1.06133504E9	1.051189248E9	0.0	0.0	0.07724999636411667	0.048500001430511475	0.04874999821186066	0.9919999837875366	0.764298677444458	0.0	244.0	371.0	0.0	0.0	0.0	0.0	0.0	0.0	null	null	null	null	null	null	null	null	337.0	335.0	333.0	335.0	337.0	336.0	336.0	332.0	332.0	335.0	333.0	
Mon Jun 05 07:16:00 UTC 2017	0.0	1.047281664E9	3115.3388671875	0.0	2.5731072E7	0.0	3.0	9.8465792E8	47.691802978515625	0.0	0.0	1.06133504E9	1.051189248E9	0.0	0.0	0.06525000184774399	0.05299999937415123	0.04749999940395355	0.9922500252723694	0.7643290162086487	0.0	244.0	371.0	0.0	0.0	0.0	0.0	0.0	0.0	null	null	null	null	null	null	null	null	336.0	335.0	338.0	335.0	334.0	340.0	335.0	338.0	336.0	334.0	334.0	
Mon Jun 05 07:15:00 UTC 2017	0.0	1.047281664E9	2776.46826171875	0.0	2.5731072E7	0.0	2.0	9.84748032E8	47.691802978515625	0.0	0.0	1.06133504E9	1.050161152E9	0.0	0.0	0.07649999856948853	0.04600000008940697	0.04450000077486038	0.9922500252723694	0.7665625214576721	0.0	244.0	371.0	0.0	0.0	0.0	0.0	0.0	0.0	null	null	null	null	null	null	null	null	333.0	337.0	337.0	337.0	338.0	332.0	332.0	338.0	335.0	338.0	338.0	
Mon Jun 05 07:14:00 UTC 2017	0.0	1.047281664E9	2776.46826171875	0.0	2.5731072E7	0.0	2.0	9.8465792E8	54.39622116088867	0.0	0.0	1.06133504E9	1.050161152E9	0.0	0.0	0.07599999755620956	0.05575000122189522	0.05000000074505806	0.9922500252723694	0.7665987610816956	0.0	244.0	371.0	0.0	0.0	0.0	0.0	0.0	0.0	null	null	null	null	null	null	null	null	335.0	335.0	333.0	337.0	333.0	332.0	337.0	333.0	337.0	337.0	337.0	
Mon Jun 05 07:13:00 UTC 2017	0.0	1.047281664E9	2685.85888671875	0.0	2.5731072E7	0.0	2.0	9.8465792E8	54.39622116088867	1.0	1.0	1.06133504E9	1.050161152E9	0.0	0.0	0.08174999803304672	0.04774999991059303	0.04699999839067459	0.9915000200271606	0.7642918229103088	0.0	244.0	371.0	0.0	0.0	0.0	0.0	0.0	0.0	null	null	null	null	null	null	null	null	338.0	335.0	335.0	332.0	335.0	337.0	335.0	336.0	335.0	335.0	333.0	
Mon Jun 05 07:12:00 UTC 2017	0.0	1.047281664E9	2685.85888671875	0.0	2.5731072E7	0.0	2.0	9.8465792E8	54.39622116088867	0.0	0.0	1.06133504E9	1.051189248E9	0.0	0.0	0.07524999976158142	0.05299999937415123	0.04749999940395355	0.9919999837875366	0.7665013670921326	0.0	244.0	371.0	0.0	0.0	0.0	0.0	0.0	0.0	null	null	null	null	null	null	null	null	338.0	335.0	333.0	334.0	338.0	335.0	336.0	335.0	335.0	336.0	336.0	
Mon Jun 05 07:11:00 UTC 2017	0.0	1.047281664E9	2685.85888671875	0.0	2.5731072E7	0.0	2.0	9.84797184E8	54.39622116088867	0.0	0.0	1.06133504E9	1.051189248E9	0.0	0.0	0.09449999779462814	0.0494999997317791	0.04600000008940697	0.9922500252723694	0.7642707824707031	0.0	244.0	371.0	0.0	0.0	0.0	0.0	0.0	0.0	null	null	null	null	null	null	null	null	334.0	337.0	334.0	334.0	333.0	337.0	338.0	331.0	337.0	332.0	333.0	
Mon Jun 05 07:10:00 UTC 2017	0.0	1.047281664E9	3289.994384765625	0.0	2.5731072E7	0.0	3.0	9.84797184E8	56.43348693847656	0.0	0.0	1.06133504E9	1.051189248E9	0.0	null	0.0689999982714653	0.0572500005364418	0.05249999836087227	0.9919999837875366	0.7642595767974854	0.0	244.0	371.0	0.0	0.0	0.0	0.0	0.0	0.0	null	null	null	null	null	null	null	null	336.0	336.0	337.0	338.0	337.0	333.0	333.0	338.0	334.0	337.0	335.0	
Mon Jun 05 07:09:00 UTC 2017	0.0	1.047281664E9	3289.994384765625	0.0	2.5731072E7	0.0	2.0	9.84428544E8	39.69308090209961	0.0	0.0	1.06133504E9	1.050161152E9	0.0	0.0	0.07824999839067459	0.04749999940395355	0.04149999842047691	0.9919999837875366	0.7641944885253906	0.0	244.0	371.0	0.0	0.0	0.0	0.0	0.0	0.0	null	null	null	null	null	null	null	null	335.0	337.0	335.0	338.0	336.0	336.0	335.0	333.0	336.0	334.0	336.0	
Mon Jun 05 07:08:00 UTC 2017	0.0	1.047281664E9	2093.705322265625	0.0	2.5731072E7	0.0	2.0	9.84428544E8	36.295326232910156	0.0	0.0	1.06133504E9	1.051189248E9	0.0	0.0	0.07925000041723251	0.054249998182058334	0.0507499985396862	0.9919999837875366	0.7641949653625488	0.0	244.0	371.0	0.0	0.0	0.0	0.0	0.0	0.0	null	null	null	null	null	null	null	null	335.0	335.0	336.0	332.0	336.0	334.0	338.0	337.0	335.0	333.0	334.0	
Mon Jun 05 07:07:00 UTC 2017	0.0	1.047281664E9	2902.934814453125	0.0	2.5731072E7	0.0	2.0	9.84428544E8	36.295326232910156	0.0	0.0	1.06133504E9	1.050161152E9	0.0	0.0	0.07349999994039536	0.04724999889731407	0.04800000041723251	0.9917500019073486	0.7654293775558472	0.0	244.0	371.0	0.0	0.0	0.0	0.0	0.0	0.0	null	null	null	null	null	null	null	null	334.0	336.0	336.0	337.0	331.0	338.0	331.0	336.0	334.0	336.0	338.0	
Mon Jun 05 07:06:00 UTC 2017	0.0	1.047281664E9	2693.71630859375	0.0	2.5731072E7	0.0	2.0	9.84219648E8	51.66756057739258	0.0	0.0	1.06133504E9	1.051189248E9	0.0	0.0	0.08250000327825546	0.05575000122189522	0.04475000128149986	0.9919999837875366	0.7641763687133789	0.0	244.0	371.0	0.0	0.0	0.0	0.0	0.0	0.0	null	null	null	null	null	null	null	null	336.0	329.0	335.0	335.0	337.0	334.0	335.0	332.0	335.0	335.0	330.0	
Mon Jun 05 07:05:00 UTC 2017	0.0	1.047281664E9	2893.865234375	0.0	2.5731072E7	0.0	4.0	9.84305664E8	51.66756057739258	0.0	0.0	1.06133504E9	1.050161152E9	0.0	0.0	0.07050000131130219	0.04600000008940697	0.05225000157952309	0.9919999837875366	0.7641744017601013	0.0	244.0	371.0	0.0	0.0	0.0	0.0	0.0	0.0	null	null	null	null	null	null	null	null	337.0	336.0	338.0	338.0	332.0	335.0	336.0	335.0	335.0	333.0	336.0	
Mon Jun 05 07:04:00 UTC 2017	0.0	1.047281664E9	2893.865234375	0.0	2.5731072E7	0.0	2.0	9.84215552E8	51.66756057739258	0.0	0.0	1.06133504E9	1.050161152E9	0.0	null	0.06925000250339508	0.054499998688697815	0.04500000178813934	0.9919999837875366	0.7664461135864258	0.0	244.0	371.0	0.0	0.0	0.0	0.0	0.0	0.0	null	null	null	null	null	null	null	null	332.0	333.0	336.0	332.0	336.0	339.0	334.0	338.0	337.0	334.0	335.0	
Mon Jun 05 07:03:00 UTC 2017	0.0	1.047281664E9	2893.865234375	0.0	2.5731072E7	0.0	2.0	9.84215552E8	46.56917190551758	1.0	1.0	1.06133504E9	1.050161152E9	0.0	null	0.07774999737739563	0.04899999871850014	0.05000000074505806	0.9919999837875366	0.7641411423683167	0.0	244.0	371.0	0.0	0.0	0.0	0.0	0.0	0.0	null	null	null	null	null	null	null	null	339.0	335.0	333.0	333.0	336.0	336.0	337.0	334.0	336.0	334.0	336.0	
Mon Jun 05 07:02:00 UTC 2017	0.0	1.047281664E9	2325.664306640625	0.0	2.5731072E7	0.0	3.0	9.84215552E8	46.56917190551758	0.0	0.0	1.06133504E9	1.051189248E9	0.0	null	0.0729999989271164	0.04800000041723251	0.045499999076128006	0.9922500252723694	0.7650110721588135	0.0	244.0	371.0	0.0	0.0	0.0	0.0	0.0	0.0	null	null	null	null	null	null	null	null	332.0	331.0	337.0	337.0	337.0	339.0	337.0	333.0	333.0	335.0	336.0	
Mon Jun 05 07:01:00 UTC 2017	0.0	1.047281664E9	2325.664306640625	0.0	2.5731072E7	0.0	2.0	9.84006656E8	46.56917190551758	0.0	0.0	1.06133504E9	1.051189248E9	0.0	null	0.10199999809265137	0.051500000059604645	0.04600000008940697	0.9917500019073486	0.7640672922134399	0.0	244.0	371.0	0.0	0.0	0.0	0.0	0.0	0.0	null	null	null	null	null	null	null	null	336.0	334.0	336.0	334.0	336.0	333.0	334.0	336.0	335.0	332.0	334.0	
Mon Jun 05 07:00:00 UTC 2017	0.0	1.047281664E9	2684.863525390625	0.0	2.5731072E7	0.0	2.0	9.84096768E8	46.56917190551758	0.0	0.0	1.06133504E9	1.050161152E9	0.0	null	0.07249999791383743	0.04924999922513962	0.0494999997317791	0.9917500019073486	0.7640662789344788	0.0	244.0	371.0	0.0	0.0	0.0	0.0	0.0	0.0	null	null	null	null	null	null	null	null	333.0	337.0	333.0	336.0	336.0	334.0	334.0	333.0	332.0	336.0	335.0	
Mon Jun 05 06:59:00 UTC 2017	0.0	1.047281664E9	2684.863525390625	0.0	2.5731072E7	0.0	2.0	9.84006656E8	46.56917190551758	0.0	0.0	1.06133504E9	1.051189248E9	0.0	null	0.07599999755620956	0.051500000059604645	0.04500000178813934	0.9919999837875366	0.7640511393547058	0.0	244.0	371.0	0.0	0.0	0.0	0.0	0.0	0.0	null	null	null	null	null	null	null	null	334.0	333.0	338.0	335.0	332.0	340.0	335.0	335.0	336.0	331.0	334.0	
Mon Jun 05 06:58:00 UTC 2017	0.0	1.047281664E9	2684.863525390625	0.0	2.5731072E7	0.0	3.0	9.84006656E8	46.56917190551758	0.0	0.0	1.06133504E9	1.050161152E9	0.0	null	0.07524999976158142	0.060499999672174454	0.05050000175833702	0.9919999837875366	0.7640472054481506	0.0	244.0	371.0	0.0	0.0	0.0	0.0	0.0	0.0	null	null	null	null	null	null	null	null	335.0	334.0	338.0	335.0	338.0	333.0	336.0	336.0	337.0	333.0	338.0	
Mon Jun 05 06:57:00 UTC 2017	0.0	1.047281664E9	2522.7333984375	0.0	2.5731072E7	0.0	3.0	9.84006656E8	46.56917190551758	0.0	0.0	1.06133504E9	1.051189248E9	0.0	0.0	0.08250000327825546	0.04800000041723251	0.04349999874830246	0.9917500019073486	0.7640300989151001	0.0	244.0	371.0	0.0	0.0	0.0	0.0	0.0	0.0	null	null	null	null	null	null	null	null	338.0	334.0	332.0	338.0	336.0	333.0	335.0	335.0	332.0	338.0	333.0	
Mon Jun 05 06:56:00 UTC 2017	0.0	1.047281664E9	2554.148681640625	0.0	2.5731072E7	0.0	2.0	9.83789568E8	46.56917190551758	0.0	0.0	1.06133504E9	1.050161152E9	0.0	0.0	0.06800000369548798	0.054749999195337296	0.05375000089406967	0.9917500019073486	0.764013946056366	0.0	244.0	371.0	0.0	0.0	0.0	0.0	0.0	0.0	null	null	null	null	null	null	null	null	333.0	334.0	336.0	333.0	336.0	337.0	333.0	333.0	337.0	334.0	335.0	
Mon Jun 05 06:55:00 UTC 2017	0.0	1.047281664E9	3380.946533203125	0.0	2.5731072E7	0.0	2.0	9.8387968E8	46.56917190551758	0.0	0.0	1.06133504E9	1.050161152E9	0.0	0.0	0.07824999839067459	0.05225000157952309	0.04749999940395355	0.9919999837875366	0.7640002369880676	0.0	244.0	371.0	0.0	0.0	0.0	0.0	0.0	0.0	null	null	null	null	null	null	null	null	334.0	334.0	337.0	339.0	338.0	334.0	336.0	335.0	334.0	336.0	336.0	
Mon Jun 05 06:54:00 UTC 2017	0.0	1.047281664E9	2254.081787109375	0.0	2.5731072E7	0.0	2.0	9.83789568E8	56.592899322509766	0.0	0.0	1.06133504E9	1.050161152E9	0.0	0.0	0.06925000250339508	0.04574999958276749	0.04675000160932541	0.9919999837875366	0.7639963030815125	0.0	244.0	371.0	0.0	0.0	0.0	0.0	0.0	0.0	null	null	null	null	null	null	null	null	334.0	333.0	335.0	339.0	336.0	335.0	334.0	335.0	336.0	336.0	341.0	
Mon Jun 05 06:53:00 UTC 2017	0.0	1.047281664E9	3085.104248046875	0.0	2.5731072E7	0.0	2.0	9.83789568E8	56.592899322509766	0.0	0.0	1.06133504E9	1.051189248E9	0.0	null	0.0807500034570694	0.0507499985396862	0.048500001430511475	0.9919999837875366	0.7639787197113037	0.0	244.0	371.0	0.0	0.0	0.0	0.0	0.0	0.0	null	null	null	null	null	null	null	null	333.0	333.0	340.0	336.0	338.0	334.0	335.0	336.0	338.0	336.0	333.0	
Mon Jun 05 06:52:00 UTC 2017	0.0	1.047281664E9	3023.011962890625	0.0	2.5731072E7	0.0	3.0	9.83789568E8	54.702083587646484	0.0	0.0	1.06133504E9	1.051189248E9	0.0	null	0.07524999976158142	0.05649999901652336	0.048500001430511475	0.9922500252723694	0.7639610767364502	0.0	244.0	371.0	0.0	0.0	0.0	0.0	0.0	0.0	null	null	null	null	null	null	null	null	332.0	332.0	338.0	337.0	332.0	333.0	336.0	337.0	334.0	333.0	341.0	
Mon Jun 05 06:51:00 UTC 2017	0.0	1.047281664E9	3023.011962890625	0.0	2.5731072E7	0.0	7.0	9.83666688E8	43.959228515625	0.0	0.0	1.06133504E9	1.050161152E9	0.0	null	0.09449999779462814	0.04874999821186066	0.04650000110268593	0.9922500252723694	0.7639361619949341	0.0	244.0	371.0	0.0	0.0	0.0	0.0	0.0	0.0	null	null	null	null	null	null	null	null	335.0	341.0	333.0	333.0	336.0	335.0	337.0	337.0	337.0	333.0	331.0	
Mon Jun 05 06:50:00 UTC 2017	0.0	1.047281664E9	3023.011962890625	0.0	2.5731072E7	0.0	4.0	9.83666688E8	43.959228515625	0.0	0.0	1.06133504E9	1.051189248E9	0.0	0.0	0.0754999965429306	0.051500000059604645	0.050999999046325684	0.9917500019073486	0.7662019729614258	0.0	244.0	371.0	0.0	0.0	0.0	0.0	0.0	0.0	null	null	null	null	null	null	null	null	335.0	334.0	336.0	335.0	333.0	333.0	334.0	332.0	332.0	341.0	336.0	
Mon Jun 05 06:49:00 UTC 2017	0.0	1.047281664E9	3266.001220703125	0.0	2.5731072E7	0.0	4.0	9.83576576E8	43.959228515625	0.0	0.0	1.06133504E9	1.050161152E9	0.0	0.0	0.07724999636411667	0.05249999836087227	0.04800000041723251	0.9917500019073486	0.7638955116271973	0.0	244.0	371.0	0.0	0.0	0.0	0.0	0.0	0.0	null	null	null	null	null	null	null	null	335.0	335.0	338.0	338.0	340.0	336.0	338.0	339.0	335.0	335.0	333.0	
Mon Jun 05 06:48:00 UTC 2017	0.0	1.047281664E9	3266.001220703125	0.0	2.5731072E7	0.0	4.0	9.83576576E8	43.959228515625	0.0	0.0	1.06133504E9	1.050161152E9	0.0	0.0	0.07275000214576721	0.05050000175833702	0.04450000077486038	0.9917500019073486	0.7638930678367615	0.0	244.0	371.0	0.0	0.0	0.0	0.0	0.0	0.0	null	null	null	null	null	null	null	null	335.0	338.0	332.0	331.0	334.0	335.0	338.0	335.0	337.0	333.0	335.0	
Mon Jun 05 06:47:00 UTC 2017	0.0	1.047281664E9	2433.5615234375	0.0	2.5731072E7	0.0	2.0	9.83576576E8	43.959228515625	0.0	0.0	1.06133504E9	1.050161152E9	0.0	0.0	0.07225000113248825	0.05025000125169754	0.04774999991059303	0.9919999837875366	0.7638764381408691	0.0	244.0	371.0	0.0	0.0	0.0	0.0	0.0	0.0	null	null	null	null	null	null	null	null	335.0	333.0	335.0	336.0	336.0	330.0	339.0	334.0	340.0	342.0	333.0	
Mon Jun 05 06:46:00 UTC 2017	0.0	1.047281664E9	2711.5458984375	0.0	2.5731072E7	0.0	2.0	9.83457792E8	43.959228515625	0.0	0.0	1.06133504E9	1.050161152E9	0.0	0.0	0.08250000327825546	0.05050000175833702	0.051500000059604645	0.9919999837875366	0.7638754844665527	0.0	244.0	371.0	0.0	0.0	0.0	0.0	0.0	0.0	null	null	null	null	null	null	null	null	333.0	334.0	334.0	336.0	332.0	336.0	336.0	333.0	333.0	332.0	334.0	
Mon Jun 05 06:45:00 UTC 2017	0.0	1.047281664E9	2711.5458984375	0.0	2.5731072E7	0.0	2.0	9.83457792E8	79.531005859375	0.0	0.0	1.06133504E9	1.051189248E9	0.0	0.0	0.07774999737739563	0.0507499985396862	0.04324999824166298	0.9919999837875366	0.7638593316078186	0.0	244.0	371.0	0.0	0.0	0.0	0.0	0.0	0.0	null	null	null	null	null	null	null	null	338.0	340.0	335.0	337.0	336.0	335.0	335.0	336.0	337.0	337.0	338.0	
Mon Jun 05 06:44:00 UTC 2017	0.0	1.047281664E9	3096.287841796875	0.0	2.5731072E7	0.0	2.0	9.8336768E8	46.11177444458008	0.0	0.0	1.06133504E9	1.051189248E9	0.0	0.0	0.07349999994039536	0.04500000178813934	0.05025000125169754	0.9922500252723694	0.7638363242149353	0.0	244.0	371.0	0.0	0.0	0.0	0.0	0.0	0.0	null	null	null	null	null	null	null	null	332.0	332.0	335.0	335.0	336.0	335.0	336.0	335.0	337.0	336.0	332.0	
Mon Jun 05 06:43:00 UTC 2017	0.0	1.047281664E9	3096.287841796875	0.0	2.5731072E7	0.0	2.0	9.8336768E8	36.490272521972656	0.0	0.0	1.06133504E9	1.051189248E9	0.0	0.0	0.07325000315904617	0.05400000140070915	0.04724999889731407	0.9919999837875366	0.7661119103431702	0.0	244.0	371.0	0.0	0.0	0.0	0.0	0.0	0.0	null	null	null	null	null	null	null	null	336.0	335.0	335.0	335.0	333.0	333.0	338.0	336.0	334.0	335.0	339.0	
Mon Jun 05 06:42:00 UTC 2017	0.0	1.047281664E9	3096.287841796875	0.0	2.5731072E7	0.0	3.0	9.8336768E8	36.490272521972656	0.0	0.0	1.06133504E9	1.050161152E9	0.0	0.0	0.06875000149011612	0.04675000160932541	0.05050000175833702	0.9919999837875366	0.7637888789176941	0.0	244.0	371.0	0.0	0.0	0.0	0.0	0.0	0.0	null	null	null	null	null	null	null	null	335.0	336.0	334.0	335.0	337.0	335.0	333.0	335.0	337.0	337.0	332.0	
Mon Jun 05 06:41:00 UTC 2017	0.0	1.047281664E9	3096.287841796875	0.0	2.5731072E7	0.0	2.0	9.83154688E8	36.490272521972656	0.0	0.0	1.06133504E9	1.050161152E9	0.0	0.0	0.10125000029802322	0.04975000023841858	0.04574999958276749	0.9922500252723694	0.7637683153152466	0.0	244.0	371.0	0.0	0.0	0.0	0.0	0.0	0.0	null	null	null	null	null	null	null	null	333.0	334.0	334.0	334.0	335.0	337.0	334.0	334.0	336.0	335.0	337.0	
Mon Jun 05 06:40:00 UTC 2017	0.0	1.047281664E9	3096.287841796875	0.0	2.5731072E7	0.0	4.0	9.832448E8	36.490272521972656	0.0	0.0	1.06133504E9	1.051189248E9	0.0	0.0	0.08049999922513962	0.05249999836087227	0.04800000041723251	0.9919999837875366	0.7637507319450378	0.0	244.0	371.0	0.0	0.0	0.0	0.0	0.0	0.0	null	null	null	null	null	null	null	null	337.0	334.0	338.0	336.0	332.0	337.0	337.0	338.0	334.0	333.0	339.0	
Mon Jun 05 06:39:00 UTC 2017	0.0	1.047281664E9	2988.59326171875	0.0	2.5731072E7	0.0	4.0	9.83154688E8	53.296688079833984	0.0	0.0	1.06133504E9	1.051189248E9	0.0	null	0.07400000095367432	0.05249999836087227	0.054499998688697815	0.9917500019073486	0.7637096047401428	0.0	244.0	371.0	0.0	0.0	0.0	0.0	0.0	0.0	null	null	null	null	null	null	null	null	333.0	334.0	333.0	337.0	335.0	332.0	337.0	333.0	332.0	334.0	332.0	
Mon Jun 05 06:38:00 UTC 2017	0.0	1.047281664E9	2988.59326171875	0.0	2.5731072E7	0.0	4.0	9.83154688E8	53.296688079833984	0.0	0.0	1.06133504E9	1.050161152E9	0.0	0.0	0.06575000286102295	0.04749999940395355	0.04724999889731407	0.9919999837875366	0.7636851668357849	0.0	244.0	371.0	0.0	0.0	0.0	0.0	0.0	0.0	null	null	null	null	null	null	null	null	336.0	337.0	335.0	335.0	336.0	334.0	337.0	335.0	338.0	340.0	337.0	
Mon Jun 05 06:37:00 UTC 2017	0.0	1.047281664E9	2861.577392578125	0.0	2.5731072E7	0.0	3.0	9.83154688E8	48.621002197265625	0.0	0.0	1.06133504E9	1.051189248E9	0.0	0.0	0.08375000208616257	0.05000000074505806	0.048500001430511475	0.9922500252723694	0.7636709809303284	0.0	244.0	371.0	0.0	0.0	0.0	0.0	0.0	0.0	null	null	null	null	null	null	null	null	335.0	337.0	338.0	333.0	336.0	335.0	335.0	336.0	336.0	334.0	334.0	
Mon Jun 05 06:36:00 UTC 2017	0.0	1.047281664E9	2447.507568359375	0.0	2.5731072E7	0.0	2.0	9.82941696E8	48.621002197265625	0.0	0.0	1.06133504E9	1.050161152E9	0.0	0.0	0.07699999958276749	0.051750000566244125	0.04774999991059303	0.9922500252723694	0.7636719346046448	0.0	244.0	371.0	0.0	0.0	0.0	0.0	0.0	0.0	null	null	null	null	null	null	null	null	336.0	334.0	331.0	338.0	333.0	334.0	336.0	337.0	335.0	337.0	335.0	
Mon Jun 05 06:35:00 UTC 2017	0.0	1.047281664E9	2447.507568359375	0.0	2.5731072E7	0.0	2.0	9.83031808E8	48.621002197265625	0.0	0.0	1.06133504E9	1.050161152E9	0.0	0.0	0.07575000077486038	0.05324999988079071	0.04924999922513962	0.9919999837875366	0.7636533379554749	0.0	244.0	371.0	0.0	0.0	0.0	0.0	0.0	0.0	null	null	null	null	null	null	null	null	335.0	337.0	334.0	334.0	337.0	333.0	335.0	332.0	334.0	340.0	333.0	
Mon Jun 05 06:34:00 UTC 2017	0.0	1.047281664E9	2447.507568359375	0.0	2.5731072E7	0.0	6.0	9.82941696E8	37.48405456542969	0.0	0.0	1.06133504E9	1.051189248E9	0.0	0.0	0.07050000131130219	0.04800000041723251	0.048250000923871994	0.9922500252723694	0.763710618019104	0.0	244.0	371.0	0.0	0.0	0.0	0.0	0.0	0.0	null	null	null	null	null	null	null	null	337.0	335.0	337.0	337.0	334.0	335.0	337.0	336.0	332.0	335.0	338.0	
Mon Jun 05 06:33:00 UTC 2017	0.0	1.047281664E9	3094.868896484375	0.0	2.5731072E7	0.0	4.0	9.82941696E8	37.48405456542969	0.0	0.0	1.06133504E9	1.050161152E9	0.0	null	0.0742499977350235	0.0507499985396862	0.0507499985396862	0.9919999837875366	0.7637086510658264	0.0	244.0	371.0	0.0	0.0	0.0	0.0	0.0	0.0	null	null	null	null	null	null	null	null	332.0	335.0	331.0	333.0	337.0	333.0	335.0	336.0	337.0	335.0	333.0	
Mon Jun 05 06:32:00 UTC 2017	0.0	1.047281664E9	3094.868896484375	0.0	2.5731072E7	0.0	3.0	9.82941696E8	37.48405456542969	0.0	0.0	1.06133504E9	1.050161152E9	0.0	null	0.08150000125169754	0.05649999901652336	0.04600000008940697	0.9922500252723694	0.7659803032875061	0.0	244.0	371.0	0.0	0.0	0.0	0.0	0.0	0.0	null	null	null	null	null	null	null	null	336.0	336.0	338.0	337.0	337.0	339.0	336.0	334.0	334.0	329.0	337.0	
Mon Jun 05 06:31:00 UTC 2017	0.0	1.047281664E9	2195.599853515625	0.0	2.5731072E7	0.0	2.0	9.827328E8	37.48405456542969	0.0	0.0	1.06133504E9	1.050161152E9	0.0	null	0.1014999970793724	0.04924999922513962	0.048500001430511475	0.9922500252723694	0.7636768221855164	0.0	244.0	371.0	0.0	0.0	0.0	0.0	0.0	0.0	null	null	null	null	null	null	null	null	337.0	338.0	336.0	335.0	333.0	334.0	335.0	334.0	333.0	338.0	336.0	
Mon Jun 05 06:30:00 UTC 2017	0.0	1.047281664E9	3480.99267578125	0.0	2.5731072E7	0.0	2.0	9.82822912E8	47.212974548339844	0.0	0.0	1.06133504E9	1.051189248E9	0.0	0.0	0.07374999672174454	0.042750000953674316	0.04650000110268593	0.9919999837875366	0.7636616826057434	0.0	244.0	371.0	0.0	0.0	0.0	0.0	0.0	0.0	null	null	null	null	null	null	null	null	334.0	335.0	336.0	335.0	336.0	335.0	336.0	335.0	333.0	331.0	336.0	
Mon Jun 05 06:29:00 UTC 2017	0.0	1.047281664E9	2758.297119140625	0.0	2.5731072E7	0.0	2.0	9.827328E8	37.85243606567383	0.0	0.0	1.06133504E9	1.050161152E9	0.0	0.0	0.06449999660253525	0.054249998182058334	0.048250000923871994	0.9922500252723694	0.7636107802391052	0.0	244.0	371.0	0.0	0.0	0.0	0.0	0.0	0.0	null	null	null	null	null	null	null	null	337.0	337.0	333.0	333.0	335.0	335.0	335.0	337.0	336.0	335.0	334.0	
Mon Jun 05 06:28:00 UTC 2017	0.0	1.047281664E9	2738.58056640625	0.0	2.5731072E7	0.0	2.0	9.827328E8	44.57472229003906	0.0	0.0	1.06133504E9	1.050161152E9	0.0	0.0	0.07774999737739563	0.05324999988079071	0.04975000023841858	0.9919999837875366	0.7636117339134216	0.0	244.0	371.0	0.0	0.0	0.0	0.0	0.0	0.0	null	null	null	null	null	null	null	null	334.0	334.0	337.0	335.0	335.0	335.0	336.0	335.0	335.0	336.0	332.0	
Mon Jun 05 06:27:00 UTC 2017	0.0	1.047281664E9	2908.561767578125	0.0	2.5731072E7	0.0	2.0	9.827328E8	44.57472229003906	0.0	0.0	1.06133504E9	1.051189248E9	0.0	null	0.0794999971985817	0.04450000077486038	0.04724999889731407	0.9919999837875366	0.7658810019493103	0.0	244.0	371.0	0.0	0.0	0.0	0.0	0.0	0.0	null	null	null	null	null	null	null	null	337.0	335.0	334.0	338.0	335.0	336.0	336.0	337.0	336.0	334.0	338.0	
Mon Jun 05 06:26:00 UTC 2017	0.0	1.047281664E9	2908.561767578125	0.0	2.5731072E7	0.0	2.0	9.82519808E8	40.3057746887207	0.0	0.0	1.06133504E9	1.051189248E9	0.0	null	0.08224999904632568	0.0560000017285347	0.04574999958276749	0.9917500019073486	0.7635921835899353	0.0	244.0	371.0	0.0	0.0	0.0	0.0	0.0	0.0	null	null	null	null	null	null	null	null	334.0	335.0	337.0	334.0	332.0	335.0	334.0	332.0	331.0	334.0	334.0	
Mon Jun 05 06:25:00 UTC 2017	0.0	1.047281664E9	3202.0205078125	0.0	2.5731072E7	0.0	3.0	9.8260992E8	42.45729064941406	0.0	0.0	1.06133504E9	1.050161152E9	0.0	null	0.07199999690055847	0.0494999997317791	0.051500000059604645	0.9919999837875366	0.7635496258735657	0.0	244.0	371.0	0.0	0.0	0.0	0.0	0.0	0.0	null	null	null	null	null	null	null	null	333.0	338.0	335.0	334.0	337.0	336.0	336.0	338.0	334.0	334.0	336.0	
Mon Jun 05 06:24:00 UTC 2017	0.0	1.047281664E9	3202.0205078125	0.0	2.5731072E7	0.0	4.0	9.82519808E8	42.45729064941406	0.0	0.0	1.06133504E9	1.050161152E9	0.0	null	0.07699999958276749	0.0494999997317791	0.04500000178813934	0.9922500252723694	0.7643936276435852	0.0	244.0	371.0	0.0	0.0	0.0	0.0	0.0	0.0	null	null	null	null	null	null	null	null	341.0	336.0	333.0	337.0	335.0	336.0	334.0	334.0	337.0	336.0	334.0	
Mon Jun 05 06:23:00 UTC 2017	0.0	1.047281664E9	3202.0205078125	0.0	2.5731072E7	0.0	4.0	9.82519808E8	42.45729064941406	0.0	0.0	1.06133504E9	1.051189248E9	0.0	0.0	0.06724999845027924	0.0507499985396862	0.05050000175833702	0.9922500252723694	0.7658256888389587	0.0	244.0	371.0	0.0	0.0	0.0	0.0	0.0	0.0	null	null	null	null	null	null	null	null	334.0	337.0	335.0	334.0	335.0	337.0	339.0	335.0	335.0	334.0	335.0	
Mon Jun 05 06:22:00 UTC 2017	0.0	1.047281664E9	2315.20703125	0.0	2.5731072E7	0.0	4.0	9.82519808E8	42.45729064941406	0.0	0.0	1.06133504E9	1.050161152E9	0.0	0.0	0.07699999958276749	0.05274999886751175	0.04625000059604645	0.9922500252723694	0.7635349631309509	0.0	244.0	371.0	0.0	0.0	0.0	0.0	0.0	0.0	null	null	null	null	null	null	null	null	337.0	338.0	337.0	334.0	334.0	335.0	337.0	336.0	331.0	332.0	335.0	
Mon Jun 05 06:21:00 UTC 2017	0.0	1.047281664E9	2315.20703125	0.0	2.5731072E7	0.0	2.0	9.82306816E8	42.45729064941406	0.0	0.0	1.06133504E9	1.051189248E9	0.0	0.0	0.10625000298023224	0.04475000128149986	0.052000001072883606	0.9919999837875366	0.7658056616783142	0.0	244.0	371.0	0.0	0.0	0.0	0.0	0.0	0.0	null	null	null	null	null	null	null	null	334.0	336.0	331.0	336.0	334.0	335.0	335.0	334.0	335.0	335.0	342.0	
Mon Jun 05 06:20:00 UTC 2017	0.0	1.047281664E9	2315.20703125	0.0	2.5731072E7	0.0	2.0	9.82401024E8	42.45729064941406	0.0	0.0	1.06133504E9	1.051189248E9	0.0	0.0	0.07599999755620956	0.04899999871850014	0.04675000160932541	0.9919999837875366	0.763525664806366	0.0	244.0	371.0	0.0	0.0	0.0	0.0	0.0	0.0	null	null	null	null	null	null	null	null	336.0	334.0	338.0	340.0	335.0	336.0	332.0	336.0	337.0	332.0	332.0	
Mon Jun 05 06:19:00 UTC 2017	0.0	1.047281664E9	2721.9580078125	0.0	2.5731072E7	0.0	4.0	9.82310912E8	42.45729064941406	0.0	0.0	1.06133504E9	1.051189248E9	0.0	0.0	0.07100000232458115	0.05375000089406967	0.04774999991059303	0.9919999837875366	0.7635241746902466	0.0	244.0	371.0	0.0	0.0	0.0	0.0	0.0	0.0	null	null	null	null	null	null	null	null	334.0	335.0	335.0	331.0	333.0	336.0	339.0	337.0	340.0	339.0	339.0	
Mon Jun 05 06:18:00 UTC 2017	0.0	1.047281664E9	2721.9580078125	0.0	2.5731072E7	0.0	2.0	9.82310912E8	42.45729064941406	0.0	0.0	1.06133504E9	1.051189248E9	0.0	0.0	0.07225000113248825	0.04800000041723251	0.04600000008940697	0.9919999837875366	0.7635065913200378	0.0	244.0	371.0	0.0	0.0	0.0	0.0	0.0	0.0	null	null	null	null	null	null	null	null	335.0	332.0	338.0	337.0	336.0	334.0	337.0	336.0	334.0	335.0	334.0	
Mon Jun 05 06:17:00 UTC 2017	0.0	1.047281664E9	2721.9580078125	0.0	2.5731072E7	0.0	2.0	9.82310912E8	51.12697982788086	0.0	0.0	1.06133504E9	1.050161152E9	0.0	0.0	0.07774999737739563	0.054999999701976776	0.04724999889731407	0.9917500019073486	0.7634865045547485	0.0	244.0	371.0	0.0	0.0	0.0	0.0	0.0	0.0	null	null	null	null	null	null	null	null	334.0	338.0	335.0	333.0	335.0	338.0	334.0	332.0	334.0	334.0	333.0	
Mon Jun 05 06:16:00 UTC 2017	0.0	1.047281664E9	2721.9580078125	0.0	2.5731072E7	0.0	2.0	9.82192128E8	54.0187873840332	0.0	0.0	1.06133504E9	1.050161152E9	0.0	null	0.07750000059604645	0.0507499985396862	0.04800000041723251	0.9922500252723694	0.7635354399681091	0.0	244.0	371.0	0.0	0.0	0.0	0.0	0.0	0.0	null	null	null	null	null	null	null	null	336.0	335.0	334.0	337.0	337.0	334.0	336.0	338.0	339.0	334.0	336.0	
Mon Jun 05 06:15:00 UTC 2017	0.0	1.047281664E9	2680.927490234375	0.0	2.5731072E7	0.0	2.0	9.82192128E8	33.66069793701172	0.0	0.0	1.06133504E9	1.051189248E9	0.0	null	0.07724999636411667	0.04500000178813934	0.04924999922513962	0.9922500252723694	0.7635153532028198	0.0	244.0	371.0	0.0	0.0	0.0	0.0	0.0	0.0	null	null	null	null	null	null	null	null	335.0	334.0	332.0	338.0	336.0	334.0	338.0	333.0	336.0	341.0	339.0	
Mon Jun 05 06:14:00 UTC 2017	0.0	1.047281664E9	2680.927490234375	0.0	2.5731072E7	0.0	3.0	9.82102016E8	33.66069793701172	0.0	0.0	1.06133504E9	1.050161152E9	0.0	null	0.06724999845027924	0.05649999901652336	0.05050000175833702	0.9919999837875366	0.7634987235069275	0.0	244.0	371.0	0.0	0.0	0.0	0.0	0.0	0.0	null	null	null	null	null	null	null	null	334.0	335.0	334.0	334.0	333.0	335.0	334.0	336.0	336.0	334.0	336.0	
Mon Jun 05 06:13:00 UTC 2017	0.0	1.047281664E9	2291.036376953125	0.0	2.5731072E7	0.0	2.0	9.82102016E8	33.66069793701172	0.0	0.0	1.06133504E9	1.050161152E9	0.0	null	0.08224999904632568	0.04475000128149986	0.0507499985396862	0.9919999837875366	0.7634825706481934	0.0	244.0	371.0	0.0	0.0	0.0	0.0	0.0	0.0	null	null	null	null	null	null	null	null	334.0	337.0	333.0	337.0	335.0	339.0	334.0	339.0	333.0	337.0	333.0	
Mon Jun 05 06:12:00 UTC 2017	0.0	1.047281664E9	2291.036376953125	0.0	2.5731072E7	0.0	3.0	9.82102016E8	33.66069793701172	0.0	0.0	1.06133504E9	1.051189248E9	0.0	null	0.07199999690055847	0.052000001072883606	0.04600000008940697	0.9922500252723694	0.7634674310684204	0.0	244.0	371.0	0.0	0.0	0.0	0.0	0.0	0.0	null	null	null	null	null	null	null	null	335.0	334.0	338.0	334.0	335.0	335.0	335.0	332.0	335.0	334.0	339.0	
Mon Jun 05 06:11:00 UTC 2017	0.0	1.047281664E9	2291.036376953125	0.0	2.5731072E7	0.0	2.0	9.81889024E8	51.47232437133789	0.0	0.0	1.06133504E9	1.050161152E9	0.0	null	0.1185000017285347	0.05674999952316284	0.045499999076128006	0.9915000200271606	0.7634512782096863	0.0	244.0	371.0	0.0	0.0	0.0	0.0	0.0	0.0	null	null	null	null	null	null	null	null	335.0	334.0	334.0	335.0	332.0	336.0	336.0	338.0	334.0	335.0	335.0	
Mon Jun 05 06:10:00 UTC 2017	0.0	1.047281664E9	2291.036376953125	0.0	2.5731072E7	0.0	7.0	9.8224128E8	32.24267578125	0.0	0.0	1.06133504E9	1.051189248E9	0.0	null	0.0742499977350235	0.04899999871850014	0.050999999046325684	0.9919999837875366	0.7634326815605164	0.0	244.0	371.0	0.0	0.0	0.0	0.0	0.0	0.0	null	null	null	null	null	null	null	null	340.0	335.0	334.0	335.0	337.0	334.0	335.0	335.0	337.0	333.0	333.0	
Mon Jun 05 06:09:00 UTC 2017	0.0	1.047281664E9	2628.116455078125	0.0	2.5731072E7	0.0	4.0	9.81733376E8	32.24267578125	0.0	0.0	1.06133504E9	1.050161152E9	0.0	0.0	0.06424999982118607	0.05000000074505806	0.04800000041723251	0.9919999837875366	0.7657053470611572	0.0	244.0	371.0	0.0	0.0	0.0	0.0	0.0	0.0	null	null	null	null	null	null	null	null	334.0	335.0	334.0	334.0	336.0	335.0	333.0	336.0	338.0	334.0	335.0	
Mon Jun 05 06:08:00 UTC 2017	0.0	1.047281664E9	2628.116455078125	0.0	2.5731072E7	0.0	2.0	9.81733376E8	32.24267578125	0.0	0.0	1.06133504E9	1.051189248E9	0.0	0.0	0.0807500034570694	0.04600000008940697	0.04675000160932541	0.9919999837875366	0.7656818628311157	0.0	244.0	371.0	0.0	0.0	0.0	0.0	0.0	0.0	null	null	null	null	null	null	null	null	337.0	336.0	338.0	336.0	339.0	338.0	337.0	333.0	332.0	337.0	332.0	
Mon Jun 05 06:07:00 UTC 2017	0.0	1.047281664E9	2628.116455078125	0.0	2.5731072E7	0.0	3.0	9.81733376E8	58.74945831298828	0.0	0.0	1.06133504E9	1.051189248E9	0.0	0.0	0.07349999994039536	0.05400000140070915	0.04774999991059303	0.9922500252723694	0.7656975388526917	0.0	244.0	371.0	0.0	0.0	0.0	0.0	0.0	0.0	null	null	null	null	null	null	null	null	334.0	335.0	336.0	333.0	333.0	335.0	336.0	336.0	339.0	337.0	337.0	
Mon Jun 05 06:06:00 UTC 2017	0.0	1.047281664E9	2628.116455078125	0.0	2.5731072E7	0.0	2.0	9.81516288E8	58.74945831298828	0.0	0.0	1.06133504E9	1.051189248E9	0.0	0.0	0.08049999922513962	0.04774999991059303	0.04625000059604645	0.9917500019073486	0.7644889950752258	0.0	244.0	371.0	0.0	0.0	0.0	0.0	0.0	0.0	null	null	null	null	null	null	null	null	337.0	336.0	336.0	335.0	332.0	335.0	334.0	333.0	333.0	335.0	335.0	
Mon Jun 05 06:05:00 UTC 2017	0.0	1.047281664E9	2628.116455078125	0.0	2.5731072E7	0.0	2.0	9.81671936E8	35.61054611206055	0.0	0.0	1.06133504E9	1.051189248E9	0.0	null	0.07275000214576721	0.0507499985396862	0.04574999958276749	0.9919999837875366	0.7633152604103088	0.0	244.0	371.0	0.0	0.0	0.0	0.0	0.0	0.0	null	null	null	null	null	null	null	null	335.0	335.0	335.0	341.0	336.0	337.0	333.0	335.0	333.0	337.0	337.0	
Mon Jun 05 06:04:00 UTC 2017	0.0	1.047281664E9	2744.0947265625	0.0	2.5731072E7	0.0	2.0	9.81516288E8	74.5432357788086	0.0	0.0	1.06133504E9	1.050161152E9	0.0	null	0.07199999690055847	0.048250000923871994	0.05000000074505806	0.9919999837875366	0.7632995843887329	0.0	244.0	371.0	0.0	0.0	0.0	0.0	0.0	0.0	null	null	null	null	null	null	null	null	333.0	335.0	332.0	332.0	336.0	333.0	336.0	334.0	336.0	336.0	337.0	
Mon Jun 05 06:03:00 UTC 2017	0.0	1.047281664E9	2744.0947265625	0.0	2.5731072E7	0.0	2.0	9.81516288E8	37.51432800292969	0.0	0.0	1.06133504E9	1.051189248E9	0.0	0.0	0.08375000208616257	0.05225000157952309	0.045499999076128006	0.9919999837875366	0.765551745891571	0.0	244.0	371.0	0.0	0.0	0.0	0.0	0.0	0.0	null	null	null	null	null	null	null	null	336.0	337.0	334.0	336.0	334.0	337.0	337.0	335.0	335.0	334.0	335.0	
Mon Jun 05 06:02:00 UTC 2017	0.0	1.047281664E9	2744.0947265625	0.0	2.5731072E7	0.0	2.0	9.81516288E8	53.41252517700195	0.0	0.0	1.06133504E9	1.050161152E9	0.0	0.0	0.07774999737739563	0.04749999940395355	0.05000000074505806	0.9919999837875366	0.7633084058761597	0.0	244.0	371.0	0.0	0.0	0.0	0.0	0.0	0.0	null	null	null	null	null	null	null	null	333.0	334.0	335.0	337.0	334.0	333.0	332.0	337.0	337.0	338.0	334.0	
Mon Jun 05 06:01:00 UTC 2017	0.0	1.047281664E9	2437.85498046875	0.0	2.5731072E7	0.0	3.0	9.81573632E8	49.07586669921875	0.0	0.0	1.06133504E9	1.050161152E9	0.0	0.0	0.09600000083446503	0.052000001072883606	0.04475000128149986	0.9922500252723694	0.7632330656051636	0.0	244.0	371.0	0.0	0.0	0.0	0.0	0.0	0.0	null	null	null	null	null	null	null	null	334.0	336.0	336.0	338.0	336.0	336.0	339.0	329.0	332.0	334.0	336.0	
Mon Jun 05 06:00:00 UTC 2017	0.0	1.047281664E9	2950.575927734375	0.0	2.5731072E7	0.0	4.0	9.81393408E8	36.22737121582031	0.0	0.0	1.06133504E9	1.051189248E9	0.0	null	0.06925000250339508	0.05324999988079071	0.048500001430511475	0.9917500019073486	0.7632120251655579	0.0	244.0	371.0	0.0	0.0	0.0	0.0	0.0	0.0	null	null	null	null	null	null	null	null	334.0	336.0	333.0	333.0	336.0	335.0	333.0	337.0	335.0	336.0	336.0	
Mon Jun 05 05:59:00 UTC 2017	0.0	1.047281664E9	2449.517822265625	0.0	2.5731072E7	0.0	3.0	9.81303296E8	36.22737121582031	0.0	0.0	1.06133504E9	1.051189248E9	0.0	null	0.07450000196695328	0.051249999552965164	0.04774999991059303	0.9919999837875366	0.7631993293762207	0.0	244.0	371.0	0.0	0.0	0.0	0.0	0.0	0.0	null	null	null	null	null	null	null	null	336.0	337.0	337.0	335.0	334.0	333.0	335.0	334.0	337.0	337.0	336.0	
Mon Jun 05 05:58:00 UTC 2017	0.0	1.047281664E9	2511.74951171875	0.0	2.5731072E7	0.0	2.0	9.81303296E8	63.09481430053711	0.0	0.0	1.06133504E9	1.050161152E9	0.0	null	0.07400000095367432	0.05025000125169754	0.04600000008940697	0.9922500252723694	0.7631909847259521	0.0	244.0	371.0	0.0	0.0	0.0	0.0	0.0	0.0	null	null	null	null	null	null	null	null	338.0	331.0	336.0	339.0	337.0	338.0	337.0	335.0	336.0	339.0	337.0	
Mon Jun 05 05:57:00 UTC 2017	0.0	1.047281664E9	3316.704345703125	0.0	2.5731072E7	0.0	3.0	9.81303296E8	50.71303939819336	0.0	0.0	1.06133504E9	1.051189248E9	0.0	null	0.07824999839067459	0.04650000110268593	0.04874999821186066	0.9922500252723694	0.7631376385688782	0.0	244.0	371.0	0.0	0.0	0.0	0.0	0.0	0.0	null	null	null	null	null	null	null	null	333.0	334.0	337.0	335.0	331.0	330.0	335.0	335.0	329.0	333.0	339.0	
Mon Jun 05 05:56:00 UTC 2017	0.0	1.047281664E9	3064.370361328125	0.0	2.5731072E7	0.0	2.0	9.810944E8	37.97077178955078	0.0	0.0	1.06133504E9	1.050161152E9	0.0	null	0.08224999904632568	0.05674999952316284	0.05025000125169754	0.9919999837875366	0.7631210088729858	0.0	244.0	371.0	0.0	0.0	0.0	0.0	0.0	0.0	null	null	null	null	null	null	null	null	339.0	335.0	335.0	333.0	335.0	334.0	337.0	338.0	334.0	336.0	338.0	
Mon Jun 05 05:55:00 UTC 2017	0.0	1.047281664E9	3064.370361328125	0.0	2.5731072E7	0.0	3.0	9.81184512E8	37.97077178955078	0.0	0.0	1.06133504E9	1.050161152E9	0.0	null	0.06724999845027924	0.0494999997317791	0.04324999824166298	0.9919999837875366	0.7653843760490417	0.0	244.0	371.0	0.0	0.0	0.0	0.0	0.0	0.0	null	null	null	null	null	null	null	null	338.0	333.0	335.0	339.0	334.0	335.0	336.0	336.0	337.0	336.0	336.0	
Mon Jun 05 05:54:00 UTC 2017	0.0	1.047281664E9	3064.370361328125	0.0	2.5731072E7	0.0	3.0	9.810944E8	37.97077178955078	0.0	0.0	1.06133504E9	1.051189248E9	0.0	null	0.07275000214576721	0.04749999940395355	0.051249999552965164	0.9922500252723694	0.763093113899231	0.0	244.0	371.0	0.0	0.0	0.0	0.0	0.0	0.0	null	null	null	null	null	null	null	null	337.0	334.0	333.0	335.0	334.0	331.0	332.0	337.0	334.0	337.0	336.0	
Mon Jun 05 05:53:00 UTC 2017	0.0	1.047281664E9	3044.99365234375	0.0	2.5731072E7	0.0	2.0	9.810944E8	34.76285934448242	0.0	0.0	1.06133504E9	1.050161152E9	0.0	0.0	0.07450000196695328	0.04774999991059303	0.04724999889731407	0.9922500252723694	0.7630755305290222	0.0	244.0	371.0	0.0	0.0	0.0	0.0	0.0	0.0	null	null	null	null	null	null	null	null	337.0	335.0	337.0	336.0	337.0	335.0	335.0	335.0	336.0	335.0	335.0	
Mon Jun 05 05:52:00 UTC 2017	0.0	1.047281664E9	3044.99365234375	0.0	2.5731072E7	0.0	3.0	9.810944E8	39.8410758972168	0.0	0.0	1.06133504E9	1.051189248E9	0.0	0.0	0.07900000363588333	0.05299999937415123	0.04650000110268593	0.9919999837875366	0.7630226612091064	0.0	244.0	371.0	0.0	0.0	0.0	0.0	0.0	0.0	null	null	null	null	null	null	null	null	332.0	335.0	335.0	336.0	334.0	336.0	337.0	334.0	338.0	334.0	336.0	
Mon Jun 05 05:51:00 UTC 2017	0.0	1.047281664E9	3044.99365234375	0.0	2.5731072E7	0.0	5.0	9.80881408E8	39.8410758972168	0.0	0.0	1.06133504E9	1.051189248E9	0.0	0.0	0.09600000083446503	0.054499998688697815	0.051500000059604645	0.9919999837875366	0.7630534768104553	0.0	244.0	371.0	0.0	0.0	0.0	0.0	0.0	0.0	null	null	null	null	null	null	null	null	337.0	332.0	336.0	335.0	336.0	336.0	335.0	336.0	333.0	334.0	338.0	
Mon Jun 05 05:50:00 UTC 2017	0.0	1.047281664E9	2307.053466796875	0.0	2.5731072E7	0.0	4.0	9.8097152E8	39.8410758972168	0.0	0.0	1.06133504E9	1.051189248E9	0.0	0.0	0.07999999821186066	0.05000000074505806	0.045249998569488525	0.9919999837875366	0.7629977464675903	0.0	244.0	371.0	0.0	0.0	0.0	0.0	0.0	0.0	null	null	null	null	null	null	null	null	336.0	341.0	337.0	336.0	335.0	333.0	335.0	334.0	336.0	333.0	334.0	
Mon Jun 05 05:49:00 UTC 2017	0.0	1.047281664E9	2168.879638671875	0.0	2.5731072E7	0.0	2.0	9.80881408E8	62.69364547729492	0.0	0.0	1.06133504E9	1.051189248E9	0.0	0.0	0.07750000059604645	0.045249998569488525	0.04874999821186066	0.9917500019073486	0.7644346952438354	0.0	244.0	371.0	0.0	0.0	0.0	0.0	0.0	0.0	null	null	null	null	null	null	null	null	333.0	334.0	336.0	336.0	334.0	337.0	335.0	335.0	335.0	337.0	337.0	
Mon Jun 05 05:48:00 UTC 2017	0.0	1.047281664E9	2168.879638671875	0.0	2.5731072E7	0.0	3.0	9.80881408E8	37.64399337768555	0.0	0.0	1.06133504E9	1.051189248E9	0.0	0.0	0.0702499970793724	0.05225000157952309	0.04975000023841858	0.9922500252723694	0.7629786133766174	0.0	244.0	371.0	0.0	0.0	0.0	0.0	0.0	0.0	null	null	null	null	null	null	null	null	335.0	337.0	335.0	334.0	334.0	337.0	335.0	338.0	340.0	333.0	336.0	
Mon Jun 05 05:47:00 UTC 2017	0.0	1.047281664E9	2907.1357421875	0.0	2.5731072E7	0.0	2.0	9.80881408E8	37.64399337768555	0.0	0.0	1.06133504E9	1.050161152E9	0.0	0.0	0.08349999785423279	0.0507499985396862	0.04324999824166298	0.9919999837875366	0.7642272710800171	0.0	244.0	371.0	0.0	0.0	0.0	0.0	0.0	0.0	null	null	null	null	null	null	null	null	337.0	333.0	334.0	336.0	335.0	334.0	337.0	334.0	334.0	337.0	332.0	
Mon Jun 05 05:46:00 UTC 2017	0.0	1.047281664E9	2340.47607421875	0.0	2.5731072E7	0.0	2.0	9.80758528E8	37.64399337768555	0.0	0.0	1.06133504E9	1.050161152E9	0.0	0.0	0.06975000351667404	0.05299999937415123	0.04699999839067459	0.9919999837875366	0.7629625201225281	0.0	244.0	371.0	0.0	0.0	0.0	0.0	0.0	0.0	null	null	null	null	null	null	null	null	336.0	337.0	334.0	335.0	335.0	333.0	331.0	333.0	335.0	336.0	337.0	
Mon Jun 05 05:45:00 UTC 2017	0.0	1.047281664E9	2340.47607421875	0.0	2.5731072E7	0.0	3.0	9.80758528E8	37.64399337768555	0.0	0.0	1.06133504E9	1.051189248E9	0.0	0.0	0.07150000333786011	0.04749999940395355	0.04774999991059303	0.9919999837875366	0.7652277946472168	0.0	244.0	371.0	0.0	0.0	0.0	0.0	0.0	0.0	null	null	null	null	null	null	null	null	335.0	335.0	334.0	334.0	337.0	335.0	336.0	337.0	338.0	333.0	336.0	
Mon Jun 05 05:44:00 UTC 2017	0.0	1.047281664E9	2599.3134765625	0.0	2.5731072E7	0.0	2.0	9.80668416E8	37.64399337768555	0.0	0.0	1.06133504E9	1.051189248E9	0.0	0.0	0.08349999785423279	0.05674999952316284	0.05324999988079071	0.9919999837875366	0.762927770614624	0.0	244.0	371.0	0.0	0.0	0.0	0.0	0.0	0.0	null	null	null	null	null	null	null	null	335.0	335.0	337.0	336.0	336.0	337.0	337.0	336.0	335.0	336.0	334.0	
Mon Jun 05 05:43:00 UTC 2017	0.0	1.047281664E9	2599.3134765625	0.0	2.5731072E7	0.0	2.0	9.80668416E8	42.025150299072266	0.0	0.0	1.06133504E9	1.051189248E9	0.0	0.0	0.07450000196695328	0.04500000178813934	0.042500000447034836	0.9919999837875366	0.7629483342170715	0.0	244.0	371.0	0.0	0.0	0.0	0.0	0.0	0.0	null	null	null	null	null	null	null	null	339.0	338.0	336.0	336.0	334.0	336.0	334.0	335.0	334.0	336.0	335.0	
Mon Jun 05 05:42:00 UTC 2017	0.0	1.047281664E9	3145.508056640625	0.0	2.5731072E7	0.0	2.0	9.80668416E8	58.45148849487305	0.0	0.0	1.06133504E9	1.051189248E9	0.0	0.0	0.0677499994635582	0.05400000140070915	0.04749999940395355	0.9922500252723694	0.7652219533920288	0.0	244.0	371.0	0.0	0.0	0.0	0.0	0.0	0.0	null	null	null	null	null	null	null	null	334.0	336.0	333.0	334.0	336.0	335.0	332.0	337.0	335.0	336.0	338.0	
Mon Jun 05 05:41:00 UTC 2017	0.0	1.047281664E9	3145.508056640625	0.0	2.5731072E7	0.0	6.0	9.80549632E8	44.79599380493164	0.0	0.0	1.06133504E9	1.051189248E9	0.0	0.0	0.1145000010728836	0.04924999922513962	0.04975000023841858	0.9917500019073486	0.7629165053367615	0.0	244.0	371.0	0.0	0.0	0.0	0.0	0.0	0.0	null	null	null	null	null	null	null	null	339.0	334.0	333.0	334.0	334.0	333.0	338.0	334.0	338.0	334.0	334.0	
Mon Jun 05 05:40:00 UTC 2017	0.0	1.047281664E9	3145.508056640625	0.0	2.5731072E7	0.0	3.0	9.80549632E8	44.398529052734375	1.0	0.0	1.06133504E9	1.051189248E9	0.0	0.0	0.07500000298023224	0.05249999836087227	0.04800000041723251	0.9917500019073486	0.7629179954528809	0.0	244.0	371.0	0.0	0.0	0.0	0.0	0.0	0.0	null	null	null	null	null	null	null	null	333.0	332.0	338.0	332.0	332.0	338.0	333.0	332.0	332.0	333.0	334.0	
Mon Jun 05 05:39:00 UTC 2017	0.0	1.047281664E9	2832.048095703125	0.0	2.5731072E7	0.0	2.0	9.8045952E8	44.398529052734375	0.0	0.0	1.06133504E9	1.050161152E9	0.0	0.0	0.07750000059604645	0.05575000122189522	0.04724999889731407	0.9917500019073486	0.7629052400588989	0.0	244.0	371.0	0.0	0.0	0.0	0.0	0.0	0.0	null	null	null	null	null	null	null	null	335.0	338.0	333.0	336.0	332.0	334.0	335.0	338.0	335.0	337.0	336.0	
Mon Jun 05 05:38:00 UTC 2017	0.0	1.047281664E9	2403.281982421875	0.0	2.5731072E7	0.0	2.0	9.8045952E8	36.79628372192383	0.0	0.0	1.06133504E9	1.050161152E9	0.0	0.0	0.06849999725818634	0.051249999552965164	0.04924999922513962	0.9917500019073486	0.7648633122444153	0.0	244.0	371.0	0.0	0.0	0.0	0.0	0.0	0.0	null	null	null	null	null	null	null	null	337.0	334.0	337.0	334.0	336.0	336.0	337.0	335.0	336.0	339.0	338.0	
Mon Jun 05 05:37:00 UTC 2017	0.0	1.047281664E9	2681.4482421875	0.0	2.5731072E7	0.0	3.0	9.8045952E8	36.79628372192383	0.0	0.0	1.06133504E9	1.051189248E9	0.0	0.0	0.0767500028014183	0.04924999922513962	0.04399999976158142	0.9919999837875366	0.7651089429855347	0.0	244.0	371.0	0.0	0.0	0.0	0.0	0.0	0.0	null	null	null	null	null	null	null	null	333.0	337.0	337.0	335.0	337.0	334.0	333.0	337.0	333.0	332.0	336.0	
Mon Jun 05 05:36:00 UTC 2017	0.0	1.047281664E9	2585.41357421875	0.0	2.5731072E7	0.0	2.0	9.80246528E8	53.89363098144531	0.0	0.0	1.06133504E9	1.051189248E9	0.0	0.0	0.07150000333786011	0.052000001072883606	0.05000000074505806	0.9919999837875366	0.7651554346084595	0.0	244.0	371.0	0.0	0.0	0.0	0.0	0.0	0.0	null	null	null	null	null	null	null	null	335.0	333.0	336.0	334.0	335.0	334.0	338.0	334.0	337.0	338.0	332.0	
Mon Jun 05 05:35:00 UTC 2017	0.0	1.047281664E9	2585.41357421875	0.0	2.5731072E7	0.0	6.0	9.8033664E8	34.26544952392578	0.0	0.0	1.06133504E9	1.050161152E9	0.0	0.0	0.07850000262260437	0.045499999076128006	0.048250000923871994	0.9919999837875366	0.7648975849151611	0.0	244.0	371.0	0.0	0.0	0.0	0.0	0.0	0.0	null	null	null	null	null	null	null	null	338.0	337.0	332.0	338.0	333.0	339.0	337.0	336.0	334.0	332.0	336.0	
Mon Jun 05 05:34:00 UTC 2017	0.0	1.047281664E9	2647.592041015625	0.0	2.5731072E7	0.0	3.0	9.80246528E8	34.26544952392578	0.0	0.0	1.06133504E9	1.051189248E9	0.0	0.0	0.07925000041723251	0.05375000089406967	0.04650000110268593	0.9919999837875366	0.7628323435783386	0.0	244.0	371.0	0.0	0.0	0.0	0.0	0.0	0.0	null	null	null	null	null	null	null	null	332.0	338.0	335.0	334.0	338.0	334.0	334.0	333.0	338.0	334.0	339.0	
Mon Jun 05 05:33:00 UTC 2017	0.0	1.047281664E9	2699.67333984375	0.0	2.5731072E7	0.0	2.0	9.80246528E8	45.9781494140625	0.0	0.0	1.06133504E9	1.051189248E9	0.0	0.0	0.06724999845027924	0.04800000041723251	0.048500001430511475	0.9919999837875366	0.7650433778762817	0.0	244.0	371.0	0.0	0.0	0.0	0.0	0.0	0.0	null	null	null	null	null	null	null	null	337.0	334.0	335.0	336.0	333.0	335.0	335.0	335.0	336.0	333.0	334.0	
Mon Jun 05 05:32:00 UTC 2017	0.0	1.047281664E9	2699.67333984375	0.0	2.5731072E7	0.0	3.0	9.80246528E8	45.9781494140625	0.0	0.0	1.06133504E9	1.050161152E9	0.0	0.0	0.07474999874830246	0.05350000038743019	0.04374999925494194	0.9919999837875366	0.7627354860305786	0.0	244.0	371.0	0.0	0.0	0.0	0.0	0.0	0.0	null	null	null	null	null	null	null	null	333.0	336.0	335.0	331.0	336.0	338.0	337.0	337.0	334.0	331.0	331.0	
Mon Jun 05 05:31:00 UTC 2017	0.0	1.047281664E9	2699.67333984375	0.0	2.5731072E7	0.0	2.0	9.80123648E8	40.2946891784668	0.0	0.0	1.06133504E9	1.050161152E9	0.0	0.0	0.10400000214576721	0.050999999046325684	0.04874999821186066	0.9917500019073486	0.7627237439155579	0.0	244.0	371.0	0.0	0.0	0.0	0.0	0.0	0.0	null	null	null	null	null	null	null	null	335.0	336.0	335.0	334.0	337.0	333.0	337.0	336.0	335.0	334.0	335.0	
Mon Jun 05 05:30:00 UTC 2017	0.0	1.047281664E9	2699.67333984375	0.0	2.5731072E7	0.0	2.0	9.80123648E8	40.2946891784668	0.0	0.0	1.06133504E9	1.050161152E9	0.0	0.0	0.07175000011920929	0.05225000157952309	0.050999999046325684	0.9922500252723694	0.7627056241035461	0.0	244.0	371.0	0.0	0.0	0.0	0.0	0.0	0.0	null	null	null	null	null	null	null	null	337.0	335.0	334.0	336.0	335.0	338.0	338.0	331.0	337.0	335.0	338.0	
Mon Jun 05 05:29:00 UTC 2017	0.0	1.047281664E9	2996.014892578125	0.0	2.5731072E7	0.0	4.0	9.80033536E8	62.783233642578125	0.0	0.0	1.06133504E9	1.050161152E9	0.0	0.0	0.07975000143051147	0.052000001072883606	0.04675000160932541	0.9919999837875366	0.7626953721046448	0.0	244.0	371.0	0.0	0.0	0.0	0.0	0.0	0.0	null	null	null	null	null	null	null	null	336.0	335.0	334.0	336.0	336.0	330.0	333.0	335.0	338.0	337.0	338.0	
Mon Jun 05 05:28:00 UTC 2017	0.0	1.047281664E9	2996.014892578125	0.0	2.5731072E7	0.0	2.0	9.80033536E8	39.251556396484375	0.0	0.0	1.06133504E9	1.051189248E9	0.0	0.0	0.07474999874830246	0.04699999839067459	0.045499999076128006	0.9919999837875366	0.7626938819885254	0.0	244.0	371.0	0.0	0.0	0.0	0.0	0.0	0.0	null	null	null	null	null	null	null	null	336.0	338.0	339.0	335.0	334.0	333.0	335.0	335.0	333.0	339.0	332.0	
Mon Jun 05 05:27:00 UTC 2017	0.0	1.047281664E9	2603.86669921875	0.0	2.5731072E7	0.0	2.0	9.80033536E8	39.251556396484375	0.0	0.0	1.06133504E9	1.051189248E9	0.0	null	0.07175000011920929	0.05000000074505806	0.05050000175833702	0.9919999837875366	0.7626610994338989	0.0	244.0	371.0	0.0	0.0	0.0	0.0	0.0	0.0	null	null	null	null	null	null	null	null	337.0	335.0	333.0	337.0	331.0	334.0	330.0	337.0	334.0	335.0	340.0	
Mon Jun 05 05:26:00 UTC 2017	0.0	1.047281664E9	2603.86669921875	0.0	2.5731072E7	0.0	2.0	9.7982464E8	39.235782623291016	0.0	0.0	1.06133504E9	1.050161152E9	0.0	null	0.07074999809265137	0.05274999886751175	0.04899999871850014	0.9922500252723694	0.7626346945762634	0.0	244.0	371.0	0.0	0.0	0.0	0.0	0.0	0.0	null	null	null	null	null	null	null	null	335.0	333.0	333.0	336.0	335.0	335.0	333.0	334.0	335.0	337.0	333.0	
Mon Jun 05 05:25:00 UTC 2017	0.0	1.047281664E9	2603.86669921875	0.0	2.5731072E7	0.0	2.0	9.79914752E8	39.235782623291016	0.0	0.0	1.06133504E9	1.051189248E9	0.0	null	0.07524999976158142	0.05000000074505806	0.04600000008940697	0.9919999837875366	0.7625593543052673	0.0	244.0	371.0	0.0	0.0	0.0	0.0	0.0	0.0	null	null	null	null	null	null	null	null	335.0	338.0	337.0	335.0	339.0	336.0	336.0	337.0	336.0	334.0	335.0	
Mon Jun 05 05:24:00 UTC 2017	0.0	1.047281664E9	2603.86669921875	0.0	2.5731072E7	0.0	2.0	9.7982464E8	39.235782623291016	0.0	0.0	1.06133504E9	1.050161152E9	0.0	null	0.07400000095367432	0.05324999988079071	0.05025000125169754	0.9922500252723694	0.7625686526298523	0.0	244.0	371.0	0.0	0.0	0.0	0.0	0.0	0.0	null	null	null	null	null	null	null	null	337.0	337.0	332.0	340.0	333.0	338.0	337.0	335.0	334.0	339.0	339.0	
Mon Jun 05 05:23:00 UTC 2017	0.0	1.047281664E9	2603.86669921875	0.0	2.5731072E7	0.0	2.0	9.7982464E8	39.235782623291016	0.0	0.0	1.06133504E9	1.051189248E9	0.0	0.0	0.0820000022649765	0.050999999046325684	0.0442500002682209	0.9922500252723694	0.7625524997711182	0.0	244.0	371.0	0.0	0.0	0.0	0.0	0.0	0.0	null	null	null	null	null	null	null	null	336.0	334.0	337.0	336.0	332.0	334.0	331.0	337.0	332.0	337.0	333.0	
Mon Jun 05 05:22:00 UTC 2017	0.0	1.047281664E9	2949.991943359375	0.0	2.5731072E7	0.0	2.0	9.7982464E8	39.235782623291016	0.0	0.0	1.06133504E9	1.050161152E9	0.0	null	0.06674999743700027	0.048250000923871994	0.04724999889731407	0.9919999837875366	0.7648383378982544	0.0	244.0	371.0	0.0	0.0	0.0	0.0	0.0	0.0	null	null	null	null	null	null	null	null	336.0	339.0	331.0	334.0	333.0	335.0	333.0	337.0	335.0	333.0	339.0	
Mon Jun 05 05:21:00 UTC 2017	0.0	1.047281664E9	2949.991943359375	0.0	2.5731072E7	0.0	6.0	9.7970176E8	47.9301872253418	0.0	0.0	1.06133504E9	1.050161152E9	0.0	null	0.09324999898672104	0.05350000038743019	0.04899999871850014	0.9922500252723694	0.7648584246635437	0.0	244.0	371.0	0.0	0.0	0.0	0.0	0.0	0.0	null	null	null	null	null	null	null	null	334.0	331.0	333.0	338.0	336.0	335.0	334.0	338.0	337.0	336.0	334.0	
Mon Jun 05 05:20:00 UTC 2017	0.0	1.047281664E9	2949.991943359375	0.0	2.5731072E7	0.0	2.0	9.7970176E8	47.9301872253418	0.0	0.0	1.06133504E9	1.050161152E9	0.0	null	0.07750000059604645	0.0507499985396862	0.04924999922513962	0.9922500252723694	0.7625534534454346	0.0	244.0	371.0	0.0	0.0	0.0	0.0	0.0	0.0	null	null	null	null	null	null	null	null	337.0	337.0	335.0	333.0	337.0	334.0	335.0	332.0	335.0	334.0	336.0	
Mon Jun 05 05:19:00 UTC 2017	0.0	1.047281664E9	1783.2379150390625	0.0	2.5731072E7	0.0	2.0	9.79611648E8	47.9301872253418	0.0	0.0	1.06133504E9	1.051189248E9	0.0	0.0	0.07874999940395355	0.04800000041723251	0.048500001430511475	0.9922500252723694	0.7625583410263062	0.0	244.0	371.0	0.0	0.0	0.0	0.0	0.0	0.0	null	null	null	null	null	null	null	null	331.0	335.0	334.0	338.0	336.0	335.0	335.0	336.0	339.0	337.0	336.0	
Mon Jun 05 05:18:00 UTC 2017	0.0	1.047281664E9	1783.2379150390625	0.0	2.5731072E7	0.0	2.0	9.79677184E8	58.27737045288086	0.0	0.0	1.06133504E9	1.050161152E9	0.0	0.0	0.06949999928474426	0.05375000089406967	0.04650000110268593	0.9922500252723694	0.7625412344932556	0.0	244.0	371.0	0.0	0.0	0.0	0.0	0.0	0.0	null	null	null	null	null	null	null	null	335.0	337.0	338.0	333.0	336.0	337.0	335.0	334.0	334.0	337.0	332.0	
Mon Jun 05 05:17:00 UTC 2017	0.0	1.047281664E9	3606.515380859375	0.0	2.5731072E7	0.0	4.0	9.79611648E8	36.68494415283203	0.0	0.0	1.06133504E9	1.051189248E9	0.0	0.0	0.0742499977350235	0.05025000125169754	0.04675000160932541	0.9922500252723694	0.7625235915184021	0.0	244.0	371.0	0.0	0.0	0.0	0.0	0.0	0.0	null	null	null	null	null	null	null	null	336.0	337.0	335.0	337.0	334.0	334.0	335.0	336.0	334.0	334.0	340.0	
Mon Jun 05 05:16:00 UTC 2017	0.0	1.047281664E9	2891.054443359375	0.0	2.5731072E7	0.0	2.0	9.7939456E8	36.68494415283203	0.0	0.0	1.06133504E9	1.051189248E9	0.0	0.0	0.07175000011920929	0.05350000038743019	0.04800000041723251	0.9917500019073486	0.7625226378440857	0.0	244.0	371.0	0.0	0.0	0.0	0.0	0.0	0.0	null	null	null	null	null	null	null	null	335.0	334.0	336.0	337.0	337.0	338.0	335.0	337.0	337.0	333.0	332.0	
Mon Jun 05 05:15:00 UTC 2017	0.0	1.047281664E9	2891.054443359375	0.0	2.5731072E7	0.0	2.0	9.79664896E8	70.95499420166016	0.0	0.0	1.06133504E9	1.051189248E9	0.0	0.0	0.07925000041723251	0.0430000014603138	0.04675000160932541	0.9919999837875366	0.7634184956550598	0.0	244.0	371.0	0.0	0.0	0.0	0.0	0.0	0.0	null	null	null	null	null	null	null	null	335.0	335.0	331.0	337.0	337.0	332.0	332.0	335.0	334.0	333.0	336.0	
Mon Jun 05 05:14:00 UTC 2017	0.0	1.047281664E9	2891.054443359375	0.0	2.5731072E7	0.0	2.0	9.79574784E8	70.95499420166016	0.0	0.0	1.06133504E9	1.051189248E9	0.0	0.0	0.07249999791383743	0.052000001072883606	0.048500001430511475	0.9922500252723694	0.7633779048919678	0.0	244.0	371.0	0.0	0.0	0.0	0.0	0.0	0.0	null	null	null	null	null	null	null	null	336.0	336.0	338.0	335.0	334.0	338.0	335.0	333.0	336.0	338.0	335.0	
Mon Jun 05 05:13:00 UTC 2017	0.0	1.047281664E9	2587.362548828125	0.0	2.5731072E7	0.0	2.0	9.79574784E8	35.071739196777344	0.0	0.0	1.06133504E9	1.050161152E9	0.0	0.0	0.07800000160932541	0.051750000566244125	0.04899999871850014	0.9919999837875366	0.7634928822517395	0.0	244.0	371.0	0.0	0.0	0.0	0.0	0.0	0.0	null	null	null	null	null	null	null	null	335.0	335.0	334.0	337.0	336.0	330.0	340.0	337.0	335.0	335.0	334.0	
Mon Jun 05 05:12:00 UTC 2017	0.0	1.047281664E9	2645.80126953125	0.0	2.5731072E7	0.0	4.0	9.79574784E8	48.328067779541016	0.0	0.0	1.06133504E9	1.050161152E9	0.0	0.0	0.07575000077486038	0.051500000059604645	0.048500001430511475	0.9919999837875366	0.7634772062301636	0.0	244.0	371.0	0.0	0.0	0.0	0.0	0.0	0.0	null	null	null	null	null	null	null	null	338.0	334.0	335.0	336.0	335.0	336.0	331.0	336.0	334.0	337.0	337.0	
Mon Jun 05 05:11:00 UTC 2017	0.0	1.047281664E9	3041.030029296875	0.0	2.5731072E7	0.0	6.0	9.79181568E8	48.328067779541016	0.0	0.0	1.06133504E9	1.050161152E9	0.0	0.0	0.10350000113248825	0.04924999922513962	0.0507499985396862	0.9922500252723694	0.7634649872779846	0.0	244.0	371.0	0.0	0.0	0.0	0.0	0.0	0.0	null	null	null	null	null	null	null	null	333.0	337.0	333.0	333.0	334.0	335.0	336.0	336.0	338.0	334.0	334.0	
Mon Jun 05 05:10:00 UTC 2017	0.0	1.047281664E9	2881.203369140625	0.0	2.5731072E7	0.0	3.0	9.79533824E8	43.33674621582031	0.0	0.0	1.06133504E9	1.051189248E9	0.0	0.0	0.07199999690055847	0.051750000566244125	0.04724999889731407	0.9917500019073486	0.7635378837585449	0.0	244.0	371.0	0.0	0.0	0.0	0.0	0.0	0.0	null	null	null	null	null	null	null	null	338.0	332.0	334.0	338.0	337.0	335.0	334.0	339.0	336.0	337.0	337.0	
Mon Jun 05 05:09:00 UTC 2017	0.0	1.047281664E9	2881.203369140625	0.0	2.5731072E7	0.0	2.0	9.79386368E8	39.3253288269043	0.0	0.0	1.06133504E9	1.051189248E9	0.0	0.0	0.07599999755620956	0.051249999552965164	0.048250000923871994	0.9922500252723694	0.7652512788772583	0.0	244.0	371.0	0.0	0.0	0.0	0.0	0.0	0.0	null	null	null	null	null	null	null	null	333.0	337.0	332.0	335.0	336.0	333.0	336.0	335.0	335.0	336.0	335.0	
Mon Jun 05 05:08:00 UTC 2017	0.0	1.047281664E9	3473.6376953125	0.0	2.5731072E7	0.0	3.0	9.79386368E8	31.09817123413086	0.0	0.0	1.06133504E9	1.051189248E9	0.0	0.0	0.0767500028014183	0.05324999988079071	0.04600000008940697	0.9922500252723694	0.7634370923042297	0.0	244.0	371.0	0.0	0.0	0.0	0.0	0.0	0.0	null	null	null	null	null	null	null	null	337.0	337.0	338.0	335.0	336.0	337.0	336.0	336.0	336.0	334.0	335.0	
Mon Jun 05 05:07:00 UTC 2017	0.0	1.047281664E9	3473.6376953125	0.0	2.5731072E7	0.0	5.0	9.79451904E8	31.09817123413086	0.0	0.0	1.06133504E9	1.050161152E9	0.0	0.0	0.06750000268220901	0.050999999046325684	0.051249999552965164	0.9919999837875366	0.7652601003646851	0.0	244.0	371.0	0.0	0.0	0.0	0.0	0.0	0.0	null	null	null	null	null	null	null	null	334.0	332.0	334.0	337.0	335.0	338.0	335.0	334.0	336.0	335.0	334.0	
Mon Jun 05 05:06:00 UTC 2017	0.0	1.047281664E9	3473.6376953125	0.0	2.5731072E7	0.0	5.0	9.79308544E8	56.09220886230469	0.0	0.0	1.06133504E9	1.050161152E9	0.0	0.0	0.07124999910593033	0.04650000110268593	0.04749999940395355	0.9922500252723694	0.7651862502098083	0.0	244.0	371.0	0.0	0.0	0.0	0.0	0.0	0.0	null	null	null	null	null	null	null	null	335.0	337.0	333.0	334.0	336.0	335.0	336.0	335.0	335.0	333.0	334.0	
Mon Jun 05 05:05:00 UTC 2017	0.0	1.047281664E9	2734.463623046875	0.0	2.5731072E7	0.0	2.0	9.79398656E8	56.09220886230469	0.0	0.0	1.06133504E9	1.051189248E9	0.0	0.0	0.08474999666213989	0.054749999195337296	0.04374999925494194	0.9917500019073486	0.7633519768714905	0.0	244.0	371.0	0.0	0.0	0.0	0.0	0.0	0.0	null	null	null	null	null	null	null	null	337.0	337.0	335.0	337.0	331.0	335.0	334.0	333.0	334.0	335.0	336.0	
Mon Jun 05 05:04:00 UTC 2017	0.0	1.047281664E9	2734.463623046875	0.0	2.5731072E7	0.0	2.0	9.79308544E8	56.09220886230469	0.0	0.0	1.06133504E9	1.051189248E9	0.0	0.0	0.06975000351667404	0.04699999839067459	0.04899999871850014	0.9917500019073486	0.7656177878379822	0.0	244.0	371.0	0.0	0.0	0.0	0.0	0.0	0.0	null	null	null	null	null	null	null	null	335.0	334.0	333.0	332.0	338.0	334.0	333.0	335.0	338.0	334.0	337.0	
Mon Jun 05 05:03:00 UTC 2017	0.0	1.047281664E9	2734.463623046875	0.0	2.5731072E7	0.0	2.0	9.79308544E8	40.87555694580078	0.0	0.0	1.06133504E9	1.050161152E9	0.0	0.0	0.07474999874830246	0.05025000125169754	0.05000000074505806	0.9922500252723694	0.7633044719696045	0.0	244.0	371.0	0.0	0.0	0.0	0.0	0.0	0.0	null	null	null	null	null	null	null	null	332.0	330.0	337.0	339.0	335.0	334.0	336.0	340.0	336.0	337.0	336.0	
Mon Jun 05 05:02:00 UTC 2017	0.0	1.047281664E9	2734.463623046875	0.0	2.5731072E7	0.0	3.0	9.79308544E8	40.87555694580078	0.0	0.0	1.06133504E9	1.051189248E9	0.0	null	0.08150000125169754	0.05400000140070915	0.048250000923871994	0.9919999837875366	0.7633010745048523	0.0	244.0	371.0	0.0	0.0	0.0	0.0	0.0	0.0	null	null	null	null	null	null	null	null	337.0	338.0	334.0	334.0	332.0	337.0	334.0	335.0	336.0	334.0	337.0	
Mon Jun 05 05:01:00 UTC 2017	0.0	1.047281664E9	2659.809326171875	0.0	2.5731072E7	0.0	6.0	9.79095552E8	40.87555694580078	0.0	0.0	1.06133504E9	1.051189248E9	0.0	null	0.09475000202655792	0.04600000008940697	0.050999999046325684	0.9922500252723694	0.7651064991950989	0.0	244.0	371.0	0.0	0.0	0.0	0.0	0.0	0.0	null	null	null	null	null	null	null	null	332.0	334.0	339.0	334.0	336.0	333.0	334.0	337.0	329.0	336.0	333.0	
Mon Jun 05 05:00:00 UTC 2017	0.0	1.047281664E9	2989.177734375	0.0	2.5731072E7	0.0	3.0	9.79185664E8	40.87555694580078	0.0	0.0	1.06133504E9	1.050161152E9	0.0	0.0	0.0832500010728836	0.054499998688697815	0.04899999871850014	0.9922500252723694	0.7655091285705566	0.0	244.0	371.0	0.0	0.0	0.0	0.0	0.0	0.0	null	null	null	null	null	null	null	null	338.0	333.0	333.0	334.0	335.0	338.0	332.0	333.0	338.0	336.0	335.0	
Mon Jun 05 04:59:00 UTC 2017	0.0	1.047281664E9	2183.1630859375	0.0	2.5731072E7	0.0	2.0	9.79095552E8	43.69598388671875	0.0	0.0	1.06133504E9	1.051189248E9	0.0	0.0	0.0742499977350235	0.04675000160932541	0.042500000447034836	0.9919999837875366	0.7632120251655579	0.0	244.0	371.0	0.0	0.0	0.0	0.0	0.0	0.0	null	null	null	null	null	null	null	null	340.0	336.0	334.0	335.0	332.0	335.0	334.0	342.0	335.0	338.0	336.0	
Mon Jun 05 04:58:00 UTC 2017	0.0	1.047281664E9	2881.976318359375	0.0	2.5731072E7	0.0	2.0	9.79095552E8	43.69598388671875	0.0	0.0	1.06133504E9	1.051189248E9	0.0	0.0	0.06674999743700027	0.057500001043081284	0.04975000023841858	0.9922500252723694	0.7654979228973389	0.0	244.0	371.0	0.0	0.0	0.0	0.0	0.0	0.0	null	null	null	null	null	null	null	null	333.0	335.0	336.0	339.0	335.0	335.0	336.0	336.0	336.0	335.0	335.0	
Mon Jun 05 04:57:00 UTC 2017	0.0	1.047281664E9	2881.976318359375	0.0	2.5731072E7	0.0	3.0	9.79095552E8	43.69598388671875	0.0	0.0	1.06133504E9	1.051189248E9	0.0	0.0	0.07474999874830246	0.050999999046325684	0.05050000175833702	0.9919999837875366	0.7631586790084839	0.0	244.0	371.0	0.0	0.0	0.0	0.0	0.0	0.0	null	null	null	null	null	null	null	null	334.0	336.0	336.0	336.0	335.0	337.0	337.0	332.0	333.0	335.0	340.0	
Mon Jun 05 04:56:00 UTC 2017	0.0	1.047281664E9	2881.976318359375	0.0	2.5731072E7	0.0	2.0	9.7888256E8	43.69598388671875	0.0	0.0	1.06133504E9	1.051189248E9	0.0	null	0.08150000125169754	0.05249999836087227	0.04500000178813934	0.9919999837875366	0.763127863407135	0.0	244.0	371.0	0.0	0.0	0.0	0.0	0.0	0.0	null	null	null	null	null	null	null	null	334.0	335.0	337.0	331.0	335.0	332.0	335.0	335.0	336.0	337.0	335.0	
Mon Jun 05 04:55:00 UTC 2017	0.0	1.047281664E9	2881.976318359375	0.0	2.5731072E7	0.0	2.0	9.78972672E8	41.91940689086914	0.0	0.0	1.06133504E9	1.050161152E9	0.0	0.0	0.07275000214576721	0.04625000059604645	0.05324999988079071	0.9922500252723694	0.7631039023399353	0.0	244.0	371.0	0.0	0.0	0.0	0.0	0.0	0.0	null	null	null	null	null	null	null	null	339.0	335.0	335.0	337.0	335.0	335.0	338.0	335.0	335.0	332.0	335.0	
Mon Jun 05 04:54:00 UTC 2017	0.0	1.047281664E9	2881.976318359375	0.0	2.5731072E7	0.0	2.0	9.7888256E8	41.91940689086914	0.0	0.0	1.06133504E9	1.051189248E9	0.0	0.0	0.07325000315904617	0.052000001072883606	0.048250000923871994	0.9917500019073486	0.7630999684333801	0.0	244.0	371.0	0.0	0.0	0.0	0.0	0.0	0.0	null	null	null	null	null	null	null	null	337.0	335.0	336.0	337.0	337.0	337.0	332.0	337.0	337.0	339.0	334.0	
Mon Jun 05 04:53:00 UTC 2017	0.0	1.047281664E9	2469.982666015625	0.0	2.5731072E7	0.0	4.0	9.7888256E8	45.15999984741211	0.0	0.0	1.06133504E9	1.050161152E9	0.0	0.0	0.07824999839067459	0.04699999839067459	0.04600000008940697	0.9919999837875366	0.7630833387374878	0.0	244.0	371.0	0.0	0.0	0.0	0.0	0.0	0.0	null	null	null	null	null	null	null	null	336.0	335.0	334.0	334.0	334.0	335.0	334.0	336.0	333.0	334.0	334.0	
Mon Jun 05 04:52:00 UTC 2017	0.0	1.047281664E9	2176.741943359375	0.0	2.5731072E7	0.0	3.0	9.7888256E8	49.34554672241211	0.0	0.0	1.06133504E9	1.051189248E9	0.0	0.0	0.08025000244379044	0.05550000071525574	0.05299999937415123	0.9919999837875366	0.7630676627159119	0.0	244.0	371.0	0.0	0.0	0.0	0.0	0.0	0.0	null	null	null	null	null	null	null	null	336.0	334.0	335.0	339.0	337.0	336.0	335.0	337.0	339.0	336.0	337.0	
Mon Jun 05 04:51:00 UTC 2017	0.0	1.047281664E9	2176.741943359375	0.0	2.5731072E7	0.0	3.0	9.78673664E8	49.34554672241211	0.0	0.0	1.06133504E9	1.051189248E9	0.0	0.0	0.09799999743700027	0.048250000923871994	0.04899999871850014	0.9919999837875366	0.7630515694618225	0.0	244.0	371.0	0.0	0.0	0.0	0.0	0.0	0.0	null	null	null	null	null	null	null	null	333.0	332.0	338.0	332.0	332.0	334.0	333.0	338.0	331.0	335.0	333.0	
Mon Jun 05 04:50:00 UTC 2017	0.0	1.047281664E9	3181.47265625	0.0	2.5731072E7	0.0	6.0	9.78763776E8	40.91891098022461	0.0	0.0	1.06133504E9	1.051189248E9	0.0	0.0	0.07175000011920929	0.048500001430511475	0.04450000077486038	0.9919999837875366	0.763033926486969	0.0	244.0	371.0	0.0	0.0	0.0	0.0	0.0	0.0	null	null	null	null	null	null	null	null	336.0	338.0	335.0	337.0	336.0	337.0	332.0	333.0	340.0	337.0	335.0	
Mon Jun 05 04:49:00 UTC 2017	0.0	1.047281664E9	3007.783203125	0.0	2.5731072E7	0.0	4.0	9.78673664E8	40.91891098022461	0.0	0.0	1.06133504E9	1.051189248E9	0.0	null	0.07474999874830246	0.054749999195337296	0.04749999940395355	0.9919999837875366	0.7630153298377991	0.0	244.0	371.0	0.0	0.0	0.0	0.0	0.0	0.0	null	null	null	null	null	null	null	null	337.0	329.0	335.0	335.0	335.0	337.0	339.0	335.0	332.0	335.0	337.0	
Mon Jun 05 04:48:00 UTC 2017	0.0	1.047281664E9	2734.4150390625	0.0	2.5731072E7	0.0	6.0	9.78673664E8	43.02983856201172	0.0	0.0	1.06133504E9	1.051189248E9	0.0	null	0.07124999910593033	0.0507499985396862	0.051249999552965164	0.9919999837875366	0.7653012275695801	0.0	244.0	371.0	0.0	0.0	0.0	0.0	0.0	0.0	null	null	null	null	null	null	null	null	334.0	336.0	337.0	331.0	334.0	335.0	335.0	336.0	338.0	335.0	337.0	
Mon Jun 05 04:47:00 UTC 2017	0.0	1.047281664E9	2734.4150390625	0.0	2.5731072E7	0.0	2.0	9.78673664E8	39.63217544555664	0.0	0.0	1.06133504E9	1.051189248E9	0.0	null	0.07824999839067459	0.04975000023841858	0.0494999997317791	0.9922500252723694	0.7636699676513672	0.0	244.0	371.0	0.0	0.0	0.0	0.0	0.0	0.0	null	null	null	null	null	null	null	null	335.0	337.0	336.0	336.0	337.0	336.0	335.0	337.0	333.0	335.0	334.0	
Mon Jun 05 04:46:00 UTC 2017	0.0	1.047281664E9	2853.98583984375	0.0	2.5731072E7	0.0	2.0	9.78460672E8	39.63217544555664	0.0	0.0	1.06133504E9	1.050161152E9	0.0	0.0	0.07625000178813934	0.0494999997317791	0.04324999824166298	0.9917500019073486	0.7648183107376099	0.0	244.0	371.0	0.0	0.0	0.0	0.0	0.0	0.0	null	null	null	null	null	null	null	null	335.0	335.0	335.0	335.0	334.0	335.0	336.0	330.0	335.0	337.0	338.0	
Mon Jun 05 04:45:00 UTC 2017	0.0	1.047281664E9	2853.98583984375	0.0	2.5731072E7	0.0	2.0	9.78550784E8	38.719215393066406	0.0	0.0	1.06133504E9	1.051189248E9	0.0	0.0	0.06800000369548798	0.05025000125169754	0.050999999046325684	0.9919999837875366	0.7628945112228394	0.0	244.0	371.0	0.0	0.0	0.0	0.0	0.0	0.0	null	null	null	null	null	null	null	null	336.0	331.0	338.0	335.0	335.0	336.0	332.0	336.0	336.0	333.0	332.0	
Mon Jun 05 04:44:00 UTC 2017	0.0	1.047281664E9	2853.98583984375	0.0	2.5731072E7	0.0	3.0	9.78460672E8	38.719215393066406	0.0	0.0	1.06133504E9	1.051189248E9	0.0	null	0.07774999737739563	0.04724999889731407	0.04800000041723251	0.9922500252723694	0.7628998756408691	0.0	244.0	371.0	0.0	0.0	0.0	0.0	0.0	0.0	null	null	null	null	null	null	null	null	333.0	339.0	335.0	334.0	337.0	334.0	340.0	335.0	333.0	335.0	337.0	
Mon Jun 05 04:43:00 UTC 2017	0.0	1.047281664E9	2853.98583984375	0.0	2.5731072E7	0.0	2.0	9.78460672E8	38.719215393066406	0.0	0.0	1.06133504E9	1.050161152E9	0.0	0.0	0.07874999940395355	0.05050000175833702	0.04774999991059303	0.9917500019073486	0.7629492878913879	0.0	244.0	371.0	0.0	0.0	0.0	0.0	0.0	0.0	null	null	null	null	null	null	null	null	334.0	333.0	335.0	334.0	334.0	334.0	335.0	332.0	336.0	336.0	333.0	
Mon Jun 05 04:42:00 UTC 2017	0.0	1.047281664E9	2853.98583984375	0.0	2.5731072E7	0.0	2.0	9.78460672E8	40.47677993774414	0.0	0.0	1.06133504E9	1.051189248E9	0.0	0.0	0.0702499970793724	0.050999999046325684	0.05050000175833702	0.9917500019073486	0.7629302144050598	0.0	244.0	371.0	0.0	0.0	0.0	0.0	0.0	0.0	null	null	null	null	null	null	null	null	336.0	335.0	335.0	337.0	335.0	334.0	332.0	336.0	334.0	338.0	336.0	
Mon Jun 05 04:41:00 UTC 2017	0.0	1.047281664E9	2853.98583984375	0.0	2.5731072E7	0.0	2.0	9.7824768E8	40.47677993774414	0.0	0.0	1.06133504E9	1.050161152E9	0.0	0.0	0.10949999839067459	0.051249999552965164	0.04800000041723251	0.9922500252723694	0.7629982233047485	0.0	244.0	371.0	0.0	0.0	0.0	0.0	0.0	0.0	null	null	null	null	null	null	null	null	333.0	335.0	336.0	335.0	335.0	337.0	334.0	337.0	337.0	334.0	339.0	
Mon Jun 05 04:40:00 UTC 2017	0.0	1.047281664E9	2853.98583984375	0.0	2.5731072E7	0.0	2.0	9.78337792E8	40.47677993774414	0.0	0.0	1.06133504E9	1.050161152E9	0.0	0.0	0.06925000250339508	0.04650000110268593	0.04600000008940697	0.9917500019073486	0.7637434005737305	0.0	244.0	371.0	0.0	0.0	0.0	0.0	0.0	0.0	null	null	null	null	null	null	null	null	334.0	335.0	336.0	338.0	338.0	332.0	331.0	334.0	334.0	337.0	332.0	
Mon Jun 05 04:39:00 UTC 2017	0.0	1.047281664E9	2867.45849609375	0.0	2.5731072E7	0.0	3.0	9.7824768E8	40.47677993774414	0.0	0.0	1.06133504E9	1.050161152E9	0.0	0.0	0.08025000244379044	0.054749999195337296	0.0507499985396862	0.9919999837875366	0.7629781365394592	0.0	244.0	371.0	0.0	0.0	0.0	0.0	0.0	0.0	null	null	null	null	null	null	null	null	336.0	337.0	335.0	334.0	336.0	336.0	337.0	335.0	337.0	333.0	337.0	
Mon Jun 05 04:38:00 UTC 2017	0.0	1.047281664E9	2867.45849609375	0.0	2.5731072E7	0.0	2.0	9.7824768E8	39.64314270019531	0.0	0.0	1.06133504E9	1.050161152E9	0.0	0.0	0.06674999743700027	0.048500001430511475	0.045499999076128006	0.9922500252723694	0.7629610300064087	0.0	244.0	371.0	0.0	0.0	0.0	0.0	0.0	0.0	null	null	null	null	null	null	null	null	336.0	334.0	335.0	339.0	334.0	337.0	335.0	333.0	337.0	336.0	334.0	
Mon Jun 05 04:37:00 UTC 2017	0.0	1.047281664E9	2867.45849609375	0.0	2.5731072E7	0.0	2.0	9.7824768E8	59.71636962890625	0.0	0.0	1.06133504E9	1.050161152E9	0.0	null	0.08425000309944153	0.04975000023841858	0.04774999991059303	0.9919999837875366	0.7629390358924866	0.0	244.0	371.0	0.0	0.0	0.0	0.0	0.0	0.0	null	null	null	null	null	null	null	null	336.0	336.0	339.0	334.0	334.0	334.0	336.0	336.0	336.0	335.0	337.0	
Mon Jun 05 04:36:00 UTC 2017	0.0	1.047281664E9	2662.680419921875	0.0	2.5731072E7	0.0	2.0	9.780224E8	35.61277770996094	0.0	0.0	1.06133504E9	1.051189248E9	0.0	null	0.07374999672174454	0.04800000041723251	0.04675000160932541	0.9919999837875366	0.762458086013794	0.0	244.0	371.0	0.0	0.0	0.0	0.0	0.0	0.0	null	null	null	null	null	null	null	null	335.0	336.0	334.0	338.0	335.0	337.0	336.0	332.0	334.0	332.0	335.0	
Mon Jun 05 04:35:00 UTC 2017	0.0	1.047281664E9	2722.8076171875	0.0	2.5731072E7	0.0	3.0	9.78112512E8	35.61277770996094	0.0	0.0	1.06133504E9	1.050161152E9	0.0	0.0	0.06300000101327896	0.05575000122189522	0.04800000041723251	0.9917500019073486	0.7647419571876526	0.0	244.0	371.0	0.0	0.0	0.0	0.0	0.0	0.0	null	null	null	null	null	null	null	null	334.0	337.0	337.0	336.0	336.0	335.0	334.0	338.0	334.0	337.0	334.0	
Mon Jun 05 04:34:00 UTC 2017	0.0	1.047281664E9	2722.8076171875	0.0	2.5731072E7	0.0	4.0	9.780224E8	35.61277770996094	0.0	0.0	1.06133504E9	1.051189248E9	0.0	0.0	0.07649999856948853	0.050999999046325684	0.04975000023841858	0.9917500019073486	0.762439489364624	0.0	244.0	371.0	0.0	0.0	0.0	0.0	0.0	0.0	null	null	null	null	null	null	null	null	333.0	337.0	336.0	333.0	331.0	333.0	335.0	333.0	333.0	333.0	335.0	
Mon Jun 05 04:33:00 UTC 2017	0.0	1.047281664E9	3009.939208984375	0.0	2.5731072E7	0.0	4.0	9.780224E8	33.52433776855469	0.0	0.0	1.06133504E9	1.051189248E9	0.0	0.0	0.0754999965429306	0.04450000077486038	0.04874999821186066	0.9915000200271606	0.7623181343078613	0.0	244.0	371.0	0.0	0.0	0.0	0.0	0.0	0.0	null	null	null	null	null	null	null	null	335.0	335.0	331.0	334.0	336.0	335.0	336.0	334.0	334.0	334.0	331.0	
Mon Jun 05 04:32:00 UTC 2017	0.0	1.047281664E9	3009.939208984375	0.0	2.5731072E7	0.0	4.0	9.780224E8	33.52433776855469	1.0	0.0	1.06133504E9	1.051189248E9	0.0	null	0.08375000208616257	0.05550000071525574	0.04600000008940697	0.9917500019073486	0.764201819896698	0.0	244.0	371.0	0.0	0.0	0.0	0.0	0.0	0.0	null	null	null	null	null	null	null	null	335.0	336.0	338.0	337.0	336.0	336.0	333.0	336.0	336.0	334.0	332.0	
Mon Jun 05 04:31:00 UTC 2017	0.0	1.047281664E9	3009.939208984375	0.0	2.5731072E7	0.0	2.0	9.77809408E8	37.79631042480469	0.0	0.0	1.06133504E9	1.050161152E9	0.0	0.0	0.09775000065565109	0.05225000157952309	0.04874999821186066	0.9917500019073486	0.7622966170310974	0.0	244.0	371.0	0.0	0.0	0.0	0.0	0.0	0.0	null	null	null	null	null	null	null	null	335.0	336.0	334.0	333.0	331.0	335.0	335.0	330.0	332.0	337.0	337.0	
Mon Jun 05 04:30:00 UTC 2017	0.0	1.047281664E9	2736.40673828125	0.0	2.5731072E7	0.0	3.0	9.77866752E8	37.79631042480469	0.0	0.0	1.06133504E9	1.051189248E9	0.0	0.0	0.07599999755620956	0.04800000041723251	0.04874999821186066	0.9922500252723694	0.7622701525688171	0.0	244.0	371.0	0.0	0.0	0.0	0.0	0.0	0.0	null	null	null	null	null	null	null	null	337.0	335.0	334.0	333.0	336.0	338.0	338.0	338.0	334.0	332.0	334.0	
Mon Jun 05 04:29:00 UTC 2017	0.0	1.047281664E9	2705.33251953125	0.0	2.5731072E7	0.0	2.0	9.7777664E8	46.47437286376953	0.0	0.0	1.06133504E9	1.051189248E9	0.0	0.0	0.07325000315904617	0.04749999940395355	0.04975000023841858	0.9922500252723694	0.7644454836845398	0.0	244.0	371.0	0.0	0.0	0.0	0.0	0.0	0.0	null	null	null	null	null	null	null	null	333.0	335.0	337.0	340.0	339.0	335.0	334.0	335.0	337.0	336.0	335.0	
Mon Jun 05 04:28:00 UTC 2017	0.0	1.047281664E9	2705.33251953125	0.0	2.5731072E7	0.0	2.0	9.7777664E8	46.47437286376953	0.0	0.0	1.06133504E9	1.051189248E9	0.0	0.0	0.06975000351667404	0.05375000089406967	0.048250000923871994	0.9922500252723694	0.7645952105522156	0.0	244.0	371.0	0.0	0.0	0.0	0.0	0.0	0.0	null	null	null	null	null	null	null	null	340.0	339.0	339.0	335.0	336.0	333.0	336.0	334.0	333.0	334.0	335.0	
Mon Jun 05 04:27:00 UTC 2017	0.0	1.047281664E9	2429.6611328125	0.0	2.5731072E7	0.0	2.0	9.7777664E8	38.83266067504883	0.0	0.0	1.06133504E9	1.051189248E9	0.0	null	0.07999999821186066	0.04574999958276749	0.041999999433755875	0.9922500252723694	0.7622931599617004	0.0	244.0	371.0	0.0	0.0	0.0	0.0	0.0	0.0	null	null	null	null	null	null	null	null	333.0	336.0	335.0	338.0	334.0	337.0	336.0	335.0	338.0	340.0	340.0	
Mon Jun 05 04:26:00 UTC 2017	0.0	1.047281664E9	2429.6611328125	0.0	2.5731072E7	0.0	2.0	9.7765376E8	48.52619934082031	0.0	0.0	1.06133504E9	1.051189248E9	0.0	null	0.07050000131130219	0.051750000566244125	0.04924999922513962	0.9919999837875366	0.7632824778556824	0.0	244.0	371.0	0.0	0.0	0.0	0.0	0.0	0.0	null	null	null	null	null	null	null	null	338.0	331.0	337.0	332.0	335.0	336.0	335.0	334.0	334.0	333.0	335.0	
Mon Jun 05 04:25:00 UTC 2017	0.0	1.047281664E9	2429.6611328125	0.0	2.5731072E7	0.0	2.0	9.7765376E8	61.78379440307617	0.0	0.0	1.06133504E9	1.051189248E9	0.0	null	0.07649999856948853	0.05225000157952309	0.04899999871850014	0.9919999837875366	0.7645976543426514	0.0	244.0	371.0	0.0	0.0	0.0	0.0	0.0	0.0	null	null	null	null	null	null	null	null	334.0	337.0	335.0	335.0	335.0	334.0	335.0	336.0	333.0	337.0	334.0	
Mon Jun 05 04:24:00 UTC 2017	0.0	1.047281664E9	2500.290283203125	0.0	2.5731072E7	0.0	2.0	9.77629184E8	61.78379440307617	0.0	0.0	1.06133504E9	1.050161152E9	0.0	0.0	0.07874999940395355	0.05375000089406967	0.04650000110268593	0.9917500019073486	0.762242317199707	0.0	244.0	371.0	0.0	0.0	0.0	0.0	0.0	0.0	null	null	null	null	null	null	null	null	338.0	334.0	334.0	336.0	332.0	336.0	337.0	336.0	333.0	336.0	333.0	
Mon Jun 05 04:23:00 UTC 2017	0.0	1.047281664E9	2500.290283203125	0.0	2.5731072E7	0.0	3.0	9.77563648E8	61.78379440307617	0.0	0.0	1.06133504E9	1.051189248E9	0.0	null	0.07474999874830246	0.051500000059604645	0.05299999937415123	0.9919999837875366	0.7622398138046265	0.0	244.0	371.0	0.0	0.0	0.0	0.0	0.0	0.0	null	null	null	null	null	null	null	null	333.0	338.0	335.0	338.0	335.0	333.0	335.0	335.0	338.0	337.0	334.0	
Mon Jun 05 04:22:00 UTC 2017	0.0	1.047281664E9	2500.290283203125	0.0	2.5731072E7	0.0	5.0	9.77563648E8	46.636146545410156	0.0	0.0	1.06133504E9	1.051189248E9	0.0	null	0.0677499994635582	0.04675000160932541	0.04625000059604645	0.9919999837875366	0.7622368931770325	0.0	244.0	371.0	0.0	0.0	0.0	0.0	0.0	0.0	null	null	null	null	null	null	null	null	336.0	338.0	337.0	334.0	337.0	335.0	334.0	338.0	333.0	334.0	333.0	
Mon Jun 05 04:21:00 UTC 2017	0.0	1.047281664E9	2500.290283203125	0.0	2.5731072E7	0.0	3.0	9.77354752E8	46.636146545410156	0.0	0.0	1.06133504E9	1.050161152E9	0.0	0.0	0.1014999970793724	0.05000000074505806	0.04924999922513962	0.9919999837875366	0.7622197866439819	0.0	244.0	371.0	0.0	0.0	0.0	0.0	0.0	0.0	null	null	null	null	null	null	null	null	337.0	333.0	334.0	335.0	335.0	336.0	336.0	334.0	335.0	331.0	339.0	
Mon Jun 05 04:20:00 UTC 2017	0.0	1.047281664E9	2500.290283203125	0.0	2.5731072E7	0.0	3.0	9.77440768E8	46.636146545410156	0.0	0.0	1.06133504E9	1.051189248E9	0.0	0.0	0.07625000178813934	0.051249999552965164	0.04800000041723251	0.9917500019073486	0.7622178196907043	0.0	244.0	371.0	0.0	0.0	0.0	0.0	0.0	0.0	null	null	null	null	null	null	null	null	336.0	340.0	334.0	334.0	335.0	334.0	336.0	336.0	336.0	339.0	334.0	
Mon Jun 05 04:19:00 UTC 2017	0.0	1.047281664E9	2500.290283203125	0.0	2.5731072E7	0.0	2.0	9.77350656E8	42.58013153076172	0.0	0.0	1.06133504E9	1.051189248E9	0.0	0.0	0.07225000113248825	0.05025000125169754	0.0507499985396862	0.9917500019073486	0.762216329574585	0.0	244.0	371.0	0.0	0.0	0.0	0.0	0.0	0.0	null	null	null	null	null	null	null	null	335.0	333.0	339.0	335.0	334.0	336.0	335.0	333.0	333.0	332.0	335.0	
Mon Jun 05 04:18:00 UTC 2017	0.0	1.047281664E9	2613.101806640625	0.0	2.5731072E7	0.0	2.0	9.77350656E8	39.68172836303711	0.0	0.0	1.06133504E9	1.050161152E9	0.0	0.0	0.07500000298023224	0.051750000566244125	0.04374999925494194	0.9922500252723694	0.7622002363204956	0.0	244.0	371.0	0.0	0.0	0.0	0.0	0.0	0.0	null	null	null	null	null	null	null	null	333.0	337.0	334.0	334.0	334.0	339.0	336.0	335.0	338.0	336.0	334.0	
Mon Jun 05 04:17:00 UTC 2017	0.0	1.047281664E9	3132.467529296875	0.0	2.5731072E7	0.0	2.0	9.77350656E8	39.68172836303711	0.0	0.0	1.06133504E9	1.050161152E9	0.0	0.0	0.07400000095367432	0.05050000175833702	0.04699999839067459	0.9922500252723694	0.7621825933456421	0.0	244.0	371.0	0.0	0.0	0.0	0.0	0.0	0.0	null	null	null	null	null	null	null	null	335.0	333.0	335.0	336.0	336.0	333.0	336.0	334.0	335.0	339.0	339.0	
Mon Jun 05 04:16:00 UTC 2017	0.0	1.047281664E9	3064.533935546875	0.0	2.5731072E7	0.0	2.0	9.7714176E8	52.900550842285156	0.0	0.0	1.06133504E9	1.050161152E9	0.0	0.0	0.07325000315904617	0.05299999937415123	0.05274999886751175	0.9919999837875366	0.7644694447517395	0.0	244.0	371.0	0.0	0.0	0.0	0.0	0.0	0.0	null	null	null	null	null	null	null	null	335.0	336.0	337.0	339.0	334.0	336.0	335.0	336.0	335.0	335.0	334.0	
Mon Jun 05 04:15:00 UTC 2017	0.0	1.047281664E9	3064.533935546875	0.0	2.5731072E7	0.0	2.0	9.77231872E8	48.0474853515625	0.0	0.0	1.06133504E9	1.050161152E9	0.0	0.0	0.07774999737739563	0.04924999922513962	0.04650000110268593	0.9922500252723694	0.7621322274208069	0.0	244.0	371.0	0.0	0.0	0.0	0.0	0.0	0.0	null	null	null	null	null	null	null	null	335.0	335.0	337.0	337.0	335.0	338.0	334.0	334.0	337.0	335.0	336.0	
Mon Jun 05 04:14:00 UTC 2017	0.0	1.047281664E9	3064.533935546875	0.0	2.5731072E7	0.0	2.0	9.7714176E8	48.0474853515625	0.0	0.0	1.06133504E9	1.050161152E9	0.0	null	0.07999999821186066	0.048500001430511475	0.04724999889731407	0.9917500019073486	0.7621150612831116	0.0	244.0	371.0	0.0	0.0	0.0	0.0	0.0	0.0	null	null	null	null	null	null	null	null	335.0	339.0	333.0	335.0	337.0	334.0	336.0	337.0	334.0	335.0	337.0	
Mon Jun 05 04:13:00 UTC 2017	0.0	1.047281664E9	2838.322509765625	0.0	2.5731072E7	0.0	2.0	9.7714176E8	57.262184143066406	0.0	0.0	1.06133504E9	1.051189248E9	0.0	0.0	0.06650000065565109	0.05225000157952309	0.05050000175833702	0.9919999837875366	0.7639503479003906	0.0	244.0	371.0	0.0	0.0	0.0	0.0	0.0	0.0	null	null	null	null	null	null	null	null	334.0	335.0	335.0	337.0	332.0	335.0	337.0	333.0	337.0	336.0	332.0	
Mon Jun 05 04:12:00 UTC 2017	0.0	1.047281664E9	2838.322509765625	0.0	2.5731072E7	0.0	3.0	9.7714176E8	52.007991790771484	0.0	0.0	1.06133504E9	1.050161152E9	0.0	0.0	0.08174999803304672	0.05025000125169754	0.05000000074505806	0.9922500252723694	0.7644503712654114	0.0	244.0	371.0	0.0	0.0	0.0	0.0	0.0	0.0	null	null	null	null	null	null	null	null	335.0	334.0	336.0	335.0	337.0	336.0	335.0	333.0	333.0	336.0	335.0	
Mon Jun 05 04:11:00 UTC 2017	0.0	1.047281664E9	2838.322509765625	0.0	2.5731072E7	0.0	3.0	9.76928768E8	46.52437973022461	0.0	0.0	1.06133504E9	1.051189248E9	0.0	0.0	0.0949999988079071	0.04625000059604645	0.045499999076128006	0.9922500252723694	0.7620784044265747	0.0	244.0	371.0	0.0	0.0	0.0	0.0	0.0	0.0	null	null	null	null	null	null	null	null	336.0	338.0	336.0	337.0	337.0	335.0	334.0	335.0	335.0	332.0	336.0	
Mon Jun 05 04:10:00 UTC 2017	0.0	1.047281664E9	2562.364013671875	0.0	2.5731072E7	0.0	3.0	9.77281024E8	46.52437973022461	0.0	0.0	1.06133504E9	1.050161152E9	0.0	null	0.07199999690055847	0.0560000017285347	0.04749999940395355	0.9922500252723694	0.7626973390579224	0.0	244.0	371.0	0.0	0.0	0.0	0.0	0.0	0.0	null	null	null	null	null	null	null	null	336.0	336.0	335.0	333.0	333.0	335.0	335.0	335.0	336.0	337.0	338.0	
Mon Jun 05 04:09:00 UTC 2017	0.0	1.047281664E9	3081.314208984375	0.0	2.5731072E7	0.0	2.0	9.7691648E8	46.52437973022461	0.0	0.0	1.06133504E9	1.050161152E9	0.0	null	0.07649999856948853	0.05025000125169754	0.048500001430511475	0.9919999837875366	0.7620221376419067	0.0	244.0	371.0	0.0	0.0	0.0	0.0	0.0	0.0	null	null	null	null	null	null	null	null	336.0	337.0	337.0	336.0	336.0	338.0	335.0	337.0	335.0	339.0	334.0	
Mon Jun 05 04:08:00 UTC 2017	0.0	1.047281664E9	2174.527587890625	0.0	2.5731072E7	0.0	8.0	9.7691648E8	46.52437973022461	0.0	0.0	1.06133504E9	1.051189248E9	0.0	null	0.07474999874830246	0.04625000059604645	0.0442500002682209	0.9919999837875366	0.7620387673377991	0.0	244.0	371.0	0.0	0.0	0.0	0.0	0.0	0.0	null	null	null	null	null	null	null	null	335.0	332.0	332.0	336.0	336.0	337.0	335.0	334.0	334.0	335.0	336.0	
Mon Jun 05 04:07:00 UTC 2017	0.0	1.047281664E9	2769.691650390625	0.0	2.5731072E7	0.0	4.0	9.7691648E8	46.52437973022461	0.0	0.0	1.06133504E9	1.050161152E9	0.0	null	0.0754999965429306	0.05700000002980232	0.04874999821186066	0.9919999837875366	0.7620397210121155	0.0	244.0	371.0	0.0	0.0	0.0	0.0	0.0	0.0	null	null	null	null	null	null	null	null	333.0	339.0	335.0	336.0	333.0	333.0	334.0	337.0	335.0	334.0	332.0	
Mon Jun 05 04:06:00 UTC 2017	0.0	1.047281664E9	2769.691650390625	0.0	2.5731072E7	0.0	2.0	9.76703488E8	46.52437973022461	0.0	0.0	1.06133504E9	1.051189248E9	0.0	0.0	0.0729999989271164	0.050999999046325684	0.04774999991059303	0.9919999837875366	0.7620265483856201	0.0	244.0	371.0	0.0	0.0	0.0	0.0	0.0	0.0	null	null	null	null	null	null	null	null	336.0	333.0	334.0	335.0	334.0	337.0	333.0	336.0	335.0	335.0	336.0	
Mon Jun 05 04:05:00 UTC 2017	0.0	1.047281664E9	2337.891845703125	0.0	2.5731072E7	0.0	2.0	9.767936E8	46.013179779052734	0.0	0.0	1.06133504E9	1.050161152E9	0.0	null	0.06750000268220901	0.05025000125169754	0.04699999839067459	0.9917500019073486	0.7642996907234192	0.0	244.0	371.0	0.0	0.0	0.0	0.0	0.0	0.0	null	null	null	null	null	null	null	null	334.0	337.0	337.0	332.0	336.0	334.0	337.0	338.0	338.0	334.0	335.0	
Mon Jun 05 04:04:00 UTC 2017	0.0	1.047281664E9	2788.06884765625	0.0	2.5731072E7	0.0	2.0	9.76703488E8	69.50255584716797	0.0	0.0	1.06133504E9	1.050161152E9	0.0	null	0.07824999839067459	0.04774999991059303	0.04675000160932541	0.9917500019073486	0.7620142698287964	0.0	244.0	371.0	0.0	0.0	0.0	0.0	0.0	0.0	null	null	null	null	null	null	null	null	336.0	337.0	335.0	335.0	337.0	334.0	334.0	338.0	334.0	336.0	335.0	
Mon Jun 05 04:03:00 UTC 2017	0.0	1.047281664E9	2788.06884765625	0.0	2.5731072E7	0.0	2.0	9.76703488E8	69.50255584716797	0.0	0.0	1.06133504E9	1.050161152E9	0.0	null	0.07900000363588333	0.05649999901652336	0.0507499985396862	0.9915000200271606	0.7619756460189819	0.0	244.0	371.0	0.0	0.0	0.0	0.0	0.0	0.0	null	null	null	null	null	null	null	null	335.0	336.0	332.0	334.0	334.0	336.0	334.0	333.0	333.0	334.0	336.0	
Mon Jun 05 04:02:00 UTC 2017	0.0	1.047281664E9	2788.06884765625	0.0	2.5731072E7	0.0	3.0	9.76703488E8	64.10221099853516	0.0	0.0	1.06133504E9	1.051189248E9	0.0	null	0.06975000351667404	0.04800000041723251	0.04675000160932541	0.9919999837875366	0.7642233371734619	0.0	244.0	371.0	0.0	0.0	0.0	0.0	0.0	0.0	null	null	null	null	null	null	null	null	334.0	334.0	334.0	336.0	337.0	335.0	337.0	340.0	339.0	337.0	334.0	
Mon Jun 05 04:01:00 UTC 2017	0.0	1.047281664E9	2788.06884765625	0.0	2.5731072E7	0.0	2.0	9.76494592E8	64.10221099853516	0.0	0.0	1.06133504E9	1.050161152E9	0.0	null	0.09974999725818634	0.048250000923871994	0.0507499985396862	0.9922500252723694	0.7642135620117188	0.0	244.0	371.0	0.0	0.0	0.0	0.0	0.0	0.0	null	null	null	null	null	null	null	null	335.0	334.0	333.0	334.0	334.0	335.0	335.0	332.0	335.0	333.0	337.0	
Mon Jun 05 04:00:00 UTC 2017	0.0	1.047281664E9	2788.06884765625	0.0	2.5731072E7	0.0	4.0	9.76580608E8	52.55513000488281	0.0	0.0	1.06133504E9	1.051189248E9	0.0	null	0.06925000250339508	0.05274999886751175	0.04724999889731407	0.9922500252723694	0.7642311453819275	0.0	244.0	371.0	0.0	0.0	0.0	0.0	0.0	0.0	null	null	null	null	null	null	null	null	336.0	335.0	337.0	335.0	336.0	336.0	336.0	335.0	334.0	333.0	333.0	
Mon Jun 05 03:59:00 UTC 2017	0.0	1.047281664E9	2543.25244140625	0.0	2.5731072E7	0.0	2.0	9.76490496E8	52.55513000488281	0.0	0.0	1.06133504E9	1.050161152E9	0.0	null	0.08150000125169754	0.05274999886751175	0.048500001430511475	0.9922500252723694	0.761850893497467	0.0	244.0	371.0	0.0	0.0	0.0	0.0	0.0	0.0	null	null	null	null	null	null	null	null	336.0	338.0	335.0	340.0	332.0	338.0	336.0	333.0	337.0	340.0	336.0	
Mon Jun 05 03:58:00 UTC 2017	1.0	1.047281664E9	2543.25244140625	0.0	2.5731072E7	0.0	5.0	9.76490496E8	52.55513000488281	0.0	0.0	1.06133504E9	1.050161152E9	0.0	null	0.07400000095367432	0.04800000041723251	0.05050000175833702	0.9919999837875366	0.7633451223373413	0.0	244.0	371.0	0.0	0.0	0.0	0.0	0.0	0.0	null	null	null	null	null	null	null	null	336.0	337.0	331.0	337.0	338.0	334.0	336.0	336.0	334.0	333.0	339.0	
Mon Jun 05 03:57:00 UTC 2017	0.0	1.047281664E9	2543.25244140625	0.0	2.5731072E7	0.0	5.0	9.76490496E8	52.55513000488281	0.0	1.0	1.06133504E9	1.051189248E9	0.0	0.0	0.06875000149011612	0.05550000071525574	0.04625000059604645	0.9922500252723694	0.7618308067321777	0.0	244.0	371.0	0.0	0.0	0.0	0.0	0.0	0.0	null	null	null	null	null	null	null	null	336.0	337.0	341.0	334.0	334.0	338.0	336.0	334.0	338.0	338.0	334.0	
Mon Jun 05 03:56:00 UTC 2017	0.0	1.047281664E9	2623.6884765625	0.0	2.5731072E7	0.0	2.0	9.762816E8	38.24079513549805	0.0	0.0	1.06133504E9	1.050161152E9	0.0	0.0	0.08275000005960464	0.0507499985396862	0.0507499985396862	0.9919999837875366	0.7640932202339172	0.0	244.0	371.0	0.0	0.0	0.0	0.0	0.0	0.0	null	null	null	null	null	null	null	null	333.0	336.0	334.0	336.0	336.0	334.0	333.0	334.0	333.0	335.0	335.0	
Mon Jun 05 03:55:00 UTC 2017	0.0	1.047281664E9	2568.5078125	0.0	2.5731072E7	0.0	2.0	9.76371712E8	58.99351501464844	1.0	2.0	1.06133504E9	1.050161152E9	0.0	0.0	0.07750000059604645	0.05700000002980232	0.04600000008940697	0.9919999837875366	0.7618146538734436	0.0	244.0	371.0	0.0	0.0	0.0	0.0	0.0	0.0	null	null	null	null	null	null	null	null	336.0	336.0	334.0	331.0	339.0	335.0	338.0	339.0	338.0	333.0	333.0	
Mon Jun 05 03:54:00 UTC 2017	0.0	1.047281664E9	2568.5078125	0.0	2.5731072E7	0.0	2.0	9.762816E8	40.13578796386719	1.0	2.0	1.06133504E9	1.050161152E9	0.0	0.0	0.06650000065565109	0.0560000017285347	0.04699999839067459	0.9919999837875366	0.7617951035499573	0.0	244.0	371.0	0.0	0.0	0.0	0.0	0.0	0.0	null	null	null	null	null	null	null	null	332.0	332.0	336.0	336.0	333.0	335.0	333.0	336.0	334.0	337.0	336.0	
Mon Jun 05 03:53:00 UTC 2017	0.0	1.047281664E9	2568.5078125	0.0	2.5731072E7	0.0	2.0	9.762816E8	43.16447830200195	1.0	1.0	1.06133504E9	1.051189248E9	0.0	0.0	0.07325000315904617	0.05525000020861626	0.05025000125169754	0.9919999837875366	0.7618200778961182	0.0	244.0	371.0	0.0	0.0	0.0	0.0	0.0	0.0	null	null	null	null	null	null	null	null	338.0	335.0	338.0	340.0	337.0	331.0	334.0	332.0	341.0	336.0	333.0	
Mon Jun 05 03:52:00 UTC 2017	0.0	1.047281664E9	2458.732421875	0.0	2.5731072E7	0.0	3.0	9.762816E8	43.16447830200195	1.0	1.0	1.06133504E9	1.051189248E9	0.0	null	0.07450000196695328	0.05350000038743019	0.04500000178813934	0.9919999837875366	0.7618014812469482	0.0	244.0	371.0	0.0	0.0	0.0	0.0	0.0	0.0	null	null	null	null	null	null	null	null	335.0	335.0	336.0	332.0	335.0	338.0	340.0	342.0	334.0	335.0	338.0	
Mon Jun 05 03:51:00 UTC 2017	0.0	1.047281664E9	2458.732421875	0.0	2.5731072E7	0.0	2.0	9.76068608E8	43.16447830200195	0.0	0.0	1.06133504E9	1.050161152E9	0.0	null	0.10074999928474426	0.05274999886751175	0.051500000059604645	0.9919999837875366	0.7618004679679871	0.0	244.0	371.0	0.0	0.0	0.0	0.0	0.0	0.0	null	null	null	null	null	null	null	null	331.0	338.0	334.0	336.0	334.0	337.0	331.0	333.0	332.0	330.0	335.0	
Mon Jun 05 03:50:00 UTC 2017	0.0	1.047281664E9	2458.732421875	0.0	2.5731072E7	0.0	2.0	9.76166912E8	43.16447830200195	0.0	0.0	1.06133504E9	1.051189248E9	0.0	null	0.0794999971985817	0.04450000077486038	0.04574999958276749	0.9919999837875366	0.7617847919464111	0.0	244.0	371.0	0.0	0.0	0.0	0.0	0.0	0.0	null	null	null	null	null	null	null	null	336.0	332.0	337.0	331.0	340.0	333.0	337.0	338.0	336.0	336.0	332.0	
Mon Jun 05 03:49:00 UTC 2017	0.0	1.047281664E9	2458.732421875	0.0	2.5731072E7	0.0	5.0	9.760768E8	43.16447830200195	0.0	0.0	1.06133504E9	1.050161152E9	0.0	0.0	0.07400000095367432	0.05525000020861626	0.04975000023841858	0.9917500019073486	0.7617833614349365	0.0	244.0	371.0	0.0	0.0	0.0	0.0	0.0	0.0	null	null	null	null	null	null	null	null	336.0	337.0	335.0	336.0	332.0	339.0	333.0	334.0	338.0	334.0	337.0	
Mon Jun 05 03:48:00 UTC 2017	0.0	1.047281664E9	2458.732421875	0.0	2.5731072E7	0.0	2.0	9.760768E8	43.16447830200195	0.0	0.0	1.06133504E9	1.051189248E9	0.0	0.0	0.0754999965429306	0.04600000008940697	0.04724999889731407	0.9922500252723694	0.7640565037727356	0.0	244.0	371.0	0.0	0.0	0.0	0.0	0.0	0.0	null	null	null	null	null	null	null	null	337.0	332.0	335.0	335.0	336.0	336.0	334.0	336.0	332.0	335.0	333.0	
Mon Jun 05 03:47:00 UTC 2017	0.0	1.047281664E9	2337.72705078125	0.0	2.5731072E7	0.0	2.0	9.760768E8	41.99082565307617	0.0	1.0	1.06133504E9	1.050161152E9	0.0	0.0	0.0742499977350235	0.05624999850988388	0.04724999889731407	0.9922500252723694	0.7617481350898743	0.0	244.0	371.0	0.0	0.0	0.0	0.0	0.0	0.0	null	null	null	null	null	null	null	null	337.0	337.0	336.0	333.0	334.0	334.0	336.0	335.0	335.0	335.0	335.0	
Mon Jun 05 03:46:00 UTC 2017	0.0	1.047281664E9	2337.72705078125	0.0	2.5731072E7	0.0	3.0	9.7595392E8	41.99082565307617	0.0	1.0	1.06133504E9	1.050161152E9	0.0	null	0.0742499977350235	0.04625000059604645	0.04924999922513962	0.9919999837875366	0.7617486119270325	0.0	244.0	371.0	0.0	0.0	0.0	0.0	0.0	0.0	null	null	null	null	null	null	null	null	334.0	331.0	335.0	337.0	335.0	336.0	337.0	335.0	337.0	335.0	338.0	
Mon Jun 05 03:45:00 UTC 2017	0.0	1.047281664E9	2707.394775390625	0.0	2.5731072E7	0.0	2.0	9.7595392E8	41.99082565307617	1.0	1.0	1.06133504E9	1.051189248E9	0.0	null	0.07000000029802322	0.05624999850988388	0.048250000923871994	0.9917500019073486	0.7617260813713074	0.0	244.0	371.0	0.0	0.0	0.0	0.0	0.0	0.0	null	null	null	null	null	null	null	null	334.0	337.0	336.0	335.0	335.0	334.0	334.0	336.0	334.0	337.0	335.0	
Mon Jun 05 03:44:00 UTC 2017	0.0	1.047281664E9	3035.6796875	0.0	2.5731072E7	0.0	2.0	9.75863808E8	41.99082565307617	1.0	2.0	1.06133504E9	1.050161152E9	0.0	0.0	0.07150000333786011	0.0560000017285347	0.04374999925494194	0.9919999837875366	0.7617084980010986	0.0	244.0	371.0	0.0	0.0	0.0	0.0	0.0	0.0	null	null	null	null	null	null	null	null	336.0	333.0	336.0	334.0	337.0	337.0	338.0	336.0	335.0	336.0	334.0	
Mon Jun 05 03:43:00 UTC 2017	0.0	1.047281664E9	3035.6796875	0.0	2.5731072E7	0.0	2.0	9.75863808E8	41.99082565307617	0.0	0.0	1.06133504E9	1.051189248E9	0.0	0.0	0.07575000077486038	0.04625000059604645	0.04675000160932541	0.9919999837875366	0.7617084980010986	0.0	244.0	371.0	0.0	0.0	0.0	0.0	0.0	0.0	null	null	null	null	null	null	null	null	335.0	334.0	334.0	338.0	335.0	338.0	336.0	337.0	336.0	332.0	337.0	
Mon Jun 05 03:42:00 UTC 2017	0.0	1.047281664E9	3097.10302734375	0.0	2.5731072E7	0.0	3.0	9.75863808E8	41.99082565307617	0.0	0.0	1.06133504E9	1.050161152E9	0.0	0.0	0.08250000327825546	0.05400000140070915	0.04899999871850014	0.9917500019073486	0.7626513242721558	0.0	244.0	371.0	0.0	0.0	0.0	0.0	0.0	0.0	null	null	null	null	null	null	null	null	336.0	336.0	336.0	335.0	334.0	334.0	333.0	336.0	333.0	336.0	338.0	
Mon Jun 05 03:41:00 UTC 2017	0.0	1.047281664E9	2705.959228515625	0.0	2.5731072E7	0.0	3.0	9.75740928E8	49.347068786621094	0.0	0.0	1.06133504E9	1.050161152E9	0.0	0.0	0.09525000303983688	0.048500001430511475	0.04975000023841858	0.9919999837875366	0.7616727948188782	0.0	244.0	371.0	0.0	0.0	0.0	0.0	0.0	0.0	null	null	null	null	null	null	null	null	332.0	337.0	338.0	333.0	335.0	334.0	338.0	331.0	333.0	334.0	331.0	
Mon Jun 05 03:40:00 UTC 2017	0.0	1.047281664E9	2705.959228515625	0.0	2.5731072E7	0.0	4.0	9.75740928E8	49.347068786621094	0.0	0.0	1.06133504E9	1.051189248E9	0.0	0.0	0.06300000101327896	0.05050000175833702	0.0494999997317791	0.9919999837875366	0.7616487741470337	0.0	244.0	371.0	0.0	0.0	0.0	0.0	0.0	0.0	null	null	null	null	null	null	null	null	334.0	334.0	334.0	337.0	335.0	336.0	336.0	338.0	337.0	333.0	336.0	
Mon Jun 05 03:39:00 UTC 2017	0.0	1.047281664E9	2705.959228515625	0.0	2.5731072E7	0.0	2.0	9.75650816E8	49.347068786621094	0.0	0.0	1.06133504E9	1.051189248E9	0.0	0.0	0.07625000178813934	0.048500001430511475	0.04774999991059303	0.9919999837875366	0.7616478204727173	0.0	244.0	371.0	0.0	0.0	0.0	0.0	0.0	0.0	null	null	null	null	null	null	null	null	336.0	335.0	334.0	336.0	334.0	337.0	332.0	336.0	335.0	337.0	334.0	
Mon Jun 05 03:38:00 UTC 2017	0.0	1.047281664E9	2856.375	0.0	2.5731072E7	0.0	2.0	9.75650816E8	49.347068786621094	0.0	0.0	1.06133504E9	1.051189248E9	0.0	0.0	0.07325000315904617	0.0560000017285347	0.04874999821186066	0.9919999837875366	0.7616356015205383	0.0	244.0	371.0	0.0	0.0	0.0	0.0	0.0	0.0	null	null	null	null	null	null	null	null	334.0	336.0	334.0	334.0	337.0	334.0	336.0	334.0	337.0	337.0	337.0	
Mon Jun 05 03:37:00 UTC 2017	0.0	1.047281664E9	2285.889892578125	0.0	2.5731072E7	0.0	2.0	9.75650816E8	49.347068786621094	1.0	0.0	1.06133504E9	1.051189248E9	0.0	0.0	0.08799999952316284	0.04774999991059303	0.04924999922513962	0.9919999837875366	0.7616302371025085	0.0	244.0	371.0	0.0	0.0	0.0	0.0	0.0	0.0	null	null	null	null	null	null	null	null	336.0	335.0	338.0	337.0	336.0	334.0	334.0	337.0	336.0	335.0	334.0	
Mon Jun 05 03:36:00 UTC 2017	0.0	1.047281664E9	3400.08203125	0.0	2.5731072E7	0.0	2.0	9.75437824E8	52.71708679199219	0.0	0.0	1.06133504E9	1.050161152E9	0.0	0.0	0.06674999743700027	0.051750000566244125	0.0494999997317791	0.9919999837875366	0.7615764141082764	0.0	244.0	371.0	0.0	0.0	0.0	0.0	0.0	0.0	null	null	null	null	null	null	null	null	334.0	332.0	336.0	334.0	334.0	333.0	334.0	336.0	335.0	334.0	339.0	
Mon Jun 05 03:35:00 UTC 2017	0.0	1.047281664E9	3400.08203125	0.0	2.5731072E7	0.0	2.0	9.75527936E8	43.14549255371094	0.0	0.0	1.06133504E9	1.050161152E9	0.0	0.0	0.0754999965429306	0.0572500005364418	0.04774999991059303	0.9919999837875366	0.7615363001823425	0.0	244.0	371.0	0.0	0.0	0.0	0.0	0.0	0.0	null	null	null	null	null	null	null	null	335.0	335.0	333.0	336.0	335.0	336.0	338.0	333.0	335.0	337.0	333.0	
Mon Jun 05 03:34:00 UTC 2017	0.0	1.047281664E9	2698.580078125	0.0	2.5731072E7	0.0	4.0	9.75437824E8	37.565635681152344	0.0	1.0	1.06133504E9	1.050161152E9	0.0	0.0	0.08250000327825546	0.04899999871850014	0.04600000008940697	0.9922500252723694	0.7614785432815552	0.0	244.0	371.0	0.0	0.0	0.0	0.0	0.0	0.0	null	null	null	null	null	null	null	null	339.0	334.0	339.0	330.0	338.0	338.0	337.0	337.0	333.0	332.0	337.0	
Mon Jun 05 03:33:00 UTC 2017	0.0	1.047281664E9	2698.580078125	0.0	2.5731072E7	0.0	2.0	9.75437824E8	65.32640075683594	2.0	2.0	1.06133504E9	1.050161152E9	0.0	0.0	0.06849999725818634	0.05974999815225601	0.048250000923871994	0.9922500252723694	0.7614648342132568	0.0	244.0	371.0	0.0	0.0	0.0	0.0	0.0	0.0	null	null	null	null	null	null	null	null	336.0	335.0	338.0	335.0	333.0	331.0	334.0	338.0	333.0	338.0	336.0	
Mon Jun 05 03:32:00 UTC 2017	0.0	1.047281664E9	2544.315673828125	0.0	2.5731072E7	0.0	2.0	9.75437824E8	65.32640075683594	1.0	1.0	1.06133504E9	1.050161152E9	0.0	0.0	0.0754999965429306	0.05050000175833702	0.05000000074505806	0.9917500019073486	0.761468768119812	0.0	244.0	371.0	0.0	0.0	0.0	0.0	0.0	0.0	null	null	null	null	null	null	null	null	335.0	333.0	330.0	335.0	334.0	333.0	334.0	333.0	335.0	335.0	334.0	
Mon Jun 05 03:31:00 UTC 2017	0.0	1.047281664E9	2544.315673828125	0.0	2.5731072E7	0.0	2.0	9.75224832E8	53.7967529296875	1.0	1.0	1.06133504E9	1.050161152E9	0.0	null	0.10849999636411667	0.0494999997317791	0.04724999889731407	0.9922500252723694	0.7614829540252686	0.0	244.0	371.0	0.0	0.0	0.0	0.0	0.0	0.0	null	null	null	null	null	null	null	null	334.0	334.0	333.0	336.0	336.0	337.0	336.0	334.0	337.0	334.0	336.0	
Mon Jun 05 03:30:00 UTC 2017	0.0	1.047281664E9	2544.315673828125	0.0	2.5731072E7	0.0	2.0	9.75314944E8	35.73748016357422	1.0	0.0	1.06133504E9	1.051189248E9	0.0	0.0	0.07824999839067459	0.054749999195337296	0.04874999821186066	0.9919999837875366	0.7614898085594177	0.0	244.0	371.0	0.0	0.0	0.0	0.0	0.0	0.0	null	null	null	null	null	null	null	null	334.0	336.0	334.0	334.0	337.0	334.0	335.0	337.0	336.0	337.0	334.0	
Mon Jun 05 03:29:00 UTC 2017	0.0	1.047281664E9	3027.259765625	0.0	2.5731072E7	0.0	2.0	9.75224832E8	45.79294204711914	0.0	0.0	1.06133504E9	1.050161152E9	0.0	0.0	0.07575000077486038	0.04724999889731407	0.0442500002682209	0.9917500019073486	0.7614701986312866	0.0	244.0	371.0	0.0	0.0	0.0	0.0	0.0	0.0	null	null	null	null	null	null	null	null	337.0	336.0	338.0	338.0	334.0	334.0	334.0	336.0	335.0	333.0	334.0	
Mon Jun 05 03:28:00 UTC 2017	0.0	1.047281664E9	3027.259765625	0.0	2.5731072E7	0.0	2.0	9.75224832E8	59.79792785644531	0.0	0.0	1.06133504E9	1.050161152E9	0.0	0.0	0.06849999725818634	0.05000000074505806	0.05050000175833702	0.9919999837875366	0.7614741325378418	0.0	244.0	371.0	0.0	0.0	0.0	0.0	0.0	0.0	null	null	null	null	null	null	null	null	333.0	335.0	333.0	333.0	335.0	338.0	335.0	335.0	337.0	338.0	336.0	
Mon Jun 05 03:27:00 UTC 2017	0.0	1.047281664E9	2516.61865234375	0.0	2.5731072E7	0.0	4.0	9.75224832E8	59.79792785644531	0.0	0.0	1.06133504E9	1.051189248E9	0.0	0.0	0.07500000298023224	0.05550000071525574	0.04724999889731407	0.9917500019073486	0.7614535689353943	0.0	244.0	371.0	0.0	0.0	0.0	0.0	0.0	0.0	null	null	null	null	null	null	null	null	334.0	340.0	331.0	338.0	335.0	335.0	336.0	335.0	335.0	334.0	334.0	
Mon Jun 05 03:26:00 UTC 2017	0.0	1.047281664E9	2516.61865234375	0.0	2.5731072E7	0.0	3.0	9.75015936E8	36.70032501220703	0.0	0.0	1.06133504E9	1.051189248E9	0.0	0.0	0.07400000095367432	0.05000000074505806	0.04874999821186066	0.9919999837875366	0.7614359855651855	0.0	244.0	371.0	0.0	0.0	0.0	0.0	0.0	0.0	null	null	null	null	null	null	null	null	335.0	333.0	337.0	331.0	333.0	335.0	335.0	337.0	336.0	338.0	335.0	
Mon Jun 05 03:25:00 UTC 2017	0.0	1.047281664E9	2516.61865234375	0.0	2.5731072E7	0.0	3.0	9.75106048E8	50.69135284423828	0.0	0.0	1.06133504E9	1.051189248E9	0.0	0.0	0.0767500028014183	0.05225000157952309	0.04899999871850014	0.9919999837875366	0.7614256739616394	0.0	244.0	371.0	0.0	0.0	0.0	0.0	0.0	0.0	null	null	null	null	null	null	null	null	332.0	338.0	333.0	335.0	335.0	335.0	336.0	336.0	337.0	335.0	335.0	
Mon Jun 05 03:24:00 UTC 2017	0.0	1.047281664E9	2516.61865234375	0.0	2.5731072E7	0.0	2.0	9.7501184E8	55.464698791503906	0.0	0.0	1.06133504E9	1.050161152E9	0.0	0.0	0.07625000178813934	0.0430000014603138	0.04450000077486038	0.9919999837875366	0.7633852362632751	0.0	244.0	371.0	0.0	0.0	0.0	0.0	0.0	0.0	null	null	null	null	null	null	null	null	337.0	333.0	335.0	338.0	336.0	336.0	334.0	332.0	336.0	337.0	334.0	
Mon Jun 05 03:23:00 UTC 2017	0.0	1.047281664E9	2635.977783203125	0.0	2.5731072E7	0.0	5.0	9.7501184E8	55.464698791503906	0.0	0.0	1.06133504E9	1.050161152E9	0.0	null	0.07724999636411667	0.054749999195337296	0.05025000125169754	0.9919999837875366	0.7636797428131104	0.0	244.0	371.0	0.0	0.0	0.0	0.0	0.0	0.0	null	null	null	null	null	null	null	null	332.0	335.0	335.0	336.0	335.0	336.0	335.0	338.0	337.0	335.0	336.0	
Mon Jun 05 03:22:00 UTC 2017	0.0	1.047281664E9	2635.977783203125	0.0	2.5731072E7	0.0	3.0	9.7501184E8	55.464698791503906	0.0	0.0	1.06133504E9	1.051189248E9	0.0	0.0	0.06750000268220901	0.04650000110268593	0.04699999839067459	0.9922500252723694	0.763669490814209	0.0	244.0	371.0	0.0	0.0	0.0	0.0	0.0	0.0	null	null	null	null	null	null	null	null	339.0	339.0	341.0	335.0	337.0	336.0	336.0	335.0	336.0	335.0	333.0	
Mon Jun 05 03:21:00 UTC 2017	0.0	1.047281664E9	2635.977783203125	0.0	2.5731072E7	0.0	4.0	9.74798848E8	55.464698791503906	0.0	0.0	1.06133504E9	1.050161152E9	0.0	0.0	0.09849999845027924	0.05575000122189522	0.04650000110268593	0.9922500252723694	0.7613772749900818	0.0	244.0	371.0	0.0	0.0	0.0	0.0	0.0	0.0	null	null	null	null	null	null	null	null	337.0	333.0	331.0	332.0	338.0	336.0	335.0	334.0	336.0	336.0	337.0	
Mon Jun 05 03:20:00 UTC 2017	0.0	1.047281664E9	2635.977783203125	0.0	2.5731072E7	0.0	2.0	9.7488896E8	58.44285202026367	0.0	0.0	1.06133504E9	1.051189248E9	0.0	0.0	0.07750000059604645	0.04600000008940697	0.048250000923871994	0.9919999837875366	0.7636508941650391	0.0	244.0	371.0	0.0	0.0	0.0	0.0	0.0	0.0	null	null	null	null	null	null	null	null	334.0	334.0	339.0	335.0	333.0	335.0	337.0	335.0	332.0	332.0	339.0	
Mon Jun 05 03:19:00 UTC 2017	0.0	1.047281664E9	3225.882568359375	0.0	2.5731072E7	0.0	2.0	9.74798848E8	58.44285202026367	0.0	0.0	1.06133504E9	1.050161152E9	0.0	0.0	0.07474999874830246	0.05274999886751175	0.051500000059604645	0.9917500019073486	0.7636337876319885	0.0	244.0	371.0	0.0	0.0	0.0	0.0	0.0	0.0	null	null	null	null	null	null	null	null	332.0	334.0	334.0	338.0	333.0	334.0	334.0	337.0	338.0	337.0	334.0	
Mon Jun 05 03:18:00 UTC 2017	0.0	1.047281664E9	3225.882568359375	0.0	2.5731072E7	0.0	2.0	9.74798848E8	45.07994079589844	0.0	0.0	1.06133504E9	1.050161152E9	0.0	0.0	0.07474999874830246	0.050999999046325684	0.05025000125169754	0.9917500019073486	0.7636156678199768	0.0	244.0	371.0	0.0	0.0	0.0	0.0	0.0	0.0	null	null	null	null	null	null	null	null	335.0	334.0	336.0	335.0	337.0	336.0	338.0	335.0	333.0	335.0	336.0	
Mon Jun 05 03:17:00 UTC 2017	0.0	1.047281664E9	2626.600341796875	0.0	2.5731072E7	0.0	2.0	9.74798848E8	41.16311264038086	0.0	0.0	1.06133504E9	1.050161152E9	0.0	0.0	0.06300000101327896	0.04774999991059303	0.04349999874830246	0.9922500252723694	0.7613106966018677	0.0	244.0	371.0	0.0	0.0	0.0	0.0	0.0	0.0	null	null	null	null	null	null	null	null	338.0	337.0	336.0	334.0	339.0	334.0	334.0	336.0	337.0	337.0	332.0	
Mon Jun 05 03:16:00 UTC 2017	0.0	1.047281664E9	2400.005859375	0.0	2.5731072E7	0.0	2.0	9.74675968E8	41.16311264038086	0.0	0.0	1.06133504E9	1.050161152E9	0.0	0.0	0.07800000160932541	0.0507499985396862	0.04749999940395355	0.9919999837875366	0.7635999917984009	0.0	244.0	371.0	0.0	0.0	0.0	0.0	0.0	0.0	null	null	null	null	null	null	null	null	334.0	334.0	334.0	334.0	335.0	337.0	335.0	336.0	333.0	331.0	337.0	
Mon Jun 05 03:15:00 UTC 2017	0.0	1.047281664E9	2400.005859375	0.0	2.5731072E7	0.0	2.0	9.74675968E8	65.51705932617188	0.0	0.0	1.06133504E9	1.050161152E9	0.0	0.0	0.07699999958276749	0.04924999922513962	0.04924999922513962	0.9922500252723694	0.761286735534668	0.0	244.0	371.0	0.0	0.0	0.0	0.0	0.0	0.0	null	null	null	null	null	null	null	null	335.0	335.0	337.0	338.0	331.0	335.0	337.0	333.0	332.0	335.0	336.0	
Mon Jun 05 03:14:00 UTC 2017	0.0	1.047281664E9	2400.005859375	0.0	2.5731072E7	0.0	3.0	9.74585856E8	65.51705932617188	0.0	0.0	1.06133504E9	1.050161152E9	0.0	0.0	0.07249999791383743	0.051500000059604645	0.04699999839067459	0.9922500252723694	0.7629942893981934	0.0	244.0	371.0	0.0	0.0	0.0	0.0	0.0	0.0	null	null	null	null	null	null	null	null	337.0	336.0	335.0	334.0	334.0	335.0	334.0	337.0	339.0	335.0	336.0	
Mon Jun 05 03:13:00 UTC 2017	0.0	1.047281664E9	2816.46142578125	0.0	2.5731072E7	0.0	2.0	9.74585856E8	55.81666946411133	0.0	0.0	1.06133504E9	1.050161152E9	0.0	0.0	0.07824999839067459	0.05025000125169754	0.0507499985396862	0.9922500252723694	0.7611756920814514	0.0	244.0	371.0	0.0	0.0	0.0	0.0	0.0	0.0	null	null	null	null	null	null	null	null	335.0	335.0	338.0	336.0	337.0	333.0	336.0	335.0	336.0	336.0	338.0	
Mon Jun 05 03:12:00 UTC 2017	0.0	1.047281664E9	2122.86376953125	0.0	2.5731072E7	0.0	3.0	9.74585856E8	38.462013244628906	0.0	0.0	1.06133504E9	1.050161152E9	0.0	0.0	0.07199999690055847	0.054249998182058334	0.042249999940395355	0.9919999837875366	0.7611746788024902	0.0	244.0	371.0	0.0	0.0	0.0	0.0	0.0	0.0	null	null	null	null	null	null	null	null	334.0	336.0	334.0	337.0	338.0	337.0	334.0	336.0	337.0	334.0	334.0	
Mon Jun 05 03:11:00 UTC 2017	0.0	1.047281664E9	2122.86376953125	0.0	2.5731072E7	0.0	4.0	9.74729216E8	38.462013244628906	0.0	0.0	1.06133504E9	1.050161152E9	0.0	0.0	0.10649999976158142	0.04724999889731407	0.05375000089406967	0.9919999837875366	0.761224627494812	0.0	244.0	371.0	0.0	0.0	0.0	0.0	0.0	0.0	null	null	null	null	null	null	null	null	336.0	336.0	336.0	333.0	335.0	334.0	338.0	334.0	331.0	335.0	338.0	
Mon Jun 05 03:10:00 UTC 2017	0.0	1.047281664E9	2965.89990234375	0.0	2.5731072E7	0.0	5.0	9.74729216E8	48.793209075927734	0.0	0.0	1.06133504E9	1.051189248E9	0.0	0.0	0.07450000196695328	0.05225000157952309	0.04450000077486038	0.9917500019073486	0.7630153298377991	0.0	244.0	371.0	0.0	0.0	0.0	0.0	0.0	0.0	null	null	null	null	null	null	null	null	333.0	334.0	336.0	336.0	335.0	334.0	335.0	336.0	337.0	335.0	337.0	
Mon Jun 05 03:09:00 UTC 2017	0.0	1.047281664E9	2965.89990234375	0.0	2.5731072E7	0.0	2.0	9.74225408E8	40.548824310302734	0.0	0.0	1.06133504E9	1.050161152E9	0.0	0.0	0.0767500028014183	0.05225000157952309	0.04699999839067459	0.9922500252723694	0.7634170055389404	0.0	244.0	371.0	0.0	0.0	0.0	0.0	0.0	0.0	null	null	null	null	null	null	null	null	334.0	337.0	331.0	335.0	333.0	337.0	335.0	337.0	334.0	337.0	333.0	
Mon Jun 05 03:08:00 UTC 2017	0.0	1.047281664E9	2206.353759765625	0.0	2.5731072E7	0.0	2.0	9.74225408E8	40.548824310302734	0.0	0.0	1.06133504E9	1.050161152E9	0.0	0.0	0.0677499994635582	0.04724999889731407	0.05025000125169754	0.9919999837875366	0.7611120939254761	0.0	244.0	371.0	0.0	0.0	0.0	0.0	0.0	0.0	null	null	null	null	null	null	null	null	336.0	334.0	335.0	338.0	332.0	337.0	338.0	337.0	333.0	334.0	334.0	
Mon Jun 05 03:07:00 UTC 2017	0.0	1.047281664E9	2881.791259765625	0.0	2.5731072E7	0.0	3.0	9.74225408E8	40.548824310302734	0.0	0.0	1.06133504E9	1.050161152E9	0.0	0.0	0.0807500034570694	0.05525000020861626	0.04349999874830246	0.9919999837875366	0.7610920071601868	0.0	244.0	371.0	0.0	0.0	0.0	0.0	0.0	0.0	null	null	null	null	null	null	null	null	334.0	338.0	334.0	330.0	335.0	338.0	337.0	334.0	338.0	336.0	337.0	
Mon Jun 05 03:06:00 UTC 2017	0.0	1.047281664E9	2881.791259765625	0.0	2.5731072E7	0.0	3.0	9.74102528E8	75.3645248413086	0.0	0.0	1.06133504E9	1.051189248E9	0.0	0.0	0.06424999982118607	0.04574999958276749	0.051500000059604645	0.9919999837875366	0.7610910534858704	0.0	244.0	371.0	0.0	0.0	0.0	0.0	0.0	0.0	null	null	null	null	null	null	null	null	335.0	334.0	336.0	335.0	336.0	335.0	331.0	337.0	337.0	336.0	330.0	
Mon Jun 05 03:05:00 UTC 2017	0.0	1.047281664E9	2881.791259765625	0.0	2.5731072E7	0.0	2.0	9.74102528E8	75.3645248413086	0.0	0.0	1.06133504E9	1.050161152E9	0.0	0.0	0.08500000089406967	0.05274999886751175	0.04675000160932541	0.9919999837875366	0.7610753774642944	0.0	244.0	371.0	0.0	0.0	0.0	0.0	0.0	0.0	null	null	null	null	null	null	null	null	334.0	334.0	335.0	337.0	336.0	333.0	338.0	331.0	333.0	338.0	335.0	
Mon Jun 05 03:04:00 UTC 2017	0.0	1.047281664E9	2881.791259765625	0.0	2.5731072E7	0.0	2.0	9.74012416E8	57.80609893798828	0.0	0.0	1.06133504E9	1.051189248E9	0.0	null	0.06724999845027924	0.05225000157952309	0.05000000074505806	0.9919999837875366	0.7610567808151245	0.0	244.0	371.0	0.0	0.0	0.0	0.0	0.0	0.0	null	null	null	null	null	null	null	null	334.0	336.0	330.0	336.0	335.0	337.0	333.0	336.0	336.0	333.0	337.0	
Mon Jun 05 03:03:00 UTC 2017	0.0	1.047281664E9	2881.791259765625	0.0	2.5731072E7	0.0	3.0	9.74012416E8	42.545166015625	0.0	1.0	1.06133504E9	1.051189248E9	0.0	null	0.07999999821186066	0.052000001072883606	0.04874999821186066	0.9917500019073486	0.7610812783241272	0.0	244.0	371.0	0.0	0.0	0.0	0.0	0.0	0.0	null	null	null	null	null	null	null	null	336.0	334.0	336.0	337.0	335.0	333.0	338.0	334.0	334.0	337.0	334.0	
Mon Jun 05 03:02:00 UTC 2017	0.0	1.047281664E9	2486.61328125	0.0	2.5731072E7	0.0	3.0	9.74012416E8	53.71306228637695	1.0	2.0	1.06133504E9	1.050161152E9	0.0	null	0.07175000011920929	0.05575000122189522	0.042249999940395355	0.9922500252723694	0.761036217212677	0.0	244.0	371.0	0.0	0.0	0.0	0.0	0.0	0.0	null	null	null	null	null	null	null	null	337.0	337.0	335.0	332.0	335.0	335.0	337.0	336.0	335.0	334.0	336.0	
Mon Jun 05 03:01:00 UTC 2017	0.0	1.047281664E9	3136.62939453125	0.0	2.5731072E7	0.0	2.0	9.73889536E8	52.93778991699219	1.0	1.0	1.06133504E9	1.051189248E9	0.0	0.0	0.10350000113248825	0.048250000923871994	0.05025000125169754	0.9917500019073486	0.7610186338424683	0.0	244.0	371.0	0.0	0.0	0.0	0.0	0.0	0.0	null	null	null	null	null	null	null	null	334.0	337.0	335.0	336.0	332.0	335.0	336.0	336.0	336.0	334.0	333.0	
Mon Jun 05 03:00:00 UTC 2017	0.0	1.047281664E9	3136.62939453125	0.0	2.5731072E7	0.0	2.0	9.73889536E8	52.93778991699219	1.0	0.0	1.06133504E9	1.050161152E9	0.0	0.0	0.07349999994039536	0.057500001043081284	0.04574999958276749	0.9919999837875366	0.7632736563682556	0.0	244.0	371.0	0.0	0.0	0.0	0.0	0.0	0.0	null	null	null	null	null	null	null	null	335.0	336.0	332.0	337.0	333.0	333.0	332.0	337.0	335.0	336.0	337.0	
Mon Jun 05 02:59:00 UTC 2017	0.0	1.047281664E9	2735.33056640625	0.0	2.5731072E7	0.0	2.0	9.73799424E8	32.23713684082031	0.0	0.0	1.06133504E9	1.051189248E9	0.0	0.0	0.07774999737739563	0.04975000023841858	0.051500000059604645	0.9919999837875366	0.7609687447547913	0.0	244.0	371.0	0.0	0.0	0.0	0.0	0.0	0.0	null	null	null	null	null	null	null	null	334.0	335.0	335.0	335.0	335.0	337.0	336.0	335.0	335.0	335.0	335.0	
Mon Jun 05 02:58:00 UTC 2017	0.0	1.047281664E9	2735.33056640625	0.0	2.5731072E7	0.0	2.0	9.73799424E8	44.36882781982422	0.0	0.0	1.06133504E9	1.051189248E9	0.0	0.0	0.0794999971985817	0.04600000008940697	0.04749999940395355	0.9919999837875366	0.7609544992446899	0.0	244.0	371.0	0.0	0.0	0.0	0.0	0.0	0.0	null	null	null	null	null	null	null	null	337.0	336.0	333.0	333.0	335.0	335.0	336.0	336.0	333.0	335.0	336.0	
Mon Jun 05 02:57:00 UTC 2017	0.0	1.047281664E9	2735.33056640625	0.0	2.5731072E7	0.0	2.0	9.73799424E8	44.36882781982422	0.0	0.0	1.06133504E9	1.050161152E9	0.0	0.0	0.07124999910593033	0.054999999701976776	0.04399999976158142	0.9919999837875366	0.7609471678733826	0.0	244.0	371.0	0.0	0.0	0.0	0.0	0.0	0.0	null	null	null	null	null	null	null	null	333.0	337.0	336.0	338.0	336.0	338.0	336.0	332.0	337.0	339.0	334.0	
Mon Jun 05 02:56:00 UTC 2017	0.0	1.047281664E9	3117.823486328125	0.0	2.5731072E7	0.0	2.0	9.73676544E8	45.210205078125	0.0	0.0	1.06133504E9	1.050161152E9	0.0	0.0	0.07124999910593033	0.052000001072883606	0.04774999991059303	0.9919999837875366	0.7609339952468872	0.0	244.0	371.0	0.0	0.0	0.0	0.0	0.0	0.0	null	null	null	null	null	null	null	null	336.0	335.0	332.0	333.0	336.0	335.0	333.0	336.0	333.0	335.0	333.0	
Mon Jun 05 02:55:00 UTC 2017	0.0	1.047281664E9	3117.823486328125	0.0	2.5731072E7	0.0	2.0	9.73676544E8	39.92158889770508	0.0	0.0	1.06133504E9	1.051189248E9	0.0	0.0	0.08124999701976776	0.04724999889731407	0.048250000923871994	0.9917500019073486	0.7631498575210571	0.0	244.0	371.0	0.0	0.0	0.0	0.0	0.0	0.0	null	null	null	null	null	null	null	null	334.0	336.0	337.0	339.0	336.0	335.0	336.0	336.0	338.0	337.0	334.0	
Mon Jun 05 02:54:00 UTC 2017	0.0	1.047281664E9	3117.823486328125	0.0	2.5731072E7	0.0	4.0	9.73586432E8	39.92158889770508	0.0	0.0	1.06133504E9	1.051189248E9	0.0	0.0	0.07925000041723251	0.04975000023841858	0.048250000923871994	0.9919999837875366	0.7628225684165955	0.0	244.0	371.0	0.0	0.0	0.0	0.0	0.0	0.0	null	null	null	null	null	null	null	null	337.0	336.0	336.0	334.0	332.0	337.0	338.0	335.0	334.0	335.0	339.0	
Mon Jun 05 02:53:00 UTC 2017	0.0	1.047281664E9	2714.0849609375	0.0	2.5731072E7	0.0	2.0	9.73586432E8	39.92158889770508	0.0	0.0	1.06133504E9	1.051189248E9	0.0	0.0	0.06800000369548798	0.048500001430511475	0.04724999889731407	0.9919999837875366	0.7608400583267212	0.0	244.0	371.0	0.0	0.0	0.0	0.0	0.0	0.0	null	null	null	null	null	null	null	null	336.0	336.0	332.0	335.0	337.0	336.0	337.0	336.0	337.0	331.0	337.0	
Mon Jun 05 02:52:00 UTC 2017	0.0	1.047281664E9	2881.205810546875	0.0	2.5731072E7	0.0	3.0	9.73586432E8	41.891937255859375	0.0	0.0	1.06133504E9	1.051189248E9	0.0	0.0	0.07575000077486038	0.05350000038743019	0.04899999871850014	0.9919999837875366	0.7608228921890259	0.0	244.0	371.0	0.0	0.0	0.0	0.0	0.0	0.0	null	null	null	null	null	null	null	null	337.0	337.0	335.0	334.0	336.0	333.0	335.0	336.0	334.0	340.0	334.0	
Mon Jun 05 02:51:00 UTC 2017	0.0	1.047281664E9	2881.205810546875	0.0	2.5731072E7	0.0	2.0	9.7337344E8	41.891937255859375	0.0	0.0	1.06133504E9	1.051189248E9	0.0	null	0.09749999642372131	0.05249999836087227	0.04625000059604645	0.9919999837875366	0.7608556747436523	0.0	244.0	371.0	0.0	0.0	0.0	0.0	0.0	0.0	null	null	null	null	null	null	null	null	332.0	335.0	335.0	338.0	333.0	335.0	337.0	335.0	335.0	334.0	334.0	
Mon Jun 05 02:50:00 UTC 2017	0.0	1.047281664E9	2411.095458984375	0.0	2.5731072E7	0.0	2.0	9.73463552E8	41.891937255859375	0.0	0.0	1.06133504E9	1.050161152E9	0.0	0.0	0.07900000363588333	0.04899999871850014	0.04899999871850014	0.9919999837875366	0.7631469368934631	0.0	244.0	371.0	0.0	0.0	0.0	0.0	0.0	0.0	null	null	null	null	null	null	null	null	338.0	332.0	334.0	334.0	339.0	333.0	333.0	334.0	336.0	335.0	335.0	
Mon Jun 05 02:49:00 UTC 2017	0.0	1.047281664E9	2411.095458984375	0.0	2.5731072E7	0.0	5.0	9.7337344E8	58.5170783996582	0.0	0.0	1.06133504E9	1.051189248E9	0.0	0.0	0.06400000303983688	0.051249999552965164	0.05000000074505806	0.9917500019073486	0.7608395218849182	0.0	244.0	371.0	0.0	0.0	0.0	0.0	0.0	0.0	null	null	null	null	null	null	null	null	334.0	340.0	336.0	335.0	333.0	335.0	339.0	335.0	332.0	336.0	334.0	
Mon Jun 05 02:48:00 UTC 2017	0.0	1.047281664E9	2411.095458984375	0.0	2.5731072E7	0.0	2.0	9.7337344E8	51.957889556884766	0.0	0.0	1.06133504E9	1.051189248E9	0.0	0.0	0.08124999701976776	0.0507499985396862	0.04675000160932541	0.9919999837875366	0.7627638578414917	0.0	244.0	371.0	0.0	0.0	0.0	0.0	0.0	0.0	null	null	null	null	null	null	null	null	334.0	332.0	335.0	339.0	339.0	340.0	336.0	336.0	335.0	336.0	338.0	
Mon Jun 05 02:47:00 UTC 2017	0.0	1.047281664E9	2411.095458984375	0.0	2.5731072E7	0.0	3.0	9.7337344E8	38.15345001220703	0.0	0.0	1.06133504E9	1.050161152E9	0.0	0.0	0.07374999672174454	0.05299999937415123	0.048250000923871994	0.9919999837875366	0.7608209848403931	0.0	244.0	371.0	0.0	0.0	0.0	0.0	0.0	0.0	null	null	null	null	null	null	null	null	333.0	340.0	334.0	337.0	334.0	334.0	333.0	335.0	334.0	336.0	332.0	
Mon Jun 05 02:46:00 UTC 2017	0.0	1.047281664E9	3081.88427734375	0.0	2.5731072E7	0.0	2.0	9.73160448E8	53.40644454956055	0.0	0.0	1.06133504E9	1.050161152E9	0.0	0.0	0.07524999976158142	0.04600000008940697	0.0494999997317791	0.9919999837875366	0.7608057856559753	0.0	244.0	371.0	0.0	0.0	0.0	0.0	0.0	0.0	null	null	null	null	null	null	null	null	332.0	333.0	338.0	340.0	334.0	335.0	337.0	333.0	330.0	331.0	339.0	
Mon Jun 05 02:45:00 UTC 2017	0.0	1.047281664E9	2681.760009765625	0.0	2.5731072E7	0.0	3.0	9.7325056E8	47.28270721435547	0.0	0.0	1.06133504E9	1.050161152E9	0.0	0.0	0.06750000268220901	0.054749999195337296	0.048500001430511475	0.9922500252723694	0.761480987071991	0.0	244.0	371.0	0.0	0.0	0.0	0.0	0.0	0.0	null	null	null	null	null	null	null	null	337.0	335.0	333.0	334.0	340.0	336.0	335.0	340.0	337.0	335.0	332.0	
Mon Jun 05 02:44:00 UTC 2017	0.0	1.047281664E9	2746.340576171875	0.0	2.5731072E7	0.0	2.0	9.73160448E8	38.024024963378906	0.0	0.0	1.06133504E9	1.050161152E9	0.0	0.0	0.07699999958276749	0.05274999886751175	0.04749999940395355	0.9919999837875366	0.7630427479743958	0.0	244.0	371.0	0.0	0.0	0.0	0.0	0.0	0.0	null	null	null	null	null	null	null	null	333.0	334.0	336.0	335.0	333.0	333.0	336.0	333.0	334.0	338.0	338.0	
Mon Jun 05 02:43:00 UTC 2017	0.0	1.047281664E9	2880.344970703125	0.0	2.5731072E7	0.0	2.0	9.73160448E8	38.024024963378906	0.0	0.0	1.06133504E9	1.050161152E9	0.0	0.0	0.06400000303983688	0.04724999889731407	0.048250000923871994	0.9919999837875366	0.7609574794769287	0.0	244.0	371.0	0.0	0.0	0.0	0.0	0.0	0.0	null	null	null	null	null	null	null	null	337.0	339.0	336.0	335.0	335.0	340.0	338.0	338.0	336.0	336.0	338.0	
Mon Jun 05 02:42:00 UTC 2017	0.0	1.047281664E9	2880.344970703125	0.0	2.5731072E7	0.0	2.0	9.73160448E8	38.024024963378906	0.0	0.0	1.06133504E9	1.050161152E9	0.0	0.0	0.08449999988079071	0.04724999889731407	0.04574999958276749	0.9922500252723694	0.7630505561828613	0.0	244.0	371.0	0.0	0.0	0.0	0.0	0.0	0.0	null	null	null	null	null	null	null	null	335.0	334.0	333.0	337.0	336.0	331.0	334.0	333.0	339.0	333.0	334.0	
Mon Jun 05 02:41:00 UTC 2017	0.0	1.047281664E9	2743.37841796875	0.0	2.5731072E7	0.0	2.0	9.72947456E8	38.024024963378906	0.0	0.0	1.06133504E9	1.051189248E9	0.0	0.0	0.09775000065565109	0.05350000038743019	0.04975000023841858	0.9919999837875366	0.7607431411743164	0.0	244.0	371.0	0.0	0.0	0.0	0.0	0.0	0.0	null	null	null	null	null	null	null	null	336.0	332.0	335.0	334.0	334.0	337.0	332.0	335.0	336.0	334.0	337.0	
Mon Jun 05 02:40:00 UTC 2017	0.0	1.047281664E9	2866.895263671875	0.0	2.5731072E7	0.0	3.0	9.73037568E8	48.65331268310547	0.0	0.0	1.06133504E9	1.050161152E9	0.0	0.0	0.06724999845027924	0.05575000122189522	0.04349999874830246	0.9917500019073486	0.7607338428497314	0.0	244.0	371.0	0.0	0.0	0.0	0.0	0.0	0.0	null	null	null	null	null	null	null	null	333.0	336.0	336.0	336.0	335.0	332.0	339.0	335.0	333.0	335.0	332.0	
Mon Jun 05 02:39:00 UTC 2017	0.0	1.047281664E9	2657.238525390625	0.0	2.5731072E7	0.0	2.0	9.72947456E8	48.65331268310547	0.0	0.0	1.06133504E9	1.050161152E9	0.0	null	0.07225000113248825	0.04600000008940697	0.05299999937415123	0.9919999837875366	0.7607162594795227	0.0	244.0	371.0	0.0	0.0	0.0	0.0	0.0	0.0	null	null	null	null	null	null	null	null	336.0	334.0	330.0	335.0	333.0	334.0	336.0	337.0	337.0	335.0	336.0	
Mon Jun 05 02:38:00 UTC 2017	0.0	1.047281664E9	2095.902587890625	0.0	2.5731072E7	0.0	2.0	9.72947456E8	48.65331268310547	0.0	0.0	1.06133504E9	1.051189248E9	0.0	0.0	0.07649999856948853	0.05400000140070915	0.04450000077486038	0.9919999837875366	0.7607157826423645	0.0	244.0	371.0	0.0	0.0	0.0	0.0	0.0	0.0	null	null	null	null	null	null	null	null	339.0	338.0	335.0	332.0	336.0	336.0	335.0	336.0	334.0	337.0	338.0	
Mon Jun 05 02:37:00 UTC 2017	0.0	1.047281664E9	3020.580322265625	0.0	2.5731072E7	0.0	2.0	9.72947456E8	37.28208923339844	0.0	0.0	1.06133504E9	1.050161152E9	0.0	0.0	0.0754999965429306	0.04675000160932541	0.051249999552965164	0.9919999837875366	0.7606986165046692	0.0	244.0	371.0	0.0	0.0	0.0	0.0	0.0	0.0	null	null	null	null	null	null	null	null	335.0	332.0	337.0	335.0	335.0	335.0	336.0	336.0	338.0	334.0	333.0	
Mon Jun 05 02:36:00 UTC 2017	0.0	1.047281664E9	2217.01904296875	0.0	2.5731072E7	0.0	4.0	9.72828672E8	53.10222625732422	0.0	0.0	1.06133504E9	1.050161152E9	0.0	0.0	0.07275000214576721	0.05249999836087227	0.042750000953674316	0.9917500019073486	0.7618963718414307	0.0	244.0	371.0	0.0	0.0	0.0	0.0	0.0	0.0	null	null	null	null	null	null	null	null	333.0	336.0	336.0	336.0	335.0	336.0	332.0	334.0	334.0	334.0	333.0	
Mon Jun 05 02:35:00 UTC 2017	0.0	1.047281664E9	2217.01904296875	0.0	2.5731072E7	0.0	3.0	9.72828672E8	39.30669403076172	0.0	0.0	1.06133504E9	1.050161152E9	0.0	0.0	0.07175000011920929	0.04625000059604645	0.0507499985396862	0.9917500019073486	0.7606785893440247	0.0	244.0	371.0	0.0	0.0	0.0	0.0	0.0	0.0	null	null	null	null	null	null	null	null	336.0	334.0	333.0	334.0	337.0	336.0	334.0	334.0	334.0	335.0	336.0	
Mon Jun 05 02:34:00 UTC 2017	0.0	1.047281664E9	2559.457275390625	0.0	2.5731072E7	0.0	2.0	9.7273856E8	41.439395904541016	0.0	0.0	1.06133504E9	1.051189248E9	0.0	0.0	0.08275000005960464	0.052000001072883606	0.05025000125169754	0.9922500252723694	0.7606595158576965	0.0	244.0	371.0	0.0	0.0	0.0	0.0	0.0	0.0	null	null	null	null	null	null	null	null	334.0	333.0	335.0	336.0	332.0	333.0	337.0	333.0	338.0	333.0	336.0	
Mon Jun 05 02:33:00 UTC 2017	0.0	1.047281664E9	2559.457275390625	0.0	2.5731072E7	0.0	2.0	9.7273856E8	41.439395904541016	0.0	0.0	1.06133504E9	1.050161152E9	0.0	0.0	0.07500000298023224	0.05050000175833702	0.04349999874830246	0.9919999837875366	0.7606335878372192	0.0	244.0	371.0	0.0	0.0	0.0	0.0	0.0	0.0	null	null	null	null	null	null	null	null	334.0	338.0	338.0	333.0	335.0	336.0	336.0	335.0	331.0	334.0	336.0	
Mon Jun 05 02:32:00 UTC 2017	0.0	1.047281664E9	2559.457275390625	0.0	2.5731072E7	0.0	3.0	9.7273856E8	41.439395904541016	0.0	0.0	1.06133504E9	1.051189248E9	0.0	0.0	0.07325000315904617	0.05649999901652336	0.05225000157952309	0.9917500019073486	0.7606369853019714	0.0	244.0	371.0	0.0	0.0	0.0	0.0	0.0	0.0	null	null	null	null	null	null	null	null	335.0	337.0	335.0	336.0	334.0	334.0	337.0	331.0	338.0	335.0	332.0	
Mon Jun 05 02:31:00 UTC 2017	0.0	1.047281664E9	2559.457275390625	0.0	2.5731072E7	0.0	3.0	9.72525568E8	41.439395904541016	0.0	0.0	1.06133504E9	1.051189248E9	0.0	null	0.1042499989271164	0.0507499985396862	0.04475000128149986	0.9919999837875366	0.760683000087738	0.0	244.0	371.0	0.0	0.0	0.0	0.0	0.0	0.0	null	null	null	null	null	null	null	null	336.0	334.0	333.0	336.0	335.0	333.0	338.0	336.0	335.0	333.0	337.0	
Mon Jun 05 02:30:00 UTC 2017	0.0	1.047281664E9	2430.35107421875	0.0	2.5731072E7	0.0	2.0	9.7261568E8	64.4211654663086	0.0	0.0	1.06133504E9	1.050161152E9	0.0	null	0.07850000262260437	0.04749999940395355	0.0494999997317791	0.9922500252723694	0.7606218457221985	0.0	244.0	371.0	0.0	0.0	0.0	0.0	0.0	0.0	null	null	null	null	null	null	null	null	334.0	336.0	336.0	334.0	334.0	337.0	333.0	332.0	336.0	335.0	336.0	
Mon Jun 05 02:29:00 UTC 2017	0.0	1.047281664E9	2430.35107421875	0.0	2.5731072E7	0.0	2.0	9.72525568E8	64.4211654663086	0.0	0.0	1.06133504E9	1.051189248E9	0.0	null	0.07225000113248825	0.05324999988079071	0.048500001430511475	0.9917500019073486	0.7606218457221985	0.0	244.0	371.0	0.0	0.0	0.0	0.0	0.0	0.0	null	null	null	null	null	null	null	null	338.0	337.0	337.0	333.0	335.0	333.0	338.0	335.0	334.0	333.0	334.0	
Mon Jun 05 02:28:00 UTC 2017	0.0	1.047281664E9	2430.35107421875	0.0	2.5731072E7	0.0	4.0	9.72525568E8	64.4211654663086	0.0	0.0	1.06133504E9	1.050161152E9	0.0	0.0	0.07100000232458115	0.05050000175833702	0.04774999991059303	0.9919999837875366	0.76289302110672	0.0	244.0	371.0	0.0	0.0	0.0	0.0	0.0	0.0	null	null	null	null	null	null	null	null	334.0	339.0	330.0	335.0	338.0	335.0	337.0	332.0	335.0	336.0	336.0	
Mon Jun 05 02:27:00 UTC 2017	0.0	1.047281664E9	2430.35107421875	0.0	2.5731072E7	0.0	3.0	9.72525568E8	35.13343048095703	0.0	0.0	1.06133504E9	1.051189248E9	0.0	0.0	0.07925000041723251	0.052000001072883606	0.0442500002682209	0.9917500019073486	0.7605846524238586	0.0	244.0	371.0	0.0	0.0	0.0	0.0	0.0	0.0	null	null	null	null	null	null	null	null	338.0	333.0	338.0	336.0	335.0	333.0	335.0	334.0	336.0	334.0	336.0	
Mon Jun 05 02:26:00 UTC 2017	0.0	1.047281664E9	2430.35107421875	0.0	2.5731072E7	0.0	3.0	9.72402688E8	49.79862594604492	0.0	0.0	1.06133504E9	1.051189248E9	0.0	null	0.0754999965429306	0.0442500002682209	0.05225000157952309	0.9917500019073486	0.7605743408203125	0.0	244.0	371.0	0.0	0.0	0.0	0.0	0.0	0.0	null	null	null	null	null	null	null	null	335.0	336.0	336.0	336.0	336.0	336.0	334.0	336.0	337.0	332.0	330.0	
Mon Jun 05 02:25:00 UTC 2017	0.0	1.047281664E9	2430.35107421875	0.0	2.5731072E7	0.0	2.0	9.72402688E8	45.186988830566406	0.0	0.0	1.06133504E9	1.050161152E9	0.0	0.0	0.06224999949336052	0.05375000089406967	0.04475000128149986	0.9919999837875366	0.7605342268943787	0.0	244.0	371.0	0.0	0.0	0.0	0.0	0.0	0.0	null	null	null	null	null	null	null	null	334.0	335.0	333.0	336.0	333.0	337.0	335.0	335.0	335.0	338.0	334.0	
Mon Jun 05 02:24:00 UTC 2017	0.0	1.047281664E9	2430.35107421875	0.0	2.5731072E7	0.0	2.0	9.72312576E8	45.186988830566406	1.0	1.0	1.06133504E9	1.051189248E9	0.0	0.0	0.08500000089406967	0.0494999997317791	0.05000000074505806	0.9919999837875366	0.760532796382904	0.0	244.0	371.0	0.0	0.0	0.0	0.0	0.0	0.0	null	null	null	null	null	null	null	null	334.0	336.0	338.0	333.0	337.0	334.0	337.0	334.0	336.0	334.0	338.0	
Mon Jun 05 02:23:00 UTC 2017	0.0	1.047281664E9	2430.35107421875	0.0	2.5731072E7	0.0	3.0	9.72312576E8	45.186988830566406	1.0	2.0	1.06133504E9	1.051189248E9	0.0	0.0	0.07474999874830246	0.050999999046325684	0.04724999889731407	0.9917500019073486	0.7605186104774475	0.0	244.0	371.0	0.0	0.0	0.0	0.0	0.0	0.0	null	null	null	null	null	null	null	null	337.0	334.0	335.0	335.0	336.0	339.0	334.0	337.0	335.0	336.0	334.0	
Mon Jun 05 02:22:00 UTC 2017	0.0	1.047281664E9	2913.66455078125	0.0	2.5731072E7	0.0	2.0	9.72312576E8	45.186988830566406	0.0	0.0	1.06133504E9	1.051189248E9	0.0	null	0.06599999964237213	0.051500000059604645	0.0494999997317791	0.9915000200271606	0.7605063319206238	0.0	244.0	371.0	0.0	0.0	0.0	0.0	0.0	0.0	null	null	null	null	null	null	null	null	336.0	334.0	334.0	336.0	335.0	333.0	338.0	336.0	337.0	332.0	334.0	
Mon Jun 05 02:21:00 UTC 2017	0.0	1.047281664E9	2913.66455078125	0.0	2.5731072E7	0.0	2.0	9.7210368E8	69.27627563476562	0.0	0.0	1.06133504E9	1.051189248E9	0.0	null	0.10125000029802322	0.051500000059604645	0.045249998569488525	0.9915000200271606	0.7605000138282776	0.0	244.0	371.0	0.0	0.0	0.0	0.0	0.0	0.0	null	null	null	null	null	null	null	null	331.0	335.0	336.0	333.0	334.0	338.0	332.0	333.0	332.0	330.0	334.0	
Mon Jun 05 02:20:00 UTC 2017	0.0	1.047281664E9	3018.553955078125	0.0	2.5731072E7	0.0	2.0	9.72193792E8	46.294681549072266	0.0	0.0	1.06133504E9	1.050161152E9	0.0	null	0.08224999904632568	0.05324999988079071	0.04975000023841858	0.9915000200271606	0.7604202628135681	0.0	244.0	371.0	0.0	0.0	0.0	0.0	0.0	0.0	null	null	null	null	null	null	null	null	338.0	333.0	332.0	335.0	334.0	333.0	333.0	335.0	335.0	338.0	335.0	
Mon Jun 05 02:19:00 UTC 2017	0.0	1.047281664E9	2125.629638671875	0.0	2.5731072E7	0.0	2.0	9.7210368E8	46.294681549072266	0.0	0.0	1.06133504E9	1.050161152E9	0.0	null	0.06575000286102295	0.05000000074505806	0.04874999821186066	0.9917500019073486	0.7626870274543762	0.0	244.0	371.0	0.0	0.0	0.0	0.0	0.0	0.0	null	null	null	null	null	null	null	null	335.0	333.0	333.0	331.0	338.0	333.0	339.0	335.0	335.0	333.0	338.0	
Mon Jun 05 02:18:00 UTC 2017	0.0	1.047281664E9	2805.178955078125	0.0	2.5731072E7	0.0	3.0	9.7210368E8	45.687931060791016	0.0	0.0	1.06133504E9	1.051189248E9	0.0	null	0.08375000208616257	0.052000001072883606	0.048250000923871994	0.9917500019073486	0.7604109644889832	0.0	244.0	371.0	0.0	0.0	0.0	0.0	0.0	0.0	null	null	null	null	null	null	null	null	333.0	339.0	339.0	339.0	332.0	331.0	331.0	335.0	336.0	335.0	336.0	
Mon Jun 05 02:17:00 UTC 2017	0.0	1.047281664E9	2805.178955078125	0.0	2.5731072E7	0.0	2.0	9.7210368E8	45.687931060791016	0.0	0.0	1.06133504E9	1.050161152E9	0.0	null	0.06925000250339508	0.04774999991059303	0.04774999991059303	0.9919999837875366	0.7623597383499146	0.0	244.0	371.0	0.0	0.0	0.0	0.0	0.0	0.0	null	null	null	null	null	null	null	null	334.0	335.0	334.0	333.0	338.0	336.0	339.0	334.0	333.0	337.0	335.0	
Mon Jun 05 02:16:00 UTC 2017	0.0	1.047281664E9	2805.178955078125	0.0	2.5731072E7	0.0	2.0	9.71890688E8	37.86185073852539	0.0	0.0	1.06133504E9	1.051189248E9	0.0	null	0.0742499977350235	0.05000000074505806	0.04874999821186066	0.9912499785423279	0.7626699209213257	0.0	244.0	371.0	0.0	0.0	0.0	0.0	0.0	0.0	null	null	null	null	null	null	null	null	334.0	336.0	334.0	335.0	329.0	336.0	331.0	332.0	335.0	330.0	337.0	
Mon Jun 05 02:15:00 UTC 2017	0.0	1.047281664E9	2764.55419921875	0.0	2.5731072E7	0.0	2.0	9.719808E8	49.531314849853516	2.0	2.0	1.06133504E9	1.050161152E9	0.0	null	0.08299999684095383	0.05000000074505806	0.04800000041723251	0.9912499785423279	0.7626752853393555	0.0	244.0	371.0	0.0	0.0	0.0	0.0	0.0	0.0	null	null	null	null	null	null	null	null	336.0	332.0	335.0	335.0	338.0	331.0	336.0	331.0	330.0	334.0	333.0	
Mon Jun 05 02:14:00 UTC 2017	0.0	1.047281664E9	2764.55419921875	0.0	2.5731072E7	0.0	3.0	9.71890688E8	49.531314849853516	0.0	0.0	1.06133504E9	1.051189248E9	0.0	null	0.0767500028014183	0.05525000020861626	0.04324999824166298	0.9915000200271606	0.7603722810745239	0.0	244.0	371.0	0.0	0.0	0.0	0.0	0.0	0.0	null	null	null	null	null	null	null	null	336.0	337.0	334.0	334.0	334.0	335.0	335.0	336.0	335.0	333.0	334.0	
Mon Jun 05 02:13:00 UTC 2017	0.0	1.047281664E9	2764.55419921875	0.0	2.5731072E7	0.0	2.0	9.71890688E8	39.06815719604492	0.0	0.0	1.06133504E9	1.050161152E9	0.0	null	0.0677499994635582	0.04625000059604645	0.050999999046325684	0.9917500019073486	0.7609789967536926	0.0	244.0	371.0	0.0	0.0	0.0	0.0	0.0	0.0	null	null	null	null	null	null	null	null	333.0	334.0	333.0	334.0	335.0	335.0	335.0	335.0	338.0	339.0	338.0	
Mon Jun 05 02:12:00 UTC 2017	0.0	1.047281664E9	2764.55419921875	0.0	2.5731072E7	0.0	3.0	9.71890688E8	39.06815719604492	0.0	0.0	1.06133504E9	1.051189248E9	0.0	0.0	0.0742499977350235	0.05025000125169754	0.042500000447034836	0.9917500019073486	0.7626298069953918	0.0	244.0	371.0	0.0	0.0	0.0	0.0	0.0	0.0	null	null	null	null	null	null	null	null	333.0	335.0	339.0	335.0	333.0	339.0	331.0	334.0	333.0	335.0	334.0	
Mon Jun 05 02:11:00 UTC 2017	0.0	1.047281664E9	2764.55419921875	0.0	2.5731072E7	0.0	2.0	9.71677696E8	39.06815719604492	1.0	0.0	1.06133504E9	1.050161152E9	0.0	0.0	0.09525000303983688	0.054499998688697815	0.05249999836087227	0.9852499961853027	0.7603214383125305	0.0	244.0	371.0	0.0	0.0	0.0	0.0	0.0	0.0	null	null	null	null	null	null	null	null	333.0	330.0	331.0	329.0	331.0	330.0	333.0	334.0	330.0	332.0	332.0	
Mon Jun 05 02:10:00 UTC 2017	0.0	1.047281664E9	2764.55419921875	0.0	2.5731072E7	0.0	4.0	9.72029952E8	42.384952545166016	0.0	0.0	1.061281792E9	1.050161152E9	0.0	0.0	0.08025000244379044	0.051500000059604645	0.045249998569488525	0.9915000200271606	0.7614349722862244	0.0	244.0	371.0	0.0	0.0	0.0	0.0	0.0	0.0	null	null	null	null	null	null	null	null	333.0	334.0	335.0	334.0	332.0	332.0	334.0	337.0	335.0	331.0	334.0	
Mon Jun 05 02:09:00 UTC 2017	1.0	1.047281664E9	2987.820068359375	0.0	2.5731072E7	0.0	2.0	9.71685888E8	43.07743453979492	0.0	0.0	1.061281792E9	1.051189248E9	0.0	0.0	0.06875000149011612	0.05375000089406967	0.048250000923871994	0.9912499785423279	0.7603018283843994	0.0	244.0	371.0	0.0	0.0	0.0	0.0	0.0	0.0	null	null	null	null	null	null	null	null	335.0	332.0	339.0	336.0	336.0	334.0	336.0	335.0	335.0	333.0	334.0	
Mon Jun 05 02:08:00 UTC 2017	0.0	1.047281664E9	2987.820068359375	0.0	2.5731072E7	0.0	3.0	9.71685888E8	46.122955322265625	0.0	0.0	1.061281792E9	1.051189248E9	0.0	0.0	0.07400000095367432	0.04899999871850014	0.04625000059604645	0.9915000200271606	0.762701690196991	0.0	244.0	371.0	0.0	0.0	0.0	0.0	0.0	0.0	null	null	null	null	null	null	null	null	331.0	331.0	333.0	337.0	334.0	338.0	334.0	332.0	334.0	333.0	330.0	
Mon Jun 05 02:07:00 UTC 2017	1.0	1.047281664E9	2987.820068359375	0.0	2.5731072E7	0.0	2.0	9.71685888E8	42.15945816040039	1.0	1.0	1.061281792E9	1.051189248E9	0.0	0.0	0.07349999994039536	0.05274999886751175	0.05050000175833702	0.9915000200271606	0.7625465989112854	0.0	244.0	371.0	0.0	0.0	0.0	0.0	0.0	0.0	null	null	null	null	null	null	null	null	339.0	335.0	332.0	332.0	332.0	332.0	333.0	335.0	340.0	338.0	338.0	
Mon Jun 05 02:06:00 UTC 2017	1.0	1.047281664E9	2987.820068359375	0.0	2.5731072E7	0.0	2.0	9.71472896E8	42.15945816040039	2.0	3.0	1.061281792E9	1.051189248E9	0.0	0.0	0.08150000125169754	0.05849999934434891	0.048250000923871994	0.9912499785423279	0.760269045829773	0.0	244.0	371.0	0.0	0.0	0.0	0.0	0.0	0.0	null	null	null	null	null	null	null	null	330.0	330.0	335.0	337.0	335.0	337.0	334.0	333.0	330.0	329.0	330.0	
Mon Jun 05 02:05:00 UTC 2017	1.0	1.047281664E9	2987.820068359375	0.0	2.5731072E7	0.0	2.0	9.71563008E8	39.28363800048828	2.0	1.0	1.061281792E9	1.051189248E9	0.0	0.0	0.07874999940395355	0.057500001043081284	0.04600000008940697	0.9917500019073486	0.7602871656417847	0.0	244.0	371.0	0.0	0.0	0.0	0.0	0.0	0.0	null	null	null	null	null	null	null	null	337.0	337.0	332.0	333.0	332.0	332.0	337.0	337.0	336.0	334.0	335.0	
Mon Jun 05 02:04:00 UTC 2017	0.0	1.047281664E9	2987.820068359375	0.0	2.5731072E7	0.0	2.0	9.71472896E8	47.688575744628906	1.0	1.0	1.061281792E9	1.051189248E9	0.0	0.0	0.06475000083446503	0.054499998688697815	0.04874999821186066	0.9915000200271606	0.760269045829773	0.0	244.0	371.0	0.0	0.0	0.0	0.0	0.0	0.0	null	null	null	null	null	null	null	null	333.0	332.0	339.0	331.0	335.0	335.0	330.0	332.0	338.0	338.0	339.0	
Mon Jun 05 02:03:00 UTC 2017	0.0	1.047281664E9	2548.869873046875	0.0	2.5731072E7	0.0	4.0	9.71472896E8	47.688575744628906	0.0	0.0	1.061281792E9	1.051189248E9	0.0	0.0	0.07450000196695328	0.05000000074505806	0.04874999821186066	0.9915000200271606	0.7602680921554565	0.0	244.0	371.0	0.0	0.0	0.0	0.0	0.0	0.0	null	null	null	null	null	null	null	null	334.0	337.0	334.0	336.0	332.0	337.0	334.0	336.0	332.0	332.0	333.0	
Mon Jun 05 02:02:00 UTC 2017	0.0	1.047281664E9	2548.869873046875	0.0	2.5731072E7	0.0	2.0	9.71472896E8	46.262298583984375	0.0	0.0	1.061281792E9	1.050161152E9	0.0	0.0	0.07474999874830246	0.04749999940395355	0.04149999842047691	0.9915000200271606	0.7625412344932556	0.0	244.0	371.0	0.0	0.0	0.0	0.0	0.0	0.0	null	null	null	null	null	null	null	null	335.0	334.0	336.0	332.0	333.0	330.0	333.0	336.0	335.0	333.0	337.0	
Mon Jun 05 02:01:00 UTC 2017	1.0	1.047281664E9	2928.6337890625	0.0	2.5731072E7	0.0	2.0	9.71259904E8	42.75079345703125	0.0	1.0	1.061281792E9	1.051189248E9	0.0	0.0	0.09974999725818634	0.052000001072883606	0.048250000923871994	0.9915000200271606	0.7602348327636719	0.0	244.0	371.0	0.0	0.0	0.0	0.0	0.0	0.0	null	null	null	null	null	null	null	null	334.0	333.0	336.0	335.0	334.0	336.0	335.0	330.0	337.0	334.0	332.0	
Mon Jun 05 02:00:00 UTC 2017	1.0	1.047281664E9	2600.040771484375	0.0	2.5731072E7	0.0	3.0	9.71350016E8	46.779720306396484	0.0	0.0	1.061281792E9	1.050124288E9	0.0	0.0	0.07275000214576721	0.04800000041723251	0.05225000157952309	0.9915000200271606	0.7602328658103943	0.0	244.0	371.0	0.0	0.0	0.0	0.0	0.0	0.0	null	null	null	null	null	null	null	null	333.0	337.0	335.0	334.0	335.0	334.0	336.0	337.0	335.0	334.0	333.0	
Mon Jun 05 01:59:00 UTC 2017	0.0	1.047281664E9	2600.040771484375	0.0	2.5731072E7	0.0	2.0	9.71259904E8	46.779720306396484	0.0	0.0	1.061281792E9	1.050124288E9	0.0	0.0	0.08124999701976776	0.05025000125169754	0.04724999889731407	0.9915000200271606	0.7601804733276367	0.0	244.0	371.0	0.0	0.0	0.0	0.0	0.0	0.0	null	null	null	null	null	null	null	null	333.0	335.0	332.0	334.0	335.0	333.0	332.0	334.0	333.0	333.0	332.0	
Mon Jun 05 01:58:00 UTC 2017	0.0	1.047281664E9	2515.2294921875	0.0	2.5731072E7	0.0	2.0	9.71259904E8	46.779720306396484	0.0	0.0	1.061281792E9	1.050124288E9	0.0	0.0	0.07000000029802322	0.04675000160932541	0.04749999940395355	0.9912499785423279	0.7601267099380493	0.0	244.0	371.0	0.0	0.0	0.0	0.0	0.0	0.0	null	null	null	null	null	null	null	null	334.0	336.0	335.0	336.0	336.0	336.0	334.0	333.0	338.0	336.0	335.0	
Mon Jun 05 01:57:00 UTC 2017	0.0	1.047281664E9	2515.2294921875	0.0	2.5731072E7	0.0	2.0	9.71259904E8	62.878150939941406	0.0	0.0	1.061281792E9	1.050124288E9	0.0	0.0	0.07374999672174454	0.052000001072883606	0.04349999874830246	0.9915000200271606	0.7601081132888794	0.0	244.0	371.0	0.0	0.0	0.0	0.0	0.0	0.0	null	null	null	null	null	null	null	null	335.0	335.0	336.0	335.0	337.0	336.0	336.0	334.0	336.0	337.0	337.0	
Mon Jun 05 01:56:00 UTC 2017	0.0	1.047281664E9	3301.747802734375	0.0	2.5731072E7	0.0	2.0	9.71137024E8	62.878150939941406	0.0	0.0	1.061281792E9	1.051152384E9	0.0	0.0	0.08150000125169754	0.054499998688697815	0.0507499985396862	0.9917500019073486	0.7601046562194824	0.0	244.0	371.0	0.0	0.0	0.0	0.0	0.0	0.0	null	null	null	null	null	null	null	null	332.0	333.0	336.0	334.0	336.0	336.0	335.0	336.0	333.0	334.0	335.0	
Mon Jun 05 01:55:00 UTC 2017	0.0	1.047281664E9	2476.147705078125	0.0	2.5731072E7	0.0	5.0	9.71137024E8	62.878150939941406	0.0	0.0	1.061281792E9	1.051152384E9	0.0	0.0	0.06700000166893005	0.0494999997317791	0.04724999889731407	0.9917500019073486	0.7600885033607483	0.0	244.0	371.0	0.0	0.0	0.0	0.0	0.0	0.0	null	null	null	null	null	null	null	null	334.0	337.0	336.0	335.0	334.0	335.0	335.0	338.0	336.0	335.0	332.0	
Mon Jun 05 01:54:00 UTC 2017	0.0	1.047281664E9	2826.958740234375	0.0	2.5731072E7	0.0	2.0	9.71046912E8	37.09995651245117	0.0	0.0	1.061281792E9	1.050124288E9	0.0	0.0	0.07524999976158142	0.048500001430511475	0.04574999958276749	0.9919999837875366	0.7600665092468262	0.0	244.0	371.0	0.0	0.0	0.0	0.0	0.0	0.0	null	null	null	null	null	null	null	null	332.0	335.0	336.0	335.0	335.0	335.0	336.0	334.0	335.0	335.0	335.0	
Mon Jun 05 01:53:00 UTC 2017	0.0	1.047281664E9	2826.958740234375	0.0	2.5731072E7	0.0	4.0	9.71046912E8	37.09995651245117	0.0	1.0	1.061281792E9	1.050124288E9	0.0	0.0	0.07699999958276749	0.05649999901652336	0.04774999991059303	0.9917500019073486	0.7623518705368042	0.0	244.0	371.0	0.0	0.0	0.0	0.0	0.0	0.0	null	null	null	null	null	null	null	null	336.0	331.0	335.0	336.0	338.0	336.0	336.0	333.0	337.0	336.0	336.0	
Mon Jun 05 01:52:00 UTC 2017	0.0	1.047281664E9	2844.501708984375	0.0	2.5731072E7	0.0	3.0	9.71046912E8	37.09995651245117	1.0	2.0	1.061281792E9	1.050124288E9	0.0	0.0	0.06949999928474426	0.051249999552965164	0.04774999991059303	0.9917500019073486	0.7600415349006653	0.0	244.0	371.0	0.0	0.0	0.0	0.0	0.0	0.0	null	null	null	null	null	null	null	null	336.0	336.0	336.0	333.0	335.0	334.0	335.0	339.0	335.0	333.0	335.0	
Mon Jun 05 01:51:00 UTC 2017	0.0	1.047281664E9	3016.11572265625	0.0	2.5731072E7	0.0	2.0	9.7083392E8	52.51128005981445	2.0	2.0	1.061281792E9	1.050124288E9	0.0	0.0	0.10000000149011612	0.06224999949336052	0.0572500005364418	0.9917500019073486	0.7600166201591492	0.0	244.0	371.0	0.0	0.0	0.0	0.0	0.0	0.0	null	null	null	null	null	null	null	null	335.0	336.0	333.0	337.0	336.0	335.0	336.0	334.0	337.0	335.0	335.0	
Mon Jun 05 01:50:00 UTC 2017	0.0	1.047281664E9	3060.0625	0.0	2.5731072E7	0.0	2.0	9.70924032E8	52.51128005981445	1.0	0.0	1.061281792E9	1.050124288E9	0.0	0.0	0.07524999976158142	0.05050000175833702	0.04574999958276749	0.9917500019073486	0.7600141763687134	0.0	244.0	371.0	0.0	0.0	0.0	0.0	0.0	0.0	null	null	null	null	null	null	null	null	332.0	335.0	340.0	336.0	334.0	337.0	334.0	337.0	334.0	333.0	334.0	
Mon Jun 05 01:49:00 UTC 2017	1.0	1.047281664E9	3060.0625	0.0	2.5731072E7	0.0	2.0	9.7083392E8	61.92106628417969	0.0	0.0	1.061281792E9	1.050124288E9	0.0	0.0	0.07225000113248825	0.05225000157952309	0.04899999871850014	0.9917500019073486	0.7600018978118896	0.0	244.0	371.0	0.0	0.0	0.0	0.0	0.0	0.0	null	null	null	null	null	null	null	null	339.0	335.0	334.0	334.0	336.0	334.0	335.0	332.0	338.0	333.0	336.0	
Mon Jun 05 01:48:00 UTC 2017	0.0	1.047281664E9	3060.0625	0.0	2.5731072E7	0.0	5.0	9.7083392E8	61.92106628417969	0.0	0.0	1.061281792E9	1.051152384E9	0.0	0.0	0.07800000160932541	0.04600000008940697	0.04749999940395355	0.9917500019073486	0.7599813938140869	0.0	244.0	371.0	0.0	0.0	0.0	0.0	0.0	0.0	null	null	null	null	null	null	null	null	333.0	330.0	331.0	334.0	333.0	334.0	331.0	338.0	332.0	337.0	335.0	
Mon Jun 05 01:47:00 UTC 2017	0.0	1.047281664E9	2338.248046875	0.0	2.5731072E7	0.0	2.0	9.7083392E8	61.92106628417969	1.0	0.0	1.061281792E9	1.051152384E9	0.0	0.0	0.07124999910593033	0.048500001430511475	0.04600000008940697	0.9884999990463257	0.7599642276763916	0.0	244.0	371.0	0.0	0.0	0.0	0.0	0.0	0.0	null	null	null	null	null	null	null	null	334.0	336.0	334.0	337.0	333.0	332.0	334.0	332.0	334.0	331.0	331.0	
Mon Jun 05 01:46:00 UTC 2017	1.0	1.047281664E9	2338.248046875	0.0	2.5731072E7	0.0	2.0	9.70620928E8	61.92106628417969	0.0	0.0	1.061281792E9	1.051152384E9	0.0	0.0	0.07349999994039536	0.05274999886751175	0.05000000074505806	0.9915000200271606	0.7620206475257874	0.0	244.0	371.0	0.0	0.0	0.0	0.0	0.0	0.0	null	null	null	null	null	null	null	null	336.0	332.0	334.0	332.0	333.0	331.0	333.0	332.0	335.0	332.0	333.0	
Mon Jun 05 01:45:00 UTC 2017	1.0	1.047281664E9	2338.248046875	0.0	2.5731072E7	0.0	2.0	9.7071104E8	37.3956184387207	0.0	0.0	1.061281792E9	1.051152384E9	0.0	0.0	0.08524999767541885	0.051249999552965164	0.04699999839067459	0.9919999837875366	0.7622246742248535	0.0	244.0	371.0	0.0	0.0	0.0	0.0	0.0	0.0	null	null	null	null	null	null	null	null	335.0	335.0	336.0	339.0	337.0	334.0	335.0	337.0	334.0	339.0	333.0	
Mon Jun 05 01:44:00 UTC 2017	0.0	1.047281664E9	2338.248046875	0.0	2.5731072E7	0.0	5.0	9.70620928E8	37.3956184387207	0.0	0.0	1.061281792E9	1.050124288E9	0.0	0.0	0.06975000351667404	0.04899999871850014	0.04475000128149986	0.9917500019073486	0.7622202634811401	0.0	244.0	371.0	0.0	0.0	0.0	0.0	0.0	0.0	null	null	null	null	null	null	null	null	335.0	337.0	332.0	335.0	331.0	340.0	334.0	334.0	333.0	335.0	334.0	
Mon Jun 05 01:43:00 UTC 2017	0.0	1.047281664E9	2338.248046875	0.0	2.5731072E7	0.0	2.0	9.70620928E8	36.90890884399414	1.0	1.0	1.061281792E9	1.050124288E9	0.0	null	0.07999999821186066	0.05900000035762787	0.051249999552965164	0.9919999837875366	0.7622036337852478	0.0	244.0	371.0	0.0	0.0	0.0	0.0	0.0	0.0	null	null	null	null	null	null	null	null	336.0	334.0	338.0	335.0	336.0	337.0	335.0	336.0	335.0	337.0	335.0	
Mon Jun 05 01:42:00 UTC 2017	0.0	1.047281664E9	3183.642333984375	0.0	2.5731072E7	0.0	3.0	9.70620928E8	36.90890884399414	0.0	0.0	1.061281792E9	1.051152384E9	0.0	null	0.07824999839067459	0.05050000175833702	0.04699999839067459	0.9919999837875366	0.7598981857299805	0.0	244.0	371.0	0.0	0.0	0.0	0.0	0.0	0.0	null	null	null	null	null	null	null	null	338.0	339.0	332.0	339.0	334.0	335.0	335.0	336.0	339.0	332.0	338.0	
Mon Jun 05 01:41:00 UTC 2017	0.0	1.047281664E9	3185.359619140625	0.0	2.5731072E7	0.0	3.0	9.70412032E8	36.90890884399414	0.0	0.0	1.061281792E9	1.050124288E9	0.0	null	0.08574999868869781	0.045249998569488525	0.04324999824166298	0.9919999837875366	0.7621825933456421	0.0	244.0	371.0	0.0	0.0	0.0	0.0	0.0	0.0	null	null	null	null	null	null	null	null	337.0	336.0	337.0	334.0	337.0	332.0	336.0	335.0	333.0	336.0	334.0	
Mon Jun 05 01:40:00 UTC 2017	0.0	1.047281664E9	3185.359619140625	0.0	2.5731072E7	0.0	2.0	9.70502144E8	36.90890884399414	0.0	0.0	1.061281792E9	1.051152384E9	0.0	null	0.08524999767541885	0.051750000566244125	0.048500001430511475	0.9919999837875366	0.7598678469657898	0.0	244.0	371.0	0.0	0.0	0.0	0.0	0.0	0.0	null	null	null	null	null	null	null	null	336.0	331.0	333.0	338.0	330.0	338.0	335.0	332.0	338.0	335.0	341.0	
Mon Jun 05 01:39:00 UTC 2017	0.0	1.047281664E9	3185.359619140625	0.0	2.5731072E7	0.0	2.0	9.70412032E8	36.90890884399414	0.0	0.0	1.061281792E9	1.050124288E9	0.0	0.0	0.0729999989271164	0.05025000125169754	0.04899999871850014	0.9919999837875366	0.7598565816879272	0.0	244.0	371.0	0.0	0.0	0.0	0.0	0.0	0.0	null	null	null	null	null	null	null	null	334.0	335.0	335.0	334.0	335.0	334.0	333.0	336.0	332.0	336.0	334.0	
Mon Jun 05 01:38:00 UTC 2017	0.0	1.047281664E9	3185.359619140625	0.0	2.5731072E7	0.0	2.0	9.70412032E8	36.90890884399414	0.0	0.0	1.061281792E9	1.051152384E9	0.0	0.0	0.07175000011920929	0.0507499985396862	0.0430000014603138	0.9919999837875366	0.7598668932914734	0.0	244.0	371.0	0.0	0.0	0.0	0.0	0.0	0.0	null	null	null	null	null	null	null	null	333.0	339.0	335.0	333.0	335.0	337.0	338.0	334.0	335.0	335.0	333.0	
Mon Jun 05 01:37:00 UTC 2017	0.0	1.047281664E9	3185.359619140625	0.0	2.5731072E7	0.0	3.0	9.70412032E8	54.14889144897461	0.0	0.0	1.061281792E9	1.051152384E9	0.0	0.0	0.07150000333786011	0.050999999046325684	0.052000001072883606	0.9919999837875366	0.7598556280136108	0.0	244.0	371.0	0.0	0.0	0.0	0.0	0.0	0.0	null	null	null	null	null	null	null	null	337.0	332.0	336.0	338.0	334.0	338.0	335.0	332.0	335.0	335.0	340.0	
Mon Jun 05 01:36:00 UTC 2017	0.0	1.047281664E9	3185.359619140625	0.0	2.5731072E7	0.0	3.0	9.7019904E8	35.876983642578125	0.0	0.0	1.061281792E9	1.050124288E9	0.0	0.0	0.08049999922513962	0.04924999922513962	0.04475000128149986	0.9917500019073486	0.7621238827705383	0.0	244.0	371.0	0.0	0.0	0.0	0.0	0.0	0.0	null	null	null	null	null	null	null	null	337.0	338.0	340.0	333.0	338.0	333.0	336.0	336.0	334.0	333.0	333.0	
Mon Jun 05 01:35:00 UTC 2017	0.0	1.047281664E9	3185.359619140625	0.0	2.5731072E7	0.0	2.0	9.70289152E8	45.251869201660156	0.0	0.0	1.061281792E9	1.050124288E9	0.0	0.0	0.06975000351667404	0.05025000125169754	0.048500001430511475	0.9917500019073486	0.7598243355751038	0.0	244.0	371.0	0.0	0.0	0.0	0.0	0.0	0.0	null	null	null	null	null	null	null	null	334.0	332.0	332.0	339.0	333.0	339.0	333.0	334.0	335.0	336.0	330.0	
Mon Jun 05 01:34:00 UTC 2017	1.0	1.047281664E9	2622.09814453125	0.0	2.5731072E7	0.0	5.0	9.7019904E8	42.02001953125	0.0	0.0	1.061281792E9	1.051152384E9	0.0	null	0.08224999904632568	0.054999999701976776	0.04874999821186066	0.9919999837875366	0.7602646350860596	0.0	244.0	371.0	0.0	0.0	0.0	0.0	0.0	0.0	null	null	null	null	null	null	null	null	338.0	340.0	338.0	332.0	335.0	335.0	337.0	335.0	333.0	339.0	337.0	
Mon Jun 05 01:33:00 UTC 2017	0.0	1.047281664E9	2532.91455078125	0.0	2.5731072E7	0.0	3.0	9.7019904E8	42.12886428833008	0.0	0.0	1.061281792E9	1.051152384E9	0.0	null	0.0702499970793724	0.04600000008940697	0.04450000077486038	0.9922500252723694	0.761318564414978	0.0	244.0	371.0	0.0	0.0	0.0	0.0	0.0	0.0	null	null	null	null	null	null	null	null	334.0	331.0	334.0	336.0	335.0	337.0	335.0	332.0	336.0	334.0	334.0	
Mon Jun 05 01:32:00 UTC 2017	0.0	1.047281664E9	2532.91455078125	0.0	2.5731072E7	0.0	2.0	9.7019904E8	44.67619323730469	1.0	1.0	1.061281792E9	1.050124288E9	0.0	null	0.07349999994039536	0.05400000140070915	0.048500001430511475	0.9919999837875366	0.7597851753234863	0.0	244.0	371.0	0.0	0.0	0.0	0.0	0.0	0.0	null	null	null	null	null	null	null	null	338.0	337.0	339.0	335.0	335.0	334.0	337.0	336.0	337.0	336.0	334.0	
Mon Jun 05 01:31:00 UTC 2017	0.0	1.047281664E9	3173.34716796875	0.0	2.5731072E7	0.0	2.0	9.69986048E8	41.02853012084961	0.0	0.0	1.061281792E9	1.051152384E9	0.0	null	0.09950000047683716	0.050999999046325684	0.04399999976158142	0.9919999837875366	0.7620519399642944	0.0	244.0	371.0	0.0	0.0	0.0	0.0	0.0	0.0	null	null	null	null	null	null	null	null	332.0	334.0	333.0	337.0	333.0	337.0	333.0	333.0	332.0	335.0	340.0	
Mon Jun 05 01:30:00 UTC 2017	0.0	1.047281664E9	2652.843994140625	0.0	2.5731072E7	0.0	3.0	9.7007616E8	66.73783874511719	0.0	0.0	1.061281792E9	1.050124288E9	0.0	0.0	0.07225000113248825	0.05299999937415123	0.05249999836087227	0.9917500019073486	0.7597298622131348	0.0	244.0	371.0	0.0	0.0	0.0	0.0	0.0	0.0	null	null	null	null	null	null	null	null	334.0	335.0	336.0	332.0	333.0	335.0	336.0	335.0	338.0	337.0	332.0	
Mon Jun 05 01:29:00 UTC 2017	0.0	1.047281664E9	3683.342041015625	0.0	2.5731072E7	0.0	2.0	9.69986048E8	43.44563293457031	0.0	0.0	1.061281792E9	1.051152384E9	0.0	0.0	0.08299999684095383	0.04475000128149986	0.04675000160932541	0.9917500019073486	0.7603424787521362	0.0	244.0	371.0	0.0	0.0	0.0	0.0	0.0	0.0	null	null	null	null	null	null	null	null	335.0	335.0	336.0	339.0	336.0	335.0	336.0	334.0	333.0	332.0	336.0	
Mon Jun 05 01:28:00 UTC 2017	0.0	1.047281664E9	3683.342041015625	0.0	2.5731072E7	0.0	5.0	9.69986048E8	43.44563293457031	0.0	0.0	1.061281792E9	1.051152384E9	0.0	null	0.06624999642372131	0.05050000175833702	0.04475000128149986	0.9915000200271606	0.7597049474716187	0.0	244.0	371.0	0.0	0.0	0.0	0.0	0.0	0.0	null	null	null	null	null	null	null	null	336.0	333.0	333.0	334.0	337.0	335.0	337.0	339.0	335.0	336.0	335.0	
Mon Jun 05 01:27:00 UTC 2017	0.0	1.047281664E9	3683.342041015625	0.0	2.5731072E7	0.0	3.0	9.69986048E8	38.182533264160156	0.0	0.0	1.061281792E9	1.050124288E9	0.0	null	0.07975000143051147	0.054749999195337296	0.051500000059604645	0.9917500019073486	0.7596868276596069	0.0	244.0	371.0	0.0	0.0	0.0	0.0	0.0	0.0	null	null	null	null	null	null	null	null	336.0	335.0	337.0	335.0	333.0	337.0	336.0	332.0	338.0	336.0	333.0	
Mon Jun 05 01:26:00 UTC 2017	0.0	1.047281664E9	2481.280517578125	0.0	2.5731072E7	0.0	4.0	9.69867264E8	62.72443771362305	0.0	0.0	1.061281792E9	1.051152384E9	0.0	null	0.0689999982714653	0.054249998182058334	0.04475000128149986	0.9919999837875366	0.7612470984458923	0.0	244.0	371.0	0.0	0.0	0.0	0.0	0.0	0.0	null	null	null	null	null	null	null	null	335.0	335.0	333.0	336.0	337.0	334.0	333.0	337.0	331.0	339.0	338.0	
Mon Jun 05 01:25:00 UTC 2017	0.0	1.047281664E9	2492.364990234375	0.0	2.5731072E7	0.0	2.0	9.69867264E8	52.80879592895508	0.0	0.0	1.061281792E9	1.050124288E9	0.0	0.0	0.07975000143051147	0.05000000074505806	0.04774999991059303	0.9919999837875366	0.7618547677993774	0.0	244.0	371.0	0.0	0.0	0.0	0.0	0.0	0.0	null	null	null	null	null	null	null	null	333.0	335.0	337.0	335.0	333.0	337.0	337.0	335.0	339.0	337.0	337.0	
Mon Jun 05 01:24:00 UTC 2017	0.0	1.047281664E9	2740.567626953125	0.0	2.5731072E7	0.0	2.0	9.69777152E8	52.80879592895508	0.0	0.0	1.061281792E9	1.051152384E9	0.0	0.0	0.07975000143051147	0.04774999991059303	0.05025000125169754	0.9919999837875366	0.7596501111984253	0.0	244.0	371.0	0.0	0.0	0.0	0.0	0.0	0.0	null	null	null	null	null	null	null	null	334.0	335.0	334.0	334.0	333.0	333.0	333.0	339.0	333.0	333.0	335.0	
Mon Jun 05 01:23:00 UTC 2017	0.0	1.047281664E9	2476.97802734375	0.0	2.5731072E7	0.0	2.0	9.69777152E8	52.80879592895508	0.0	0.0	1.061281792E9	1.050124288E9	0.0	0.0	0.06674999743700027	0.051500000059604645	0.04724999889731407	0.9917500019073486	0.7596506476402283	0.0	244.0	371.0	0.0	0.0	0.0	0.0	0.0	0.0	null	null	null	null	null	null	null	null	331.0	337.0	335.0	337.0	336.0	336.0	334.0	334.0	338.0	336.0	335.0	
Mon Jun 05 01:22:00 UTC 2017	0.0	1.047281664E9	2476.97802734375	0.0	2.5731072E7	0.0	2.0	9.69777152E8	37.52485275268555	0.0	0.0	1.061281792E9	1.050124288E9	0.0	0.0	0.08174999803304672	0.05000000074505806	0.045499999076128006	0.9917500019073486	0.7596560120582581	0.0	244.0	371.0	0.0	0.0	0.0	0.0	0.0	0.0	null	null	null	null	null	null	null	null	334.0	334.0	336.0	333.0	335.0	335.0	334.0	337.0	336.0	338.0	334.0	
Mon Jun 05 01:21:00 UTC 2017	0.0	1.047281664E9	2476.97802734375	0.0	2.5731072E7	0.0	2.0	9.6956416E8	35.212799072265625	0.0	0.0	1.061281792E9	1.051152384E9	0.0	0.0	0.09749999642372131	0.04800000041723251	0.04699999839067459	0.9917500019073486	0.7610979080200195	0.0	244.0	371.0	0.0	0.0	0.0	0.0	0.0	0.0	null	null	null	null	null	null	null	null	332.0	336.0	334.0	335.0	334.0	338.0	334.0	334.0	333.0	334.0	336.0	
Mon Jun 05 01:20:00 UTC 2017	0.0	1.047281664E9	2476.97802734375	0.0	2.5731072E7	0.0	2.0	9.69654272E8	35.212799072265625	0.0	0.0	1.061281792E9	1.051152384E9	0.0	0.0	0.06875000149011612	0.05025000125169754	0.05050000175833702	0.9917500019073486	0.7596104741096497	0.0	244.0	371.0	0.0	0.0	0.0	0.0	0.0	0.0	null	null	null	null	null	null	null	null	339.0	333.0	334.0	335.0	334.0	333.0	338.0	335.0	336.0	332.0	335.0	
Mon Jun 05 01:19:00 UTC 2017	0.0	1.047281664E9	2609.34912109375	0.0	2.5731072E7	0.0	3.0	9.6956416E8	35.212799072265625	0.0	0.0	1.061281792E9	1.050124288E9	0.0	0.0	0.07699999958276749	0.05575000122189522	0.04975000023841858	0.9919999837875366	0.7596217393875122	0.0	244.0	371.0	0.0	0.0	0.0	0.0	0.0	0.0	null	null	null	null	null	null	null	null	331.0	339.0	336.0	336.0	337.0	335.0	331.0	336.0	338.0	336.0	336.0	
Mon Jun 05 01:18:00 UTC 2017	0.0	1.047281664E9	3610.400146484375	0.0	2.5731072E7	0.0	6.0	9.6956416E8	35.212799072265625	0.0	1.0	1.061281792E9	1.050124288E9	0.0	0.0	0.07975000143051147	0.04874999821186066	0.04475000128149986	0.9917500019073486	0.7596099972724915	0.0	244.0	371.0	0.0	0.0	0.0	0.0	0.0	0.0	null	null	null	null	null	null	null	null	337.0	332.0	336.0	336.0	334.0	336.0	337.0	336.0	334.0	336.0	337.0	
Mon Jun 05 01:17:00 UTC 2017	0.0	1.047281664E9	3610.400146484375	0.0	2.5731072E7	0.0	3.0	9.6956416E8	77.2206039428711	0.0	0.0	1.061281792E9	1.050124288E9	0.0	0.0	0.06499999761581421	0.051500000059604645	0.0507499985396862	0.9919999837875366	0.7596065998077393	0.0	244.0	371.0	0.0	0.0	0.0	0.0	0.0	0.0	null	null	null	null	null	null	null	null	335.0	336.0	336.0	332.0	336.0	335.0	333.0	331.0	337.0	335.0	333.0	
Mon Jun 05 01:16:00 UTC 2017	0.0	1.047281664E9	3610.400146484375	0.0	2.5731072E7	0.0	2.0	9.6944128E8	46.109619140625	0.0	0.0	1.061281792E9	1.050124288E9	0.0	0.0	0.07275000214576721	0.051249999552965164	0.04574999958276749	0.9917500019073486	0.7595904469490051	0.0	244.0	371.0	0.0	0.0	0.0	0.0	0.0	0.0	null	null	null	null	null	null	null	null	335.0	335.0	333.0	335.0	332.0	335.0	335.0	335.0	331.0	337.0	337.0	
Mon Jun 05 01:15:00 UTC 2017	0.0	1.047281664E9	3610.400146484375	0.0	2.5731072E7	0.0	2.0	9.6944128E8	71.42579650878906	0.0	0.0	1.061281792E9	1.050124288E9	0.0	0.0	0.07900000363588333	0.051249999552965164	0.04625000059604645	0.9919999837875366	0.7595733404159546	0.0	244.0	371.0	0.0	0.0	0.0	0.0	0.0	0.0	null	null	null	null	null	null	null	null	338.0	339.0	335.0	334.0	339.0	336.0	338.0	335.0	335.0	334.0	335.0	
Mon Jun 05 01:14:00 UTC 2017	0.0	1.047281664E9	3610.400146484375	0.0	2.5731072E7	0.0	2.0	9.69351168E8	71.42579650878906	0.0	0.0	1.061281792E9	1.050124288E9	0.0	0.0	0.0702499970793724	0.05025000125169754	0.051750000566244125	0.9919999837875366	0.759571373462677	0.0	244.0	371.0	0.0	0.0	0.0	0.0	0.0	0.0	null	null	null	null	null	null	null	null	336.0	336.0	334.0	336.0	335.0	340.0	335.0	334.0	337.0	334.0	336.0	
Mon Jun 05 01:13:00 UTC 2017	0.0	1.047281664E9	3610.400146484375	0.0	2.5731072E7	0.0	2.0	9.69351168E8	52.53186798095703	0.0	0.0	1.061281792E9	1.050124288E9	0.0	0.0	0.07874999940395355	0.051249999552965164	0.04874999821186066	0.9919999837875366	0.7610518932342529	0.0	244.0	371.0	0.0	0.0	0.0	0.0	0.0	0.0	null	null	null	null	null	null	null	null	335.0	335.0	335.0	336.0	334.0	334.0	334.0	335.0	337.0	336.0	336.0	
Mon Jun 05 01:12:00 UTC 2017	0.0	1.047281664E9	3610.400146484375	0.0	2.5731072E7	0.0	3.0	9.69351168E8	52.53186798095703	1.0	1.0	1.061281792E9	1.050124288E9	0.0	null	0.07349999994039536	0.04975000023841858	0.04500000178813934	0.9919999837875366	0.7595375776290894	0.0	244.0	371.0	0.0	0.0	0.0	0.0	0.0	0.0	null	null	null	null	null	null	null	null	335.0	336.0	338.0	334.0	336.0	335.0	336.0	337.0	333.0	333.0	339.0	
Mon Jun 05 01:11:00 UTC 2017	0.0	1.047281664E9	3610.400146484375	0.0	2.5731072E7	0.0	4.0	9.69138176E8	41.25438690185547	0.0	0.0	1.061281792E9	1.050124288E9	0.0	null	0.10450000315904617	0.04874999821186066	0.05050000175833702	0.9919999837875366	0.7594656944274902	0.0	244.0	371.0	0.0	0.0	0.0	0.0	0.0	0.0	null	null	null	null	null	null	null	null	336.0	335.0	333.0	334.0	334.0	337.0	333.0	335.0	335.0	337.0	334.0	
Mon Jun 05 01:10:00 UTC 2017	0.0	1.047281664E9	3610.400146484375	0.0	2.5731072E7	0.0	4.0	9.69211904E8	45.081356048583984	0.0	0.0	1.061281792E9	1.050124288E9	0.0	null	0.06525000184774399	0.0572500005364418	0.04650000110268593	0.9919999837875366	0.7594475746154785	0.0	244.0	371.0	0.0	0.0	0.0	0.0	0.0	0.0	null	null	null	null	null	null	null	null	337.0	334.0	335.0	332.0	335.0	336.0	336.0	332.0	336.0	334.0	334.0	
Mon Jun 05 01:09:00 UTC 2017	0.0	1.047281664E9	3610.400146484375	0.0	2.5731072E7	0.0	2.0	9.69121792E8	45.081356048583984	0.0	0.0	1.061281792E9	1.051152384E9	0.0	null	0.07824999839067459	0.048500001430511475	0.04924999922513962	0.9917500019073486	0.759427011013031	0.0	244.0	371.0	0.0	0.0	0.0	0.0	0.0	0.0	null	null	null	null	null	null	null	null	335.0	340.0	335.0	333.0	333.0	334.0	332.0	337.0	337.0	335.0	337.0	
Mon Jun 05 01:08:00 UTC 2017	0.0	1.047281664E9	2608.802734375	0.0	2.5731072E7	0.0	2.0	9.69121792E8	45.081356048583984	0.0	0.0	1.061281792E9	1.050124288E9	0.0	null	0.0742499977350235	0.0507499985396862	0.04749999940395355	0.9919999837875366	0.7594343423843384	0.0	244.0	371.0	0.0	0.0	0.0	0.0	0.0	0.0	null	null	null	null	null	null	null	null	338.0	333.0	334.0	337.0	336.0	334.0	336.0	336.0	335.0	336.0	336.0	
Mon Jun 05 01:07:00 UTC 2017	0.0	1.047281664E9	3094.2705078125	0.0	2.5731072E7	0.0	2.0	9.69121792E8	45.081356048583984	0.0	0.0	1.061281792E9	1.051152384E9	0.0	null	0.08174999803304672	0.04625000059604645	0.04899999871850014	0.9915000200271606	0.7594187259674072	0.0	244.0	371.0	0.0	0.0	0.0	0.0	0.0	0.0	null	null	null	null	null	null	null	null	332.0	337.0	337.0	333.0	335.0	337.0	334.0	336.0	336.0	334.0	333.0	
Mon Jun 05 01:06:00 UTC 2017	0.0	1.047281664E9	3094.2705078125	0.0	2.5731072E7	0.0	2.0	9.68912896E8	58.54505920410156	0.0	0.0	1.061281792E9	1.050124288E9	0.0	0.0	0.07275000214576721	0.05525000020861626	0.04399999976158142	0.9919999837875366	0.7616869807243347	0.0	244.0	371.0	0.0	0.0	0.0	0.0	0.0	0.0	null	null	null	null	null	null	null	null	338.0	335.0	335.0	339.0	334.0	337.0	332.0	335.0	334.0	339.0	330.0	
Mon Jun 05 01:05:00 UTC 2017	0.0	1.047281664E9	3094.2705078125	0.0	2.5731072E7	0.0	4.0	9.69003008E8	46.594932556152344	0.0	0.0	1.061281792E9	1.051152384E9	0.0	null	0.0702499970793724	0.04675000160932541	0.0507499985396862	0.9919999837875366	0.7594001293182373	0.0	244.0	371.0	0.0	0.0	0.0	0.0	0.0	0.0	null	null	null	null	null	null	null	null	336.0	336.0	335.0	336.0	339.0	334.0	336.0	333.0	333.0	333.0	335.0	
Mon Jun 05 01:04:00 UTC 2017	0.0	1.047281664E9	2923.617919921875	0.0	2.5731072E7	0.0	2.0	9.68912896E8	50.27869415283203	0.0	0.0	1.061281792E9	1.051152384E9	0.0	null	0.07100000232458115	0.048500001430511475	0.04699999839067459	0.9919999837875366	0.7593849301338196	0.0	244.0	371.0	0.0	0.0	0.0	0.0	0.0	0.0	null	null	null	null	null	null	null	null	336.0	334.0	334.0	334.0	332.0	335.0	337.0	335.0	339.0	340.0	334.0	
Mon Jun 05 01:03:00 UTC 2017	0.0	1.047281664E9	2706.836181640625	0.0	2.5731072E7	0.0	2.0	9.68912896E8	50.27869415283203	0.0	0.0	1.061281792E9	1.050124288E9	0.0	null	0.07625000178813934	0.054499998688697815	0.050999999046325684	0.9917500019073486	0.759364902973175	0.0	244.0	371.0	0.0	0.0	0.0	0.0	0.0	0.0	null	null	null	null	null	null	null	null	336.0	336.0	335.0	334.0	333.0	338.0	333.0	335.0	334.0	336.0	337.0	
Mon Jun 05 01:02:00 UTC 2017	0.0	1.047281664E9	2828.580322265625	0.0	2.5731072E7	0.0	2.0	9.68912896E8	52.520668029785156	0.0	0.0	1.061281792E9	1.051152384E9	0.0	0.0	0.08174999803304672	0.051500000059604645	0.04675000160932541	0.9919999837875366	0.7593634128570557	0.0	244.0	371.0	0.0	0.0	0.0	0.0	0.0	0.0	null	null	null	null	null	null	null	null	335.0	333.0	336.0	337.0	338.0	333.0	339.0	337.0	335.0	335.0	336.0	
Mon Jun 05 01:01:00 UTC 2017	0.0	1.047281664E9	2828.580322265625	0.0	2.5731072E7	0.0	2.0	9.68790016E8	52.520668029785156	0.0	0.0	1.061281792E9	1.050124288E9	0.0	0.0	0.09049999713897705	0.050999999046325684	0.048250000923871994	0.9919999837875366	0.7616958022117615	0.0	244.0	371.0	0.0	0.0	0.0	0.0	0.0	0.0	null	null	null	null	null	null	null	null	335.0	334.0	333.0	337.0	336.0	335.0	334.0	336.0	338.0	333.0	333.0	
Mon Jun 05 01:00:00 UTC 2017	0.0	1.047281664E9	2828.580322265625	0.0	2.5731072E7	0.0	2.0	9.68790016E8	29.065568923950195	0.0	0.0	1.061281792E9	1.051152384E9	0.0	0.0	0.08049999922513962	0.04600000008940697	0.04774999991059303	0.9917500019073486	0.7593991160392761	0.0	244.0	371.0	0.0	0.0	0.0	0.0	0.0	0.0	null	null	null	null	null	null	null	null	334.0	341.0	337.0	337.0	333.0	334.0	339.0	336.0	333.0	339.0	332.0	
Mon Jun 05 00:59:00 UTC 2017	0.0	1.047281664E9	2828.580322265625	0.0	2.5731072E7	0.0	3.0	9.68699904E8	40.100013732910156	0.0	0.0	1.061281792E9	1.050124288E9	0.0	0.0	0.07474999874830246	0.0507499985396862	0.04800000041723251	0.9922500252723694	0.760591983795166	0.0	244.0	371.0	0.0	0.0	0.0	0.0	0.0	0.0	null	null	null	null	null	null	null	null	332.0	334.0	335.0	334.0	339.0	335.0	338.0	333.0	334.0	333.0	329.0	
Mon Jun 05 00:58:00 UTC 2017	0.0	1.047281664E9	2473.783935546875	0.0	2.5731072E7	0.0	3.0	9.68699904E8	39.289764404296875	0.0	0.0	1.061281792E9	1.050124288E9	0.0	null	0.06875000149011612	0.05249999836087227	0.045499999076128006	0.9919999837875366	0.7616654634475708	0.0	244.0	371.0	0.0	0.0	0.0	0.0	0.0	0.0	null	null	null	null	null	null	null	null	338.0	335.0	335.0	338.0	335.0	335.0	338.0	333.0	332.0	337.0	335.0	
Mon Jun 05 00:57:00 UTC 2017	0.0	1.047281664E9	2473.783935546875	0.0	2.5731072E7	0.0	5.0	9.68699904E8	39.289764404296875	1.0	0.0	1.061281792E9	1.050124288E9	0.0	null	0.07575000077486038	0.05025000125169754	0.0507499985396862	0.9922500252723694	0.7593629360198975	0.0	244.0	371.0	0.0	0.0	0.0	0.0	0.0	0.0	null	null	null	null	null	null	null	null	334.0	335.0	336.0	335.0	334.0	335.0	332.0	338.0	336.0	336.0	334.0	
Mon Jun 05 00:56:00 UTC 2017	0.0	1.047281664E9	2693.799560546875	0.0	2.5731072E7	0.0	2.0	9.68486912E8	39.289764404296875	0.0	0.0	1.061281792E9	1.051152384E9	0.0	null	0.08399999886751175	0.04899999871850014	0.04899999871850014	0.9917500019073486	0.7593600153923035	0.0	244.0	371.0	0.0	0.0	0.0	0.0	0.0	0.0	null	null	null	null	null	null	null	null	336.0	338.0	334.0	337.0	337.0	334.0	338.0	334.0	336.0	333.0	334.0	
Mon Jun 05 00:55:00 UTC 2017	0.0	1.047281664E9	3163.221435546875	0.0	2.5731072E7	0.0	2.0	9.68577024E8	49.44040298461914	1.0	2.0	1.061281792E9	1.050124288E9	0.0	0.0	0.0702499970793724	0.06449999660253525	0.0442500002682209	0.9919999837875366	0.7616292238235474	0.0	244.0	371.0	0.0	0.0	0.0	0.0	0.0	0.0	null	null	null	null	null	null	null	null	335.0	334.0	334.0	335.0	334.0	337.0	332.0	336.0	336.0	337.0	338.0	
Mon Jun 05 00:54:00 UTC 2017	0.0	1.047281664E9	2674.826904296875	0.0	2.5731072E7	0.0	2.0	9.68486912E8	38.603275299072266	0.0	0.0	1.061281792E9	1.051152384E9	0.0	0.0	0.0689999982714653	0.04899999871850014	0.0494999997317791	0.9919999837875366	0.7593218088150024	0.0	244.0	371.0	0.0	0.0	0.0	0.0	0.0	0.0	null	null	null	null	null	null	null	null	335.0	336.0	335.0	331.0	335.0	337.0	337.0	331.0	338.0	337.0	336.0	
Mon Jun 05 00:53:00 UTC 2017	0.0	1.047281664E9	2674.826904296875	0.0	2.5731072E7	0.0	2.0	9.68486912E8	35.08873748779297	0.0	0.0	1.061281792E9	1.050124288E9	0.0	0.0	0.07599999755620956	0.05025000125169754	0.04699999839067459	0.9922500252723694	0.7615822553634644	0.0	244.0	371.0	0.0	0.0	0.0	0.0	0.0	0.0	null	null	null	null	null	null	null	null	337.0	335.0	338.0	335.0	335.0	336.0	337.0	336.0	333.0	337.0	335.0	
Mon Jun 05 00:52:00 UTC 2017	0.0	1.047281664E9	2849.91162109375	0.0	2.5731072E7	0.0	3.0	9.68486912E8	35.08873748779297	1.0	0.0	1.061281792E9	1.050124288E9	0.0	0.0	0.0729999989271164	0.051500000059604645	0.048500001430511475	0.9922500252723694	0.7592401504516602	0.0	244.0	371.0	0.0	0.0	0.0	0.0	0.0	0.0	null	null	null	null	null	null	null	null	338.0	334.0	335.0	335.0	336.0	336.0	332.0	335.0	337.0	335.0	336.0	
Mon Jun 05 00:51:00 UTC 2017	0.0	1.047281664E9	2849.91162109375	0.0	2.5731072E7	0.0	8.0	9.68278016E8	52.33135986328125	0.0	0.0	1.061281792E9	1.051152384E9	0.0	0.0	0.10625000298023224	0.04800000041723251	0.04600000008940697	0.9922500252723694	0.7592195868492126	0.0	244.0	371.0	0.0	0.0	0.0	0.0	0.0	0.0	null	null	null	null	null	null	null	null	333.0	335.0	335.0	337.0	336.0	336.0	334.0	338.0	336.0	338.0	335.0	
Mon Jun 05 00:50:00 UTC 2017	0.0	1.047281664E9	2426.14404296875	0.0	2.5731072E7	0.0	4.0	9.68368128E8	42.63261795043945	1.0	1.0	1.061281792E9	1.050124288E9	0.0	0.0	0.0754999965429306	0.057500001043081284	0.04924999922513962	0.9922500252723694	0.7592107653617859	0.0	244.0	371.0	0.0	0.0	0.0	0.0	0.0	0.0	null	null	null	null	null	null	null	null	340.0	336.0	332.0	338.0	332.0	334.0	339.0	336.0	333.0	331.0	336.0	
Mon Jun 05 00:49:00 UTC 2017	0.0	1.047281664E9	3194.9736328125	0.0	2.5731072E7	0.0	3.0	9.68278016E8	49.374698638916016	1.0	0.0	1.061281792E9	1.050124288E9	0.0	0.0	0.07975000143051147	0.05350000038743019	0.05050000175833702	0.9922500252723694	0.7591961026191711	0.0	244.0	371.0	0.0	0.0	0.0	0.0	0.0	0.0	null	null	null	null	null	null	null	null	336.0	332.0	336.0	335.0	337.0	335.0	333.0	332.0	337.0	338.0	337.0	
Mon Jun 05 00:48:00 UTC 2017	0.0	1.047281664E9	2486.26806640625	0.0	2.5731072E7	0.0	2.0	9.68278016E8	45.32051467895508	0.0	0.0	1.061281792E9	1.051152384E9	0.0	0.0	0.06800000369548798	0.04975000023841858	0.04699999839067459	0.9919999837875366	0.7591760158538818	0.0	244.0	371.0	0.0	0.0	0.0	0.0	0.0	0.0	null	null	null	null	null	null	null	null	334.0	337.0	337.0	335.0	337.0	334.0	334.0	337.0	334.0	332.0	335.0	
Mon Jun 05 00:47:00 UTC 2017	0.0	1.047281664E9	2486.26806640625	0.0	2.5731072E7	0.0	4.0	9.68278016E8	45.32051467895508	0.0	0.0	1.061281792E9	1.051152384E9	0.0	0.0	0.07750000059604645	0.054499998688697815	0.04899999871850014	0.9919999837875366	0.7591779828071594	0.0	244.0	371.0	0.0	0.0	0.0	0.0	0.0	0.0	null	null	null	null	null	null	null	null	339.0	336.0	331.0	335.0	337.0	337.0	334.0	334.0	336.0	339.0	336.0	
Mon Jun 05 00:46:00 UTC 2017	0.0	1.047281664E9	2611.6728515625	0.0	2.5731072E7	0.0	2.0	9.68065024E8	45.32051467895508	0.0	0.0	1.061281792E9	1.050124288E9	0.0	0.0	0.06800000369548798	0.04625000059604645	0.04749999940395355	0.9919999837875366	0.7591593861579895	0.0	244.0	371.0	0.0	0.0	0.0	0.0	0.0	0.0	null	null	null	null	null	null	null	null	332.0	334.0	333.0	334.0	335.0	331.0	335.0	336.0	337.0	334.0	334.0	
Mon Jun 05 00:45:00 UTC 2017	0.0	1.047281664E9	2611.6728515625	0.0	2.5731072E7	0.0	3.0	9.68155136E8	45.32051467895508	0.0	0.0	1.061281792E9	1.050124288E9	0.0	0.0	0.08049999922513962	0.05575000122189522	0.04899999871850014	0.9922500252723694	0.7591403126716614	0.0	244.0	371.0	0.0	0.0	0.0	0.0	0.0	0.0	null	null	null	null	null	null	null	null	338.0	334.0	335.0	334.0	334.0	338.0	331.0	337.0	336.0	334.0	335.0	
Mon Jun 05 00:44:00 UTC 2017	0.0	1.047281664E9	2778.098388671875	0.0	2.5731072E7	0.0	2.0	9.68065024E8	45.32051467895508	0.0	0.0	1.061281792E9	1.051152384E9	0.0	0.0	0.0754999965429306	0.045249998569488525	0.04600000008940697	0.9919999837875366	0.7591378688812256	0.0	244.0	371.0	0.0	0.0	0.0	0.0	0.0	0.0	null	null	null	null	null	null	null	null	334.0	337.0	335.0	333.0	338.0	335.0	338.0	336.0	337.0	339.0	334.0	
Mon Jun 05 00:43:00 UTC 2017	0.0	1.047281664E9	2778.098388671875	0.0	2.5731072E7	0.0	2.0	9.68065024E8	63.955989837646484	0.0	0.0	1.061281792E9	1.050124288E9	0.0	0.0	0.07699999958276749	0.051750000566244125	0.04699999839067459	0.9922500252723694	0.7591246366500854	0.0	244.0	371.0	0.0	0.0	0.0	0.0	0.0	0.0	null	null	null	null	null	null	null	null	335.0	338.0	333.0	334.0	334.0	336.0	335.0	334.0	336.0	336.0	338.0	
Mon Jun 05 00:42:00 UTC 2017	0.0	1.047281664E9	2412.174560546875	0.0	2.5731072E7	0.0	2.0	9.68065024E8	47.19786834716797	0.0	0.0	1.061281792E9	1.050124288E9	0.0	0.0	0.07199999690055847	0.04924999922513962	0.04899999871850014	0.9919999837875366	0.7591046094894409	0.0	244.0	371.0	0.0	0.0	0.0	0.0	0.0	0.0	null	null	null	null	null	null	null	null	335.0	339.0	336.0	334.0	336.0	333.0	336.0	336.0	335.0	336.0	334.0	
Mon Jun 05 00:41:00 UTC 2017	0.0	1.047281664E9	2412.174560546875	0.0	2.5731072E7	0.0	5.0	9.67942144E8	47.19786834716797	0.0	0.0	1.061281792E9	1.050124288E9	0.0	0.0	0.09650000184774399	0.051500000059604645	0.050999999046325684	0.9925000071525574	0.7591006755828857	0.0	244.0	371.0	0.0	0.0	0.0	0.0	0.0	0.0	null	null	null	null	null	null	null	null	337.0	335.0	337.0	332.0	336.0	336.0	335.0	337.0	336.0	338.0	333.0	
Mon Jun 05 00:40:00 UTC 2017	0.0	1.047281664E9	2412.174560546875	0.0	2.5731072E7	0.0	4.0	9.67942144E8	47.19786834716797	0.0	0.0	1.061281792E9	1.050124288E9	0.0	0.0	0.07524999976158142	0.05225000157952309	0.0494999997317791	0.9922500252723694	0.7612676620483398	0.0	244.0	371.0	0.0	0.0	0.0	0.0	0.0	0.0	null	null	null	null	null	null	null	null	334.0	334.0	337.0	336.0	332.0	332.0	339.0	335.0	333.0	336.0	339.0	
Mon Jun 05 00:39:00 UTC 2017	0.0	1.047281664E9	2412.174560546875	0.0	2.5731072E7	0.0	2.0	9.67852032E8	49.4688720703125	0.0	0.0	1.061281792E9	1.051152384E9	0.0	0.0	0.07500000298023224	0.04675000160932541	0.04650000110268593	0.9919999837875366	0.7590820789337158	0.0	244.0	371.0	0.0	0.0	0.0	0.0	0.0	0.0	null	null	null	null	null	null	null	null	336.0	334.0	335.0	336.0	338.0	334.0	335.0	334.0	338.0	335.0	336.0	
Mon Jun 05 00:38:00 UTC 2017	0.0	1.047281664E9	2412.174560546875	0.0	2.5731072E7	0.0	2.0	9.67852032E8	46.131229400634766	0.0	0.0	1.061281792E9	1.051152384E9	0.0	null	0.07400000095367432	0.05400000140070915	0.04324999824166298	0.9919999837875366	0.7591569423675537	0.0	244.0	371.0	0.0	0.0	0.0	0.0	0.0	0.0	null	null	null	null	null	null	null	null	336.0	336.0	336.0	334.0	337.0	337.0	334.0	337.0	337.0	335.0	334.0	
Mon Jun 05 00:37:00 UTC 2017	0.0	1.047281664E9	2412.174560546875	0.0	2.5731072E7	0.0	3.0	9.67852032E8	46.131229400634766	0.0	0.0	1.061281792E9	1.051152384E9	0.0	null	0.0767500028014183	0.051750000566244125	0.048500001430511475	0.9919999837875366	0.7602803111076355	0.0	244.0	371.0	0.0	0.0	0.0	0.0	0.0	0.0	null	null	null	null	null	null	null	null	333.0	335.0	335.0	336.0	336.0	336.0	340.0	335.0	336.0	333.0	337.0	
Mon Jun 05 00:36:00 UTC 2017	0.0	1.047281664E9	2412.174560546875	0.0	2.5731072E7	0.0	2.0	9.67643136E8	46.131229400634766	0.0	0.0	1.061281792E9	1.050124288E9	0.0	0.0	0.07074999809265137	0.04324999824166298	0.048500001430511475	0.9919999837875366	0.7590698599815369	0.0	244.0	371.0	0.0	0.0	0.0	0.0	0.0	0.0	null	null	null	null	null	null	null	null	336.0	334.0	334.0	334.0	336.0	337.0	332.0	333.0	332.0	337.0	337.0	
Mon Jun 05 00:35:00 UTC 2017	0.0	1.047281664E9	2412.174560546875	0.0	2.5731072E7	0.0	2.0	9.67729152E8	46.131229400634766	0.0	0.0	1.061281792E9	1.051152384E9	0.0	0.0	0.07925000041723251	0.051750000566244125	0.04724999889731407	0.9919999837875366	0.7609613537788391	0.0	244.0	371.0	0.0	0.0	0.0	0.0	0.0	0.0	null	null	null	null	null	null	null	null	339.0	336.0	335.0	335.0	334.0	332.0	334.0	333.0	340.0	332.0	333.0	
Mon Jun 05 00:34:00 UTC 2017	0.0	1.047281664E9	3018.62744140625	0.0	2.5731072E7	0.0	2.0	9.6763904E8	49.375213623046875	0.0	0.0	1.061281792E9	1.051152384E9	0.0	0.0	0.07400000095367432	0.05375000089406967	0.04774999991059303	0.9919999837875366	0.7589622139930725	0.0	244.0	371.0	0.0	0.0	0.0	0.0	0.0	0.0	null	null	null	null	null	null	null	null	334.0	334.0	337.0	334.0	335.0	336.0	340.0	340.0	333.0	335.0	337.0	
Mon Jun 05 00:33:00 UTC 2017	0.0	1.047281664E9	2821.8564453125	0.0	2.5731072E7	0.0	2.0	9.6763904E8	49.375213623046875	0.0	0.0	1.061281792E9	1.051152384E9	0.0	0.0	0.07874999940395355	0.045249998569488525	0.052000001072883606	0.9919999837875366	0.7589651346206665	0.0	244.0	371.0	0.0	0.0	0.0	0.0	0.0	0.0	null	null	null	null	null	null	null	null	332.0	334.0	342.0	340.0	335.0	338.0	333.0	333.0	335.0	335.0	334.0	
Mon Jun 05 00:32:00 UTC 2017	0.0	1.047281664E9	2821.8564453125	0.0	2.5731072E7	0.0	2.0	9.6763904E8	55.15769958496094	0.0	0.0	1.061281792E9	1.051152384E9	0.0	0.0	0.0729999989271164	0.05375000089406967	0.04625000059604645	0.9919999837875366	0.758945107460022	0.0	244.0	371.0	0.0	0.0	0.0	0.0	0.0	0.0	null	null	null	null	null	null	null	null	336.0	335.0	335.0	335.0	333.0	332.0	336.0	334.0	336.0	336.0	336.0	
Mon Jun 05 00:31:00 UTC 2017	0.0	1.047281664E9	2821.8564453125	0.0	2.5731072E7	0.0	3.0	9.67520256E8	50.57194900512695	0.0	0.0	1.061281792E9	1.050124288E9	0.0	0.0	0.09324999898672104	0.04675000160932541	0.04924999922513962	0.9922500252723694	0.7589250206947327	0.0	244.0	371.0	0.0	0.0	0.0	0.0	0.0	0.0	null	null	null	null	null	null	null	null	335.0	335.0	334.0	331.0	337.0	340.0	334.0	332.0	334.0	336.0	333.0	
Mon Jun 05 00:30:00 UTC 2017	0.0	1.047281664E9	2821.8564453125	0.0	2.5731072E7	0.0	2.0	9.67520256E8	49.760955810546875	0.0	0.0	1.061281792E9	1.051152384E9	0.0	0.0	0.07325000315904617	0.05575000122189522	0.04699999839067459	0.9919999837875366	0.7588986158370972	0.0	244.0	371.0	0.0	0.0	0.0	0.0	0.0	0.0	null	null	null	null	null	null	null	null	335.0	332.0	332.0	337.0	333.0	332.0	337.0	336.0	334.0	335.0	335.0	
Mon Jun 05 00:29:00 UTC 2017	0.0	1.047281664E9	2973.654052734375	0.0	2.5731072E7	0.0	2.0	9.67430144E8	49.760955810546875	0.0	0.0	1.061281792E9	1.051152384E9	0.0	0.0	0.0742499977350235	0.04975000023841858	0.04874999821186066	0.9922500252723694	0.761177659034729	0.0	244.0	371.0	0.0	0.0	0.0	0.0	0.0	0.0	null	null	null	null	null	null	null	null	336.0	338.0	337.0	335.0	333.0	334.0	335.0	335.0	335.0	335.0	336.0	
Mon Jun 05 00:28:00 UTC 2017	0.0	1.047281664E9	2973.654052734375	0.0	2.5731072E7	0.0	2.0	9.67430144E8	45.331199645996094	0.0	0.0	1.061281792E9	1.051152384E9	0.0	0.0	0.0807500034570694	0.051500000059604645	0.04650000110268593	0.9922500252723694	0.7588829398155212	0.0	244.0	371.0	0.0	0.0	0.0	0.0	0.0	0.0	null	null	null	null	null	null	null	null	334.0	336.0	336.0	336.0	335.0	337.0	334.0	337.0	337.0	336.0	336.0	
Mon Jun 05 00:27:00 UTC 2017	0.0	1.047281664E9	2973.654052734375	0.0	2.5731072E7	0.0	3.0	9.67430144E8	40.419185638427734	0.0	1.0	1.061281792E9	1.051152384E9	0.0	0.0	0.07625000178813934	0.04975000023841858	0.05000000074505806	0.9915000200271606	0.759780764579773	0.0	244.0	371.0	0.0	0.0	0.0	0.0	0.0	0.0	null	null	null	null	null	null	null	null	337.0	333.0	336.0	337.0	335.0	336.0	333.0	332.0	335.0	334.0	336.0	
Mon Jun 05 00:26:00 UTC 2017	0.0	1.047281664E9	3200.992919921875	0.0	2.5731072E7	0.0	2.0	9.67217152E8	44.67136001586914	1.0	1.0	1.061281792E9	1.051152384E9	0.0	0.0	0.0729999989271164	0.05350000038743019	0.04749999940395355	0.9922500252723694	0.7588550448417664	0.0	244.0	371.0	0.0	0.0	0.0	0.0	0.0	0.0	null	null	null	null	null	null	null	null	332.0	335.0	336.0	335.0	337.0	335.0	337.0	336.0	336.0	334.0	334.0	
Mon Jun 05 00:25:00 UTC 2017	0.0	1.047281664E9	3200.992919921875	0.0	2.5731072E7	0.0	2.0	9.67307264E8	73.41423034667969	0.0	0.0	1.061281792E9	1.051152384E9	0.0	0.0	0.06849999725818634	0.05050000175833702	0.04574999958276749	0.9922500252723694	0.75883549451828	0.0	244.0	371.0	0.0	0.0	0.0	0.0	0.0	0.0	null	null	null	null	null	null	null	null	336.0	337.0	332.0	336.0	335.0	335.0	335.0	336.0	338.0	337.0	335.0	
Mon Jun 05 00:24:00 UTC 2017	0.0	1.047281664E9	2443.668212890625	0.0	2.5731072E7	0.0	3.0	9.67217152E8	50.42256164550781	0.0	0.0	1.061281792E9	1.051152384E9	0.0	0.0	0.0742499977350235	0.05299999937415123	0.05000000074505806	0.9919999837875366	0.7588183879852295	0.0	244.0	371.0	0.0	0.0	0.0	0.0	0.0	0.0	null	null	null	null	null	null	null	null	339.0	335.0	336.0	335.0	335.0	336.0	337.0	335.0	331.0	336.0	333.0	
Mon Jun 05 00:23:00 UTC 2017	0.0	1.047281664E9	2443.668212890625	0.0	2.5731072E7	0.0	4.0	9.67217152E8	42.12971115112305	0.0	0.0	1.061281792E9	1.050124288E9	0.0	null	0.07349999994039536	0.05000000074505806	0.04650000110268593	0.9917500019073486	0.7588594555854797	0.0	244.0	371.0	0.0	0.0	0.0	0.0	0.0	0.0	null	null	null	null	null	null	null	null	333.0	331.0	336.0	334.0	333.0	337.0	334.0	337.0	334.0	334.0	335.0	
Mon Jun 05 00:22:00 UTC 2017	0.0	1.047281664E9	3089.6396484375	0.0	2.5731072E7	0.0	4.0	9.67217152E8	42.12971115112305	0.0	0.0	1.061281792E9	1.050124288E9	0.0	null	0.07249999791383743	0.04724999889731407	0.04749999940395355	0.9919999837875366	0.7588413953781128	0.0	244.0	371.0	0.0	0.0	0.0	0.0	0.0	0.0	null	null	null	null	null	null	null	null	333.0	337.0	337.0	335.0	331.0	334.0	336.0	334.0	333.0	331.0	336.0	
Mon Jun 05 00:21:00 UTC 2017	0.0	1.047281664E9	3536.107421875	0.0	2.5731072E7	0.0	2.0	9.6698368E8	42.12971115112305	0.0	0.0	1.061281792E9	1.051152384E9	0.0	0.0	0.1042499989271164	0.054499998688697815	0.04724999889731407	0.9917500019073486	0.7588247060775757	0.0	244.0	371.0	0.0	0.0	0.0	0.0	0.0	0.0	null	null	null	null	null	null	null	null	336.0	333.0	333.0	335.0	337.0	337.0	335.0	333.0	338.0	336.0	336.0	
Mon Jun 05 00:20:00 UTC 2017	0.0	1.047281664E9	3536.107421875	0.0	2.5731072E7	0.0	2.0	9.67073792E8	42.12971115112305	0.0	0.0	1.061281792E9	1.050124288E9	0.0	0.0	0.06650000065565109	0.04625000059604645	0.0507499985396862	0.9919999837875366	0.7588237524032593	0.0	244.0	371.0	0.0	0.0	0.0	0.0	0.0	0.0	null	null	null	null	null	null	null	null	337.0	336.0	335.0	333.0	334.0	339.0	335.0	337.0	334.0	336.0	336.0	
Mon Jun 05 00:19:00 UTC 2017	0.0	1.047281664E9	3027.310302734375	0.0	2.5731072E7	0.0	2.0	9.6698368E8	42.12971115112305	0.0	0.0	1.061281792E9	1.051152384E9	0.0	0.0	0.08425000309944153	0.054249998182058334	0.05050000175833702	0.9919999837875366	0.75868821144104	0.0	244.0	371.0	0.0	0.0	0.0	0.0	0.0	0.0	null	null	null	null	null	null	null	null	334.0	332.0	334.0	337.0	335.0	333.0	336.0	336.0	331.0	336.0	334.0	
Mon Jun 05 00:18:00 UTC 2017	0.0	1.047281664E9	3027.310302734375	0.0	2.5731072E7	0.0	2.0	9.6698368E8	42.12971115112305	0.0	0.0	1.061281792E9	1.051152384E9	0.0	0.0	0.06674999743700027	0.04874999821186066	0.045249998569488525	0.9919999837875366	0.758653998374939	0.0	244.0	371.0	0.0	0.0	0.0	0.0	0.0	0.0	null	null	null	null	null	null	null	null	336.0	338.0	338.0	336.0	334.0	337.0	336.0	336.0	338.0	335.0	335.0	
Mon Jun 05 00:17:00 UTC 2017	0.0	1.047281664E9	2483.260498046875	0.0	2.5731072E7	0.0	2.0	9.6698368E8	38.665565490722656	0.0	0.0	1.061281792E9	1.051152384E9	0.0	0.0	0.08174999803304672	0.05225000157952309	0.04475000128149986	0.9919999837875366	0.7586373686790466	0.0	244.0	371.0	0.0	0.0	0.0	0.0	0.0	0.0	null	null	null	null	null	null	null	null	336.0	333.0	334.0	334.0	336.0	334.0	332.0	335.0	335.0	333.0	336.0	
Mon Jun 05 00:16:00 UTC 2017	0.0	1.047281664E9	3013.191162109375	0.0	2.5731072E7	0.0	7.0	9.66864896E8	41.84559631347656	0.0	0.0	1.061281792E9	1.050124288E9	0.0	0.0	0.07649999856948853	0.05025000125169754	0.05249999836087227	0.9917500019073486	0.7609599232673645	0.0	244.0	371.0	0.0	0.0	0.0	0.0	0.0	0.0	null	null	null	null	null	null	null	null	333.0	335.0	336.0	336.0	332.0	337.0	337.0	336.0	332.0	335.0	336.0	
Mon Jun 05 00:15:00 UTC 2017	0.0	1.047281664E9	3013.191162109375	0.0	2.5731072E7	0.0	3.0	9.66864896E8	36.666709899902344	0.0	0.0	1.061281792E9	1.050124288E9	0.0	0.0	0.06525000184774399	0.04600000008940697	0.048250000923871994	0.9919999837875366	0.7597866654396057	0.0	244.0	371.0	0.0	0.0	0.0	0.0	0.0	0.0	null	null	null	null	null	null	null	null	337.0	334.0	333.0	333.0	335.0	334.0	335.0	331.0	337.0	334.0	333.0	
Mon Jun 05 00:14:00 UTC 2017	0.0	1.047281664E9	3086.0087890625	0.0	2.5731072E7	0.0	2.0	9.66774784E8	36.666709899902344	0.0	0.0	1.061281792E9	1.050124288E9	0.0	0.0	0.07575000077486038	0.05274999886751175	0.04724999889731407	0.9915000200271606	0.7586373686790466	0.0	244.0	371.0	0.0	0.0	0.0	0.0	0.0	0.0	null	null	null	null	null	null	null	null	335.0	338.0	336.0	337.0	338.0	337.0	333.0	335.0	333.0	335.0	337.0	
Mon Jun 05 00:13:00 UTC 2017	0.0	1.047281664E9	3086.0087890625	0.0	2.5731072E7	0.0	6.0	9.66774784E8	36.666709899902344	0.0	1.0	1.061281792E9	1.051152384E9	0.0	0.0	0.07900000363588333	0.05525000020861626	0.048500001430511475	0.9917500019073486	0.7586324214935303	0.0	244.0	371.0	0.0	0.0	0.0	0.0	0.0	0.0	null	null	null	null	null	null	null	null	335.0	336.0	333.0	335.0	336.0	336.0	338.0	334.0	334.0	336.0	333.0	
Mon Jun 05 00:12:00 UTC 2017	0.0	1.047281664E9	3047.427978515625	0.0	2.5731072E7	0.0	3.0	9.66774784E8	36.666709899902344	1.0	1.0	1.061281792E9	1.051152384E9	0.0	0.0	0.07150000333786011	0.04699999839067459	0.04874999821186066	0.9919999837875366	0.7586157917976379	0.0	244.0	371.0	0.0	0.0	0.0	0.0	0.0	0.0	null	null	null	null	null	null	null	null	336.0	334.0	333.0	337.0	333.0	335.0	334.0	333.0	336.0	338.0	333.0	
Mon Jun 05 00:11:00 UTC 2017	0.0	1.047281664E9	3047.427978515625	0.0	2.5731072E7	0.0	4.0	9.66561792E8	36.666709899902344	0.0	0.0	1.061281792E9	1.051152384E9	0.0	0.0	0.10474999994039536	0.05700000002980232	0.04749999940395355	0.9917500019073486	0.7586026191711426	0.0	244.0	371.0	0.0	0.0	0.0	0.0	0.0	0.0	null	null	null	null	null	null	null	null	334.0	335.0	334.0	336.0	336.0	335.0	335.0	338.0	336.0	336.0	336.0	
Mon Jun 05 00:10:00 UTC 2017	0.0	1.047281664E9	2272.79052734375	0.0	2.5731072E7	0.0	7.0	9.66914048E8	36.666709899902344	0.0	0.0	1.061281792E9	1.051152384E9	0.0	null	0.07199999690055847	0.04800000041723251	0.0494999997317791	0.9917500019073486	0.7585982084274292	0.0	244.0	371.0	0.0	0.0	0.0	0.0	0.0	0.0	null	null	null	null	null	null	null	null	335.0	335.0	331.0	336.0	335.0	335.0	335.0	336.0	333.0	336.0	333.0	
Mon Jun 05 00:09:00 UTC 2017	0.0	1.047281664E9	2272.79052734375	0.0	2.5731072E7	0.0	2.0	9.6651264E8	48.11973571777344	0.0	0.0	1.061281792E9	1.050124288E9	0.0	null	0.06575000286102295	0.045499999076128006	0.04574999958276749	0.9917500019073486	0.7585825324058533	0.0	244.0	371.0	0.0	0.0	0.0	0.0	0.0	0.0	null	null	null	null	null	null	null	null	335.0	333.0	340.0	335.0	336.0	339.0	335.0	333.0	332.0	336.0	334.0	
Mon Jun 05 00:08:00 UTC 2017	0.0	1.047281664E9	2272.79052734375	0.0	2.5731072E7	0.0	2.0	9.6651264E8	62.96989059448242	0.0	0.0	1.061281792E9	1.051152384E9	0.0	null	0.08474999666213989	0.050999999046325684	0.048500001430511475	0.9922500252723694	0.758560061454773	0.0	244.0	371.0	0.0	0.0	0.0	0.0	0.0	0.0	null	null	null	null	null	null	null	null	339.0	339.0	338.0	333.0	336.0	332.0	334.0	336.0	339.0	333.0	338.0	
Mon Jun 05 00:07:00 UTC 2017	0.0	1.047281664E9	2272.79052734375	0.0	2.5731072E7	0.0	2.0	9.6651264E8	70.48712158203125	0.0	0.0	1.061281792E9	1.050124288E9	0.0	null	0.0729999989271164	0.04975000023841858	0.04899999871850014	0.9919999837875366	0.7585316300392151	0.0	244.0	371.0	0.0	0.0	0.0	0.0	0.0	0.0	null	null	null	null	null	null	null	null	332.0	335.0	337.0	338.0	335.0	335.0	338.0	335.0	332.0	333.0	333.0	
Mon Jun 05 00:06:00 UTC 2017	0.0	1.047281664E9	2625.38916015625	0.0	2.5731072E7	0.0	2.0	9.66299648E8	70.48712158203125	0.0	0.0	1.061281792E9	1.051152384E9	0.0	null	0.07575000077486038	0.05649999901652336	0.05025000125169754	0.9919999837875366	0.7591535449028015	0.0	244.0	371.0	0.0	0.0	0.0	0.0	0.0	0.0	null	null	null	null	null	null	null	null	335.0	336.0	334.0	332.0	335.0	340.0	332.0	336.0	336.0	334.0	338.0	
Mon Jun 05 00:05:00 UTC 2017	0.0	1.047281664E9	2378.128173828125	0.0	2.5731072E7	0.0	6.0	9.6638976E8	32.3227424621582	0.0	0.0	1.061281792E9	1.051152384E9	0.0	null	0.06849999725818634	0.04125000163912773	0.045499999076128006	0.9917500019073486	0.7584494352340698	0.0	244.0	371.0	0.0	0.0	0.0	0.0	0.0	0.0	null	null	null	null	null	null	null	null	338.0	335.0	338.0	338.0	337.0	332.0	335.0	333.0	334.0	334.0	335.0	
Mon Jun 05 00:04:00 UTC 2017	0.0	1.047281664E9	2378.128173828125	0.0	2.5731072E7	0.0	4.0	9.66299648E8	50.876590728759766	0.0	0.0	1.061281792E9	1.050124288E9	0.0	null	0.07000000029802322	0.05274999886751175	0.04675000160932541	0.9919999837875366	0.7584460377693176	0.0	244.0	371.0	0.0	0.0	0.0	0.0	0.0	0.0	null	null	null	null	null	null	null	null	337.0	335.0	333.0	337.0	333.0	338.0	334.0	339.0	335.0	336.0	336.0	
Mon Jun 05 00:03:00 UTC 2017	0.0	1.047281664E9	2378.128173828125	0.0	2.5731072E7	0.0	5.0	9.66299648E8	50.876590728759766	0.0	0.0	1.061281792E9	1.051152384E9	0.0	0.0	0.07275000214576721	0.05299999937415123	0.048500001430511475	0.9915000200271606	0.7585047483444214	0.0	244.0	371.0	0.0	0.0	0.0	0.0	0.0	0.0	null	null	null	null	null	null	null	null	333.0	340.0	337.0	335.0	335.0	333.0	340.0	335.0	335.0	334.0	335.0	
Mon Jun 05 00:02:00 UTC 2017	0.0	1.047281664E9	2378.128173828125	0.0	2.5731072E7	0.0	4.0	9.66299648E8	40.52803421020508	0.0	0.0	1.061281792E9	1.050124288E9	0.0	0.0	0.08500000089406967	0.04975000023841858	0.04699999839067459	0.9919999837875366	0.7584866285324097	0.0	244.0	371.0	0.0	0.0	0.0	0.0	0.0	0.0	null	null	null	null	null	null	null	null	335.0	336.0	334.0	332.0	339.0	337.0	335.0	332.0	336.0	334.0	332.0	
Mon Jun 05 00:01:00 UTC 2017	0.0	1.047281664E9	2378.128173828125	0.0	2.5731072E7	0.0	4.0	9.66090752E8	40.52803421020508	0.0	0.0	1.061281792E9	1.051152384E9	0.0	0.0	0.09200000017881393	0.04450000077486038	0.04924999922513962	0.9917500019073486	0.7607818245887756	0.0	244.0	371.0	0.0	0.0	0.0	0.0	0.0	0.0	null	null	null	null	null	null	null	null	334.0	334.0	334.0	334.0	334.0	333.0	336.0	336.0	333.0	336.0	336.0	
Mon Jun 05 00:00:00 UTC 2017	0.0	1.047281664E9	3683.4599609375	0.0	2.5731072E7	0.0	2.0	9.66209536E8	49.240535736083984	0.0	0.0	1.061281792E9	1.050124288E9	0.0	0.0	0.07175000011920929	0.054749999195337296	0.04975000023841858	0.9919999837875366	0.7584812641143799	0.0	244.0	371.0	0.0	0.0	0.0	0.0	0.0	0.0	null	null	null	null	null	null	null	null	335.0	333.0	332.0	335.0	334.0	335.0	336.0	335.0	338.0	334.0	335.0	
Sun Jun 04 23:59:00 UTC 2017	0.0	1.048293376E9	3683.4599609375	0.0	2.5731072E7	0.0	2.0	9.66119424E8	52.82518768310547	1.0	2.0	1.062293504E9	1.050124288E9	0.0	0.0	0.07999999821186066	0.054499998688697815	0.04699999839067459	0.9915000200271606	0.7584445476531982	0.0	244.0	371.0	0.0	0.0	0.0	0.0	0.0	0.0	null	null	null	null	null	null	null	null	335.0	339.0	336.0	337.0	335.0	336.0	333.0	336.0	332.0	335.0	339.0	
Sun Jun 04 23:58:00 UTC 2017	0.0	1.047281664E9	3683.4599609375	0.0	2.5731072E7	0.0	2.0	9.66119424E8	52.82518768310547	0.0	1.0	1.062293504E9	1.050124288E9	0.0	0.0	0.0807500034570694	0.05350000038743019	0.04724999889731407	0.9915000200271606	0.7584294080734253	0.0	244.0	371.0	0.0	0.0	0.0	0.0	0.0	0.0	null	null	null	null	null	null	null	null	332.0	332.0	333.0	338.0	338.0	338.0	338.0	335.0	336.0	335.0	333.0	
Sun Jun 04 23:57:00 UTC 2017	1.0	1.048293376E9	3683.4599609375	0.0	2.5731072E7	0.0	3.0	9.66119424E8	52.82518768310547	1.0	1.0	1.062293504E9	1.050124288E9	0.0	0.0	0.07400000095367432	0.052000001072883606	0.0494999997317791	0.9904999732971191	0.7607020735740662	0.0	244.0	371.0	0.0	0.0	0.0	0.0	0.0	0.0	null	null	null	null	null	null	null	null	331.0	338.0	334.0	334.0	331.0	334.0	332.0	333.0	337.0	336.0	334.0	
Sun Jun 04 23:56:00 UTC 2017	1.0	1.047281664E9	3683.4599609375	0.0	2.5731072E7	0.0	2.0	9.6600064E8	33.61381530761719	0.0	0.0	1.062293504E9	1.050124288E9	0.0	0.0	0.07225000113248825	0.045499999076128006	0.04675000160932541	0.9890000224113464	0.758356511592865	0.0	244.0	371.0	0.0	0.0	0.0	0.0	0.0	0.0	null	null	null	null	null	null	null	null	337.0	329.0	332.0	329.0	331.0	332.0	331.0	331.0	332.0	328.0	331.0	
Sun Jun 04 23:55:00 UTC 2017	1.0	1.048293376E9	3683.4599609375	0.0	2.5731072E7	0.0	2.0	9.6600064E8	49.88603210449219	0.0	0.0	1.061281792E9	1.050124288E9	0.0	0.0	0.07124999910593033	0.05225000157952309	0.04625000059604645	0.9915000200271606	0.7583075761795044	0.0	244.0	371.0	0.0	0.0	0.0	0.0	0.0	0.0	null	null	null	null	null	null	null	null	332.0	338.0	338.0	337.0	336.0	333.0	336.0	334.0	334.0	335.0	336.0	
Sun Jun 04 23:54:00 UTC 2017	0.0	1.048293376E9	2315.169921875	0.0	2.5731072E7	0.0	2.0	9.65910528E8	49.88603210449219	0.0	0.0	1.061281792E9	1.050124288E9	0.0	0.0	0.07450000196695328	0.050999999046325684	0.04899999871850014	0.9912499785423279	0.7582948803901672	0.0	244.0	371.0	0.0	0.0	0.0	0.0	0.0	0.0	null	null	null	null	null	null	null	null	335.0	334.0	332.0	332.0	334.0	339.0	337.0	334.0	334.0	337.0	333.0	
Sun Jun 04 23:53:00 UTC 2017	0.0	1.048293376E9	2715.9443359375	0.0	2.5731072E7	0.0	4.0	9.65910528E8	32.92927169799805	0.0	0.0	1.061281792E9	1.050124288E9	0.0	0.0	0.07800000160932541	0.05225000157952309	0.048250000923871994	0.9909999966621399	0.7605674862861633	0.0	244.0	371.0	0.0	0.0	0.0	0.0	0.0	0.0	null	null	null	null	null	null	null	null	336.0	333.0	335.0	333.0	336.0	331.0	330.0	336.0	336.0	338.0	337.0	
Sun Jun 04 23:52:00 UTC 2017	1.0	1.048293376E9	3295.22998046875	0.0	2.5731072E7	0.0	2.0	9.65910528E8	44.71048355102539	0.0	0.0	1.062293504E9	1.050124288E9	0.0	0.0	0.0689999982714653	0.05050000175833702	0.04800000041723251	0.9904999732971191	0.7582606077194214	0.0	244.0	371.0	0.0	0.0	0.0	0.0	0.0	0.0	null	null	null	null	null	null	null	null	332.0	334.0	335.0	336.0	335.0	333.0	333.0	336.0	332.0	334.0	334.0	
Sun Jun 04 23:51:00 UTC 2017	1.0	1.048293376E9	2872.2109375	0.0	2.5731072E7	0.0	2.0	9.65787648E8	44.71048355102539	0.0	0.0	1.062293504E9	1.050124288E9	0.0	0.0	0.09549999982118607	0.04874999821186066	0.05025000125169754	0.9887499809265137	0.7588711977005005	0.0	244.0	371.0	0.0	0.0	0.0	0.0	0.0	0.0	null	null	null	null	null	null	null	null	333.0	332.0	333.0	332.0	332.0	336.0	333.0	330.0	331.0	329.0	328.0	
Sun Jun 04 23:50:00 UTC 2017	1.0	1.047281664E9	2872.2109375	0.0	2.5731072E7	0.0	2.0	9.65787648E8	33.03543472290039	0.0	0.0	1.062293504E9	1.050124288E9	0.0	0.0	0.07450000196695328	0.054749999195337296	0.042750000953674316	0.9917500019073486	0.7582429647445679	0.0	244.0	371.0	0.0	0.0	0.0	0.0	0.0	0.0	null	null	null	null	null	null	null	null	335.0	335.0	332.0	332.0	333.0	334.0	332.0	335.0	338.0	335.0	336.0	
Sun Jun 04 23:49:00 UTC 2017	0.0	1.047281664E9	2407.288818359375	0.0	2.5731072E7	0.0	2.0	9.65697536E8	27.684772491455078	0.0	0.0	1.062293504E9	1.050124288E9	0.0	0.0	0.0729999989271164	0.04574999958276749	0.05050000175833702	0.9917500019073486	0.7605107426643372	0.0	244.0	371.0	0.0	0.0	0.0	0.0	0.0	0.0	null	null	null	null	null	null	null	null	335.0	332.0	335.0	334.0	336.0	336.0	335.0	336.0	335.0	337.0	332.0	
Sun Jun 04 23:48:00 UTC 2017	0.0	1.048293376E9	2407.288818359375	0.0	2.5731072E7	0.0	6.0	9.65697536E8	54.2789306640625	0.0	0.0	1.061281792E9	1.050124288E9	0.0	0.0	0.08150000125169754	0.054499998688697815	0.04874999821186066	0.9919999837875366	0.7582811713218689	0.0	244.0	371.0	0.0	0.0	0.0	0.0	0.0	0.0	null	null	null	null	null	null	null	null	335.0	336.0	334.0	336.0	335.0	333.0	337.0	335.0	336.0	335.0	337.0	
Sun Jun 04 23:47:00 UTC 2017	0.0	1.048293376E9	2680.399169921875	0.0	2.5731072E7	0.0	4.0	9.65697536E8	38.58637619018555	0.0	0.0	1.061281792E9	1.050124288E9	0.0	0.0	0.07750000059604645	0.05025000125169754	0.05000000074505806	0.9917500019073486	0.7582816481590271	0.0	244.0	371.0	0.0	0.0	0.0	0.0	0.0	0.0	null	null	null	null	null	null	null	null	336.0	337.0	335.0	336.0	337.0	336.0	334.0	338.0	335.0	335.0	335.0	
Sun Jun 04 23:46:00 UTC 2017	0.0	1.047281664E9	2680.399169921875	0.0	2.5731072E7	0.0	4.0	9.65484544E8	48.583534240722656	0.0	0.0	1.062293504E9	1.050124288E9	0.0	0.0	0.07000000029802322	0.05324999988079071	0.04574999958276749	0.9917500019073486	0.7582635283470154	0.0	244.0	371.0	0.0	0.0	0.0	0.0	0.0	0.0	null	null	null	null	null	null	null	null	337.0	336.0	335.0	331.0	336.0	336.0	333.0	332.0	337.0	334.0	332.0	
Sun Jun 04 23:45:00 UTC 2017	0.0	1.048293376E9	2680.399169921875	0.0	2.5731072E7	0.0	3.0	9.65574656E8	48.583534240722656	0.0	0.0	1.061281792E9	1.050124288E9	0.0	0.0	0.0729999989271164	0.04600000008940697	0.04774999991059303	0.9917500019073486	0.7582204937934875	0.0	244.0	371.0	0.0	0.0	0.0	0.0	0.0	0.0	null	null	null	null	null	null	null	null	335.0	331.0	335.0	335.0	335.0	334.0	335.0	339.0	332.0	339.0	338.0	
Sun Jun 04 23:44:00 UTC 2017	0.0	1.047281664E9	2680.399169921875	0.0	2.5731072E7	0.0	2.0	9.65484544E8	48.583534240722656	0.0	0.0	1.062293504E9	1.050124288E9	0.0	0.0	0.08025000244379044	0.052000001072883606	0.04774999991059303	0.9919999837875366	0.7604838609695435	0.0	244.0	371.0	0.0	0.0	0.0	0.0	0.0	0.0	null	null	null	null	null	null	null	null	337.0	337.0	338.0	336.0	335.0	337.0	334.0	332.0	338.0	332.0	332.0	
Sun Jun 04 23:43:00 UTC 2017	0.0	1.048293376E9	2680.399169921875	0.0	2.5731072E7	0.0	6.0	9.65484544E8	48.583534240722656	0.0	0.0	1.061281792E9	1.050124288E9	0.0	0.0	0.07225000113248825	0.04749999940395355	0.05025000125169754	0.9919999837875366	0.7581974864006042	0.0	244.0	371.0	0.0	0.0	0.0	0.0	0.0	0.0	null	null	null	null	null	null	null	null	337.0	335.0	333.0	338.0	335.0	331.0	339.0	335.0	332.0	333.0	336.0	
Sun Jun 04 23:42:00 UTC 2017	0.0	1.048293376E9	2624.804443359375	0.0	2.5731072E7	0.0	4.0	9.65484544E8	48.583534240722656	0.0	0.0	1.062293504E9	1.050124288E9	0.0	0.0	0.07450000196695328	0.054749999195337296	0.045249998569488525	0.9917500019073486	0.7581866979598999	0.0	244.0	371.0	0.0	0.0	0.0	0.0	0.0	0.0	null	null	null	null	null	null	null	null	333.0	338.0	335.0	334.0	337.0	338.0	331.0	338.0	335.0	336.0	336.0	
Sun Jun 04 23:41:00 UTC 2017	0.0	1.048293376E9	2724.10302734375	0.0	2.5731072E7	0.0	3.0	9.65275648E8	61.43578338623047	0.0	0.0	1.061281792E9	1.050124288E9	0.0	0.0	0.10599999874830246	0.05249999836087227	0.04774999991059303	0.9915000200271606	0.7581637501716614	0.0	244.0	371.0	0.0	0.0	0.0	0.0	0.0	0.0	null	null	null	null	null	null	null	null	334.0	331.0	333.0	336.0	334.0	334.0	333.0	334.0	336.0	336.0	333.0	
Sun Jun 04 23:40:00 UTC 2017	0.0	1.047281664E9	2724.10302734375	0.0	2.5731072E7	0.0	2.0	9.6536576E8	61.43578338623047	0.0	0.0	1.061281792E9	1.050124288E9	0.0	0.0	0.06949999928474426	0.05000000074505806	0.048250000923871994	0.9917500019073486	0.7604902386665344	0.0	244.0	371.0	0.0	0.0	0.0	0.0	0.0	0.0	null	null	null	null	null	null	null	null	338.0	339.0	336.0	333.0	334.0	333.0	332.0	337.0	335.0	332.0	335.0	
Sun Jun 04 23:39:00 UTC 2017	0.0	1.047281664E9	2535.386962890625	0.0	2.5731072E7	0.0	2.0	9.65275648E8	61.43578338623047	0.0	0.0	1.061281792E9	1.050124288E9	0.0	null	0.07400000095367432	0.051249999552965164	0.04774999991059303	0.9917500019073486	0.7581764459609985	0.0	244.0	371.0	0.0	0.0	0.0	0.0	0.0	0.0	null	null	null	null	null	null	null	null	336.0	333.0	336.0	334.0	337.0	331.0	336.0	333.0	333.0	332.0	334.0	
Sun Jun 04 23:38:00 UTC 2017	0.0	1.048293376E9	2535.386962890625	0.0	2.5731072E7	0.0	2.0	9.65275648E8	61.43578338623047	0.0	0.0	1.061281792E9	1.050124288E9	0.0	0.0	0.08699999749660492	0.04574999958276749	0.04374999925494194	0.9915000200271606	0.760451078414917	0.0	244.0	371.0	0.0	0.0	0.0	0.0	0.0	0.0	null	null	null	null	null	null	null	null	333.0	335.0	335.0	338.0	335.0	336.0	332.0	336.0	336.0	339.0	332.0	
Sun Jun 04 23:37:00 UTC 2017	0.0	1.048293376E9	3011.56591796875	0.0	2.5731072E7	0.0	2.0	9.65275648E8	43.29344177246094	0.0	0.0	1.061281792E9	1.050124288E9	0.0	0.0	0.0702499970793724	0.048500001430511475	0.04699999839067459	0.9915000200271606	0.7581695914268494	0.0	244.0	371.0	0.0	0.0	0.0	0.0	0.0	0.0	null	null	null	null	null	null	null	null	333.0	334.0	336.0	333.0	335.0	336.0	335.0	337.0	334.0	332.0	335.0	
Sun Jun 04 23:36:00 UTC 2017	0.0	1.047281664E9	3011.56591796875	0.0	2.5731072E7	0.0	2.0	9.65062656E8	43.29344177246094	0.0	0.0	1.062293504E9	1.050124288E9	0.0	0.0	0.07599999755620956	0.05274999886751175	0.048500001430511475	0.9917500019073486	0.7581427097320557	0.0	244.0	371.0	0.0	0.0	0.0	0.0	0.0	0.0	null	null	null	null	null	null	null	null	333.0	335.0	332.0	336.0	334.0	334.0	336.0	333.0	334.0	340.0	335.0	
Sun Jun 04 23:35:00 UTC 2017	0.0	1.048293376E9	3011.56591796875	0.0	2.5731072E7	0.0	2.0	9.65152768E8	43.29344177246094	0.0	0.0	1.062293504E9	1.050124288E9	0.0	0.0	0.07000000029802322	0.051249999552965164	0.04749999940395355	0.9919999837875366	0.7581397294998169	0.0	244.0	371.0	0.0	0.0	0.0	0.0	0.0	0.0	null	null	null	null	null	null	null	null	333.0	336.0	337.0	337.0	333.0	334.0	334.0	332.0	337.0	333.0	334.0	
Sun Jun 04 23:34:00 UTC 2017	0.0	1.047281664E9	3011.56591796875	0.0	2.5731072E7	0.0	5.0	9.65062656E8	37.720306396484375	0.0	0.0	1.061281792E9	1.050124288E9	0.0	0.0	0.0794999971985817	0.0507499985396862	0.04800000041723251	0.9919999837875366	0.7604119181632996	0.0	244.0	371.0	0.0	0.0	0.0	0.0	0.0	0.0	null	null	null	null	null	null	null	null	332.0	335.0	336.0	334.0	335.0	338.0	336.0	336.0	335.0	338.0	340.0	
Sun Jun 04 23:33:00 UTC 2017	0.0	1.048293376E9	3011.56591796875	0.0	2.5731072E7	0.0	4.0	9.65062656E8	40.09150314331055	1.0	1.0	1.061281792E9	1.050124288E9	0.0	0.0	0.07124999910593033	0.05674999952316284	0.05050000175833702	0.9919999837875366	0.7581069469451904	0.0	244.0	371.0	0.0	0.0	0.0	0.0	0.0	0.0	null	null	null	null	null	null	null	null	337.0	333.0	336.0	334.0	332.0	334.0	333.0	337.0	335.0	334.0	336.0	
Sun Jun 04 23:32:00 UTC 2017	0.0	1.048293376E9	2524.678955078125	0.0	2.5731072E7	0.0	2.0	9.65062656E8	59.20566940307617	0.0	0.0	1.061281792E9	1.050124288E9	0.0	0.0	0.07800000160932541	0.04774999991059303	0.04600000008940697	0.9919999837875366	0.7581055164337158	0.0	244.0	371.0	0.0	0.0	0.0	0.0	0.0	0.0	null	null	null	null	null	null	null	null	335.0	335.0	334.0	340.0	336.0	335.0	336.0	336.0	335.0	338.0	334.0	
Sun Jun 04 23:31:00 UTC 2017	0.0	1.048293376E9	2501.031982421875	0.0	2.5731072E7	0.0	2.0	9.64845568E8	59.20566940307617	0.0	0.0	1.062293504E9	1.050124288E9	0.0	0.0	0.1014999970793724	0.0507499985396862	0.0494999997317791	0.9917500019073486	0.7603806257247925	0.0	244.0	371.0	0.0	0.0	0.0	0.0	0.0	0.0	null	null	null	null	null	null	null	null	332.0	337.0	337.0	336.0	335.0	338.0	338.0	336.0	337.0	335.0	335.0	
Sun Jun 04 23:30:00 UTC 2017	0.0	1.048293376E9	3386.462158203125	0.0	2.5731072E7	0.0	2.0	9.6493568E8	44.90949249267578	0.0	0.0	1.061281792E9	1.050124288E9	0.0	0.0	0.08275000005960464	0.05324999988079071	0.04450000077486038	0.9917500019073486	0.7581338882446289	0.0	244.0	371.0	0.0	0.0	0.0	0.0	0.0	0.0	null	null	null	null	null	null	null	null	339.0	334.0	335.0	336.0	332.0	333.0	335.0	333.0	333.0	332.0	337.0	
Sun Jun 04 23:29:00 UTC 2017	0.0	1.047281664E9	3386.462158203125	0.0	2.5731072E7	0.0	3.0	9.64845568E8	44.90949249267578	0.0	0.0	1.061281792E9	1.050124288E9	0.0	0.0	0.07325000315904617	0.04450000077486038	0.04874999821186066	0.9917500019073486	0.7580262422561646	0.0	244.0	371.0	0.0	0.0	0.0	0.0	0.0	0.0	null	null	null	null	null	null	null	null	336.0	332.0	334.0	334.0	334.0	333.0	335.0	337.0	337.0	334.0	333.0	
Sun Jun 04 23:28:00 UTC 2017	0.0	1.047281664E9	2563.902099609375	0.0	2.5731072E7	0.0	3.0	9.64845568E8	44.90949249267578	0.0	0.0	1.062293504E9	1.050124288E9	0.0	0.0	0.07599999755620956	0.051750000566244125	0.04975000023841858	0.9919999837875366	0.7580291628837585	0.0	244.0	371.0	0.0	0.0	0.0	0.0	0.0	0.0	null	null	null	null	null	null	null	null	335.0	335.0	334.0	337.0	334.0	338.0	335.0	334.0	335.0	339.0	337.0	
Sun Jun 04 23:27:00 UTC 2017	0.0	1.047281664E9	2886.48828125	0.0	2.5731072E7	0.0	6.0	9.64845568E8	43.599082946777344	0.0	0.0	1.062293504E9	1.050124288E9	0.0	null	0.06499999761581421	0.051750000566244125	0.05025000125169754	0.9917500019073486	0.758012056350708	0.0	244.0	371.0	0.0	0.0	0.0	0.0	0.0	0.0	null	null	null	null	null	null	null	null	332.0	334.0	338.0	332.0	336.0	335.0	338.0	336.0	335.0	337.0	332.0	
Sun Jun 04 23:26:00 UTC 2017	0.0	1.047281664E9	2995.668212890625	0.0	2.5731072E7	0.0	3.0	9.64636672E8	43.599082946777344	1.0	0.0	1.061281792E9	1.050124288E9	0.0	null	0.07824999839067459	0.057999998331069946	0.04600000008940697	0.9915000200271606	0.7585585713386536	0.0	244.0	371.0	0.0	0.0	0.0	0.0	0.0	0.0	null	null	null	null	null	null	null	null	337.0	332.0	336.0	335.0	336.0	333.0	332.0	338.0	335.0	334.0	336.0	
Sun Jun 04 23:25:00 UTC 2017	0.0	1.048293376E9	2995.668212890625	0.0	2.5731072E7	0.0	7.0	9.64726784E8	43.599082946777344	2.0	1.0	1.062293504E9	1.050124288E9	0.0	null	0.07100000232458115	0.0507499985396862	0.05225000157952309	0.9919999837875366	0.7591197490692139	0.0	244.0	371.0	0.0	0.0	0.0	0.0	0.0	0.0	null	null	null	null	null	null	null	null	330.0	337.0	339.0	335.0	331.0	335.0	340.0	335.0	337.0	334.0	338.0	
Sun Jun 04 23:24:00 UTC 2017	0.0	1.048293376E9	2444.1865234375	0.0	2.5731072E7	0.0	3.0	9.64636672E8	51.693912506103516	0.0	0.0	1.061281792E9	1.050124288E9	0.0	null	0.07824999839067459	0.05375000089406967	0.04874999821186066	0.9919999837875366	0.7600826621055603	0.0	244.0	371.0	0.0	0.0	0.0	0.0	0.0	0.0	null	null	null	null	null	null	null	null	335.0	333.0	335.0	334.0	336.0	334.0	332.0	333.0	334.0	333.0	336.0	
Sun Jun 04 23:23:00 UTC 2017	0.0	1.047281664E9	2444.1865234375	0.0	2.5731072E7	0.0	2.0	9.64636672E8	56.02242660522461	0.0	0.0	1.061281792E9	1.050124288E9	0.0	0.0	0.07074999809265137	0.048250000923871994	0.04724999889731407	0.9919999837875366	0.7579019665718079	0.0	244.0	371.0	0.0	0.0	0.0	0.0	0.0	0.0	null	null	null	null	null	null	null	null	335.0	338.0	336.0	332.0	336.0	338.0	341.0	338.0	337.0	338.0	338.0	
Sun Jun 04 23:22:00 UTC 2017	0.0	1.047281664E9	2794.703125	0.0	2.5731072E7	0.0	2.0	9.64636672E8	56.02242660522461	1.0	1.0	1.062293504E9	1.050124288E9	0.0	0.0	0.07575000077486038	0.05050000175833702	0.04574999958276749	0.9919999837875366	0.7579010128974915	0.0	244.0	371.0	0.0	0.0	0.0	0.0	0.0	0.0	null	null	null	null	null	null	null	null	336.0	334.0	332.0	339.0	336.0	335.0	332.0	332.0	335.0	335.0	334.0	
Sun Jun 04 23:21:00 UTC 2017	0.0	1.047281664E9	2666.194580078125	0.0	2.5731072E7	0.0	2.0	9.6442368E8	48.92195129394531	1.0	2.0	1.062293504E9	1.050124288E9	0.0	0.0	0.1054999977350235	0.057999998331069946	0.051750000566244125	0.9922500252723694	0.757868230342865	0.0	244.0	371.0	0.0	0.0	0.0	0.0	0.0	0.0	null	null	null	null	null	null	null	null	334.0	335.0	336.0	335.0	335.0	335.0	338.0	337.0	334.0	333.0	335.0	
Sun Jun 04 23:20:00 UTC 2017	0.0	1.047281664E9	2247.3056640625	0.0	2.5731072E7	0.0	2.0	9.64513792E8	38.34447479248047	0.0	0.0	1.062293504E9	1.050124288E9	0.0	0.0	0.06650000065565109	0.04625000059604645	0.048500001430511475	0.9922500252723694	0.7601271867752075	0.0	244.0	371.0	0.0	0.0	0.0	0.0	0.0	0.0	null	null	null	null	null	null	null	null	336.0	337.0	334.0	340.0	334.0	335.0	333.0	333.0	337.0	336.0	337.0	
Sun Jun 04 23:19:00 UTC 2017	0.0	1.048293376E9	2247.3056640625	0.0	2.5731072E7	0.0	2.0	9.6442368E8	38.34447479248047	0.0	0.0	1.061281792E9	1.050124288E9	0.0	0.0	0.07575000077486038	0.05400000140070915	0.041999999433755875	0.9919999837875366	0.757821261882782	0.0	244.0	371.0	0.0	0.0	0.0	0.0	0.0	0.0	null	null	null	null	null	null	null	null	336.0	334.0	339.0	334.0	336.0	338.0	333.0	337.0	334.0	335.0	335.0	
Sun Jun 04 23:18:00 UTC 2017	0.0	1.047281664E9	2247.3056640625	0.0	2.5731072E7	0.0	3.0	9.6442368E8	39.565792083740234	0.0	0.0	1.061281792E9	1.050124288E9	0.0	0.0	0.07599999755620956	0.04874999821186066	0.05000000074505806	0.9919999837875366	0.7591511011123657	0.0	244.0	371.0	0.0	0.0	0.0	0.0	0.0	0.0	null	null	null	null	null	null	null	null	337.0	336.0	337.0	338.0	336.0	333.0	338.0	336.0	335.0	339.0	332.0	
Sun Jun 04 23:17:00 UTC 2017	0.0	1.048293376E9	2247.3056640625	0.0	2.5731072E7	0.0	4.0	9.6442368E8	39.565792083740234	0.0	0.0	1.062293504E9	1.050124288E9	0.0	0.0	0.07074999809265137	0.05375000089406967	0.0507499985396862	0.9919999837875366	0.7597509026527405	0.0	244.0	371.0	0.0	0.0	0.0	0.0	0.0	0.0	null	null	null	null	null	null	null	null	335.0	336.0	330.0	334.0	334.0	335.0	333.0	334.0	336.0	334.0	335.0	
Sun Jun 04 23:16:00 UTC 2017	0.0	1.048293376E9	2711.104736328125	0.0	2.5731072E7	0.0	4.0	9.64210688E8	39.565792083740234	0.0	0.0	1.062293504E9	1.050124288E9	0.0	0.0	0.07649999856948853	0.04650000110268593	0.04500000178813934	0.9917500019073486	0.7577674388885498	0.0	244.0	371.0	0.0	0.0	0.0	0.0	0.0	0.0	null	null	null	null	null	null	null	null	336.0	335.0	336.0	336.0	331.0	336.0	336.0	337.0	336.0	337.0	337.0	
Sun Jun 04 23:15:00 UTC 2017	0.0	1.047281664E9	2711.104736328125	0.0	2.5731072E7	0.0	3.0	9.643008E8	39.565792083740234	0.0	0.0	1.061281792E9	1.050124288E9	0.0	0.0	0.06875000149011612	0.04874999821186066	0.051750000566244125	0.9917500019073486	0.7578197717666626	0.0	244.0	371.0	0.0	0.0	0.0	0.0	0.0	0.0	null	null	null	null	null	null	null	null	333.0	335.0	337.0	337.0	334.0	333.0	332.0	333.0	336.0	334.0	329.0	
Sun Jun 04 23:14:00 UTC 2017	0.0	1.048293376E9	2711.104736328125	0.0	2.5731072E7	0.0	2.0	9.64210688E8	39.565792083740234	0.0	0.0	1.061281792E9	1.050124288E9	0.0	0.0	0.07474999874830246	0.057500001043081284	0.04749999940395355	0.9919999837875366	0.7577478289604187	0.0	244.0	371.0	0.0	0.0	0.0	0.0	0.0	0.0	null	null	null	null	null	null	null	null	336.0	334.0	333.0	335.0	336.0	337.0	335.0	337.0	331.0	338.0	336.0	
Sun Jun 04 23:13:00 UTC 2017	0.0	1.048293376E9	2352.517578125	0.0	2.5731072E7	0.0	2.0	9.64210688E8	63.4727783203125	1.0	0.0	1.061281792E9	1.050124288E9	0.0	0.0	0.0832500010728836	0.05050000175833702	0.04574999958276749	0.9919999837875366	0.7577062845230103	0.0	244.0	371.0	0.0	0.0	0.0	0.0	0.0	0.0	null	null	null	null	null	null	null	null	334.0	335.0	336.0	336.0	331.0	334.0	338.0	336.0	337.0	332.0	338.0	
Sun Jun 04 23:12:00 UTC 2017	0.0	1.048293376E9	2808.21728515625	0.0	2.5731072E7	0.0	2.0	9.64210688E8	51.99219512939453	0.0	0.0	1.062293504E9	1.050124288E9	0.0	0.0	0.06424999982118607	0.04874999821186066	0.048250000923871994	0.9919999837875366	0.7576910853385925	0.0	244.0	371.0	0.0	0.0	0.0	0.0	0.0	0.0	null	null	null	null	null	null	null	null	334.0	337.0	339.0	337.0	336.0	334.0	337.0	337.0	333.0	334.0	335.0	
Sun Jun 04 23:11:00 UTC 2017	0.0	1.048293376E9	2854.876220703125	0.0	2.5731072E7	0.0	2.0	9.64354048E8	48.65818405151367	0.0	0.0	1.061281792E9	1.050124288E9	0.0	0.0	0.10125000029802322	0.04874999821186066	0.05025000125169754	0.9919999837875366	0.7576910853385925	0.0	244.0	371.0	0.0	0.0	0.0	0.0	0.0	0.0	null	null	null	null	null	null	null	null	334.0	335.0	330.0	334.0	338.0	335.0	336.0	333.0	336.0	336.0	337.0	
Sun Jun 04 23:10:00 UTC 2017	0.0	1.048293376E9	2453.0185546875	0.0	2.5731072E7	0.0	4.0	9.64354048E8	48.65818405151367	0.0	0.0	1.061281792E9	1.050124288E9	0.0	0.0	0.08275000005960464	0.054249998182058334	0.04500000178813934	0.9917500019073486	0.7576563358306885	0.0	244.0	371.0	0.0	0.0	0.0	0.0	0.0	0.0	null	null	null	null	null	null	null	null	334.0	333.0	333.0	334.0	333.0	335.0	330.0	335.0	334.0	336.0	333.0	
Sun Jun 04 23:09:00 UTC 2017	0.0	1.047281664E9	2453.0185546875	0.0	2.5731072E7	0.0	2.0	9.64059136E8	38.5823974609375	0.0	0.0	1.061281792E9	1.050124288E9	0.0	0.0	0.07050000131130219	0.04800000041723251	0.04574999958276749	0.9917500019073486	0.7576030492782593	0.0	244.0	371.0	0.0	0.0	0.0	0.0	0.0	0.0	null	null	null	null	null	null	null	null	337.0	335.0	332.0	336.0	333.0	335.0	339.0	336.0	339.0	339.0	337.0	
Sun Jun 04 23:08:00 UTC 2017	0.0	1.048293376E9	2453.0185546875	0.0	2.5731072E7	0.0	2.0	9.64059136E8	38.5823974609375	0.0	0.0	1.062293504E9	1.050124288E9	0.0	0.0	0.07724999636411667	0.0494999997317791	0.05000000074505806	0.9915000200271606	0.7575986385345459	0.0	244.0	371.0	0.0	0.0	0.0	0.0	0.0	0.0	null	null	null	null	null	null	null	null	335.0	335.0	335.0	336.0	339.0	332.0	332.0	333.0	330.0	332.0	334.0	
Sun Jun 04 23:07:00 UTC 2017	0.0	1.047281664E9	2453.0185546875	0.0	2.5731072E7	0.0	2.0	9.64059136E8	79.64730834960938	0.0	0.0	1.061281792E9	1.050124288E9	0.0	0.0	0.0767500028014183	0.054749999195337296	0.04600000008940697	0.9915000200271606	0.757580041885376	0.0	244.0	371.0	0.0	0.0	0.0	0.0	0.0	0.0	null	null	null	null	null	null	null	null	335.0	331.0	335.0	333.0	333.0	337.0	336.0	335.0	337.0	337.0	335.0	
Sun Jun 04 23:06:00 UTC 2017	0.0	1.047281664E9	2760.835205078125	0.0	2.5731072E7	0.0	4.0	9.6385024E8	68.7052230834961	0.0	1.0	1.062293504E9	1.050124288E9	0.0	0.0	0.07800000160932541	0.05225000157952309	0.051500000059604645	0.9917500019073486	0.7575648427009583	0.0	244.0	371.0	0.0	0.0	0.0	0.0	0.0	0.0	null	null	null	null	null	null	null	null	336.0	333.0	335.0	338.0	336.0	334.0	334.0	333.0	333.0	335.0	336.0	
Sun Jun 04 23:05:00 UTC 2017	0.0	1.048293376E9	2760.835205078125	0.0	2.5731072E7	0.0	3.0	9.63940352E8	68.7052230834961	1.0	1.0	1.061281792E9	1.050124288E9	0.0	0.0	0.06849999725818634	0.054249998182058334	0.04800000041723251	0.9919999837875366	0.7575682997703552	0.0	244.0	371.0	0.0	0.0	0.0	0.0	0.0	0.0	null	null	null	null	null	null	null	null	337.0	336.0	336.0	334.0	336.0	333.0	335.0	339.0	337.0	332.0	338.0	
Sun Jun 04 23:04:00 UTC 2017	0.0	1.048293376E9	3050.5869140625	0.0	2.5731072E7	0.0	3.0	9.6385024E8	68.7052230834961	1.0	1.0	1.061281792E9	1.050124288E9	0.0	0.0	0.07249999791383743	0.05700000002980232	0.042750000953674316	0.9919999837875366	0.7582249045372009	0.0	244.0	371.0	0.0	0.0	0.0	0.0	0.0	0.0	null	null	null	null	null	null	null	null	337.0	332.0	333.0	336.0	335.0	335.0	335.0	331.0	335.0	333.0	335.0	
Sun Jun 04 23:03:00 UTC 2017	0.0	1.048293376E9	2446.283203125	0.0	2.5731072E7	0.0	2.0	9.6385024E8	55.0477294921875	0.0	0.0	1.062293504E9	1.050124288E9	0.0	0.0	0.08100000023841858	0.04699999839067459	0.052000001072883606	0.9919999837875366	0.7575257420539856	0.0	244.0	371.0	0.0	0.0	0.0	0.0	0.0	0.0	null	null	null	null	null	null	null	null	334.0	337.0	335.0	334.0	336.0	336.0	334.0	336.0	336.0	338.0	333.0	
Sun Jun 04 23:02:00 UTC 2017	0.0	1.047281664E9	2446.283203125	0.0	2.5731072E7	0.0	2.0	9.6385024E8	55.0477294921875	0.0	0.0	1.062293504E9	1.050124288E9	0.0	0.0	0.0677499994635582	0.05274999886751175	0.04450000077486038	0.9919999837875366	0.7597973942756653	0.0	244.0	371.0	0.0	0.0	0.0	0.0	0.0	0.0	null	null	null	null	null	null	null	null	333.0	332.0	335.0	336.0	334.0	334.0	333.0	335.0	335.0	337.0	336.0	
Sun Jun 04 23:01:00 UTC 2017	0.0	1.047281664E9	2223.867431640625	0.0	2.5731072E7	0.0	2.0	9.6372736E8	55.0477294921875	0.0	0.0	1.062293504E9	1.050124288E9	0.0	null	0.09324999898672104	0.04724999889731407	0.04450000077486038	0.9915000200271606	0.7576304078102112	0.0	244.0	371.0	0.0	0.0	0.0	0.0	0.0	0.0	null	null	null	null	null	null	null	null	334.0	334.0	334.0	332.0	333.0	338.0	338.0	336.0	332.0	334.0	333.0	
Sun Jun 04 23:00:00 UTC 2017	0.0	1.048293376E9	2223.867431640625	0.0	2.5731072E7	0.0	2.0	9.6372736E8	50.38396072387695	0.0	0.0	1.061281792E9	1.050124288E9	0.0	null	0.07750000059604645	0.0494999997317791	0.052000001072883606	0.9919999837875366	0.7576133012771606	0.0	244.0	371.0	0.0	0.0	0.0	0.0	0.0	0.0	null	null	null	null	null	null	null	null	337.0	336.0	334.0	334.0	334.0	332.0	331.0	335.0	339.0	335.0	339.0	
Sun Jun 04 22:59:00 UTC 2017	0.0	1.047281664E9	2223.867431640625	0.0	2.5731072E7	0.0	3.0	9.63637248E8	50.38396072387695	0.0	1.0	1.061281792E9	1.050124288E9	0.0	null	0.07524999976158142	0.051750000566244125	0.05000000074505806	0.9917500019073486	0.7575956583023071	0.0	244.0	371.0	0.0	0.0	0.0	0.0	0.0	0.0	null	null	null	null	null	null	null	null	335.0	338.0	337.0	336.0	337.0	334.0	334.0	333.0	334.0	334.0	333.0	
Sun Jun 04 22:58:00 UTC 2017	0.0	1.047281664E9	2584.4482421875	0.0	2.5731072E7	0.0	2.0	9.63637248E8	50.38396072387695	0.0	0.0	1.061281792E9	1.050124288E9	0.0	null	0.0767500028014183	0.0507499985396862	0.04975000023841858	0.9922500252723694	0.7598781585693359	0.0	244.0	371.0	0.0	0.0	0.0	0.0	0.0	0.0	null	null	null	null	null	null	null	null	334.0	337.0	335.0	339.0	337.0	334.0	335.0	339.0	338.0	336.0	334.0	
Sun Jun 04 22:57:00 UTC 2017	0.0	1.047281664E9	2915.032470703125	0.0	2.5731072E7	0.0	3.0	9.63637248E8	50.38396072387695	0.0	0.0	1.061281792E9	1.050124288E9	0.0	0.0	0.06925000250339508	0.054249998182058334	0.04475000128149986	0.9922500252723694	0.7598336338996887	0.0	244.0	371.0	0.0	0.0	0.0	0.0	0.0	0.0	null	null	null	null	null	null	null	null	337.0	337.0	333.0	336.0	332.0	338.0	335.0	336.0	333.0	336.0	335.0	
Sun Jun 04 22:56:00 UTC 2017	0.0	1.048293376E9	2915.032470703125	0.0	2.5731072E7	0.0	4.0	9.63424256E8	50.41818618774414	0.0	0.0	1.062293504E9	1.050124288E9	0.0	0.0	0.08299999684095383	0.05350000038743019	0.050999999046325684	0.9917500019073486	0.7587214708328247	0.0	244.0	371.0	0.0	0.0	0.0	0.0	0.0	0.0	null	null	null	null	null	null	null	null	332.0	332.0	334.0	331.0	335.0	331.0	333.0	335.0	334.0	331.0	339.0	
Sun Jun 04 22:55:00 UTC 2017	0.0	1.047281664E9	2915.032470703125	0.0	2.5731072E7	0.0	4.0	9.63514368E8	42.6979866027832	1.0	0.0	1.061281792E9	1.050124288E9	0.0	0.0	0.06674999743700027	0.05350000038743019	0.04800000041723251	0.9922500252723694	0.7575247287750244	0.0	244.0	371.0	0.0	0.0	0.0	0.0	0.0	0.0	null	null	null	null	null	null	null	null	335.0	338.0	339.0	336.0	335.0	339.0	334.0	336.0	340.0	341.0	335.0	
Sun Jun 04 22:54:00 UTC 2017	0.0	1.048293376E9	2915.032470703125	0.0	2.5731072E7	0.0	4.0	9.63424256E8	42.6979866027832	0.0	0.0	1.061281792E9	1.050124288E9	0.0	0.0	0.08749999850988388	0.04749999940395355	0.04625000059604645	0.9919999837875366	0.7575105428695679	0.0	244.0	371.0	0.0	0.0	0.0	0.0	0.0	0.0	null	null	null	null	null	null	null	null	338.0	331.0	333.0	335.0	335.0	335.0	335.0	334.0	334.0	335.0	335.0	
Sun Jun 04 22:53:00 UTC 2017	0.0	1.048293376E9	2853.80859375	0.0	2.5731072E7	0.0	2.0	9.63424256E8	42.6979866027832	0.0	0.0	1.062293504E9	1.050124288E9	0.0	0.0	0.06174999848008156	0.04924999922513962	0.05000000074505806	0.9919999837875366	0.7574679851531982	0.0	244.0	371.0	0.0	0.0	0.0	0.0	0.0	0.0	null	null	null	null	null	null	null	null	335.0	339.0	331.0	335.0	333.0	335.0	337.0	334.0	335.0	336.0	332.0	
Sun Jun 04 22:52:00 UTC 2017	0.0	1.047281664E9	2853.80859375	0.0	2.5731072E7	0.0	3.0	9.63424256E8	42.6979866027832	0.0	0.0	1.061281792E9	1.050124288E9	0.0	0.0	0.07774999737739563	0.0560000017285347	0.04675000160932541	0.9922500252723694	0.757438600063324	0.0	244.0	371.0	0.0	0.0	0.0	0.0	0.0	0.0	null	null	null	null	null	null	null	null	338.0	331.0	338.0	337.0	337.0	336.0	335.0	336.0	333.0	332.0	337.0	
Sun Jun 04 22:51:00 UTC 2017	0.0	1.048293376E9	2853.80859375	0.0	2.5731072E7	0.0	2.0	9.6321536E8	42.6979866027832	0.0	0.0	1.061281792E9	1.050124288E9	0.0	0.0	0.09799999743700027	0.051750000566244125	0.04774999991059303	0.9917500019073486	0.7574219703674316	0.0	244.0	371.0	0.0	0.0	0.0	0.0	0.0	0.0	null	null	null	null	null	null	null	null	335.0	335.0	333.0	336.0	333.0	333.0	336.0	336.0	336.0	336.0	337.0	
Sun Jun 04 22:50:00 UTC 2017	0.0	1.048293376E9	2274.663818359375	0.0	2.5731072E7	0.0	3.0	9.63305472E8	54.95390319824219	0.0	0.0	1.061281792E9	1.050124288E9	0.0	null	0.0702499970793724	0.045249998569488525	0.0494999997317791	0.9917500019073486	0.7574033737182617	0.0	244.0	371.0	0.0	0.0	0.0	0.0	0.0	0.0	null	null	null	null	null	null	null	null	331.0	334.0	339.0	334.0	338.0	334.0	332.0	337.0	332.0	337.0	334.0	
Sun Jun 04 22:49:00 UTC 2017	0.0	1.047281664E9	2274.663818359375	0.0	2.5731072E7	0.0	2.0	9.6321536E8	39.9166145324707	0.0	1.0	1.062293504E9	1.050124288E9	0.0	null	0.08375000208616257	0.054999999701976776	0.048500001430511475	0.9919999837875366	0.7574058175086975	0.0	244.0	371.0	0.0	0.0	0.0	0.0	0.0	0.0	null	null	null	null	null	null	null	null	338.0	336.0	332.0	337.0	335.0	339.0	337.0	333.0	335.0	335.0	334.0	
Sun Jun 04 22:48:00 UTC 2017	0.0	1.047281664E9	2262.16259765625	0.0	2.5731072E7	0.0	2.0	9.6321536E8	39.9166145324707	0.0	0.0	1.062293504E9	1.050124288E9	0.0	0.0	0.06400000303983688	0.04800000041723251	0.04924999922513962	0.9919999837875366	0.757385790348053	0.0	244.0	371.0	0.0	0.0	0.0	0.0	0.0	0.0	null	null	null	null	null	null	null	null	330.0	337.0	333.0	338.0	334.0	333.0	335.0	336.0	336.0	337.0	336.0	
Sun Jun 04 22:47:00 UTC 2017	0.0	1.048293376E9	2262.16259765625	0.0	2.5731072E7	0.0	2.0	9.6321536E8	42.81699752807617	0.0	0.0	1.061281792E9	1.050124288E9	0.0	0.0	0.0832500010728836	0.05000000074505806	0.048250000923871994	0.9917500019073486	0.7573755383491516	0.0	244.0	371.0	0.0	0.0	0.0	0.0	0.0	0.0	null	null	null	null	null	null	null	null	335.0	337.0	339.0	331.0	339.0	330.0	337.0	333.0	335.0	338.0	334.0	
Sun Jun 04 22:46:00 UTC 2017	0.0	1.048293376E9	2629.5703125	0.0	2.5731072E7	0.0	4.0	9.63002368E8	37.47671127319336	0.0	0.0	1.061281792E9	1.050124288E9	0.0	null	0.06750000268220901	0.05324999988079071	0.04724999889731407	0.9917500019073486	0.7573745250701904	0.0	244.0	371.0	0.0	0.0	0.0	0.0	0.0	0.0	null	null	null	null	null	null	null	null	334.0	336.0	336.0	337.0	333.0	335.0	338.0	335.0	334.0	335.0	335.0	
Sun Jun 04 22:45:00 UTC 2017	0.0	1.047281664E9	2629.5703125	0.0	2.5731072E7	0.0	2.0	9.6309248E8	37.47671127319336	0.0	0.0	1.062293504E9	1.050124288E9	0.0	null	0.07649999856948853	0.050999999046325684	0.0507499985396862	0.9919999837875366	0.7596525549888611	0.0	244.0	371.0	0.0	0.0	0.0	0.0	0.0	0.0	null	null	null	null	null	null	null	null	339.0	337.0	331.0	336.0	337.0	336.0	333.0	333.0	341.0	332.0	332.0	
Sun Jun 04 22:44:00 UTC 2017	0.0	1.047281664E9	2457.28369140625	0.0	2.5731072E7	0.0	2.0	9.63002368E8	50.53342056274414	0.0	0.0	1.062293504E9	1.050124288E9	0.0	null	0.07524999976158142	0.052000001072883606	0.04574999958276749	0.9919999837875366	0.7573300004005432	0.0	244.0	371.0	0.0	0.0	0.0	0.0	0.0	0.0	null	null	null	null	null	null	null	null	333.0	334.0	337.0	333.0	334.0	335.0	335.0	340.0	334.0	337.0	337.0	
Sun Jun 04 22:43:00 UTC 2017	0.0	1.047281664E9	3275.8310546875	0.0	2.5731072E7	0.0	2.0	9.63002368E8	50.53342056274414	0.0	0.0	1.062293504E9	1.050124288E9	0.0	0.0	0.07500000298023224	0.04374999925494194	0.048500001430511475	0.9919999837875366	0.7596393823623657	0.0	244.0	371.0	0.0	0.0	0.0	0.0	0.0	0.0	null	null	null	null	null	null	null	null	335.0	336.0	335.0	337.0	334.0	334.0	332.0	333.0	335.0	335.0	333.0	
Sun Jun 04 22:42:00 UTC 2017	0.0	1.047281664E9	2354.354736328125	0.0	2.5731072E7	0.0	3.0	9.63002368E8	43.723655700683594	0.0	0.0	1.062293504E9	1.050124288E9	0.0	0.0	0.08550000190734863	0.0494999997317791	0.04800000041723251	0.9919999837875366	0.7579234838485718	0.0	244.0	371.0	0.0	0.0	0.0	0.0	0.0	0.0	null	null	null	null	null	null	null	null	338.0	333.0	335.0	335.0	334.0	339.0	338.0	336.0	337.0	337.0	335.0	
Sun Jun 04 22:41:00 UTC 2017	0.0	1.048293376E9	2354.354736328125	0.0	2.5731072E7	0.0	3.0	9.62875392E8	51.695533752441406	0.0	0.0	1.062293504E9	1.050124288E9	0.0	null	0.09175000339746475	0.051750000566244125	0.04774999991059303	0.9917500019073486	0.7595801949501038	0.0	244.0	371.0	0.0	0.0	0.0	0.0	0.0	0.0	null	null	null	null	null	null	null	null	332.0	335.0	334.0	337.0	332.0	334.0	334.0	333.0	337.0	336.0	336.0	
Sun Jun 04 22:40:00 UTC 2017	0.0	1.048293376E9	2718.104248046875	0.0	2.5731072E7	0.0	4.0	9.62875392E8	68.29586029052734	0.0	0.0	1.062293504E9	1.050124288E9	0.0	0.0	0.07275000214576721	0.05025000125169754	0.04924999922513962	0.9917500019073486	0.7572365403175354	0.0	244.0	371.0	0.0	0.0	0.0	0.0	0.0	0.0	null	null	null	null	null	null	null	null	336.0	336.0	336.0	336.0	333.0	330.0	335.0	337.0	335.0	337.0	332.0	
Sun Jun 04 22:39:00 UTC 2017	0.0	1.047281664E9	2718.104248046875	0.0	2.5731072E7	0.0	4.0	9.6278528E8	68.29586029052734	0.0	0.0	1.062293504E9	1.050124288E9	0.0	0.0	0.07450000196695328	0.0507499985396862	0.04800000041723251	0.9922500252723694	0.759429931640625	0.0	244.0	371.0	0.0	0.0	0.0	0.0	0.0	0.0	null	null	null	null	null	null	null	null	334.0	336.0	337.0	335.0	336.0	338.0	335.0	336.0	333.0	333.0	336.0	
Sun Jun 04 22:38:00 UTC 2017	0.0	1.047281664E9	2716.872802734375	0.0	2.5731072E7	0.0	3.0	9.6278528E8	68.29586029052734	0.0	0.0	1.061281792E9	1.050124288E9	0.0	0.0	0.07500000298023224	0.04924999922513962	0.051249999552965164	0.9919999837875366	0.7571411728858948	0.0	244.0	371.0	0.0	0.0	0.0	0.0	0.0	0.0	null	null	null	null	null	null	null	null	335.0	333.0	335.0	335.0	336.0	334.0	335.0	331.0	338.0	335.0	335.0	
Sun Jun 04 22:37:00 UTC 2017	0.0	1.047281664E9	2438.2607421875	0.0	2.5731072E7	0.0	4.0	9.6278528E8	68.29586029052734	0.0	0.0	1.061281792E9	1.050124288E9	0.0	0.0	0.07275000214576721	0.054749999195337296	0.04625000059604645	0.9922500252723694	0.757148027420044	0.0	244.0	371.0	0.0	0.0	0.0	0.0	0.0	0.0	null	null	null	null	null	null	null	null	337.0	336.0	338.0	339.0	330.0	336.0	335.0	338.0	333.0	337.0	337.0	
Sun Jun 04 22:36:00 UTC 2017	0.0	1.048293376E9	2438.2607421875	0.0	2.5731072E7	0.0	2.0	9.626624E8	68.29586029052734	0.0	0.0	1.061281792E9	1.050124288E9	0.0	0.0	0.0767500028014183	0.05050000175833702	0.04475000128149986	0.9919999837875366	0.757128894329071	0.0	244.0	371.0	0.0	0.0	0.0	0.0	0.0	0.0	null	null	null	null	null	null	null	null	331.0	335.0	334.0	330.0	339.0	339.0	337.0	334.0	337.0	335.0	332.0	
Sun Jun 04 22:35:00 UTC 2017	0.0	1.047281664E9	2438.2607421875	0.0	2.5731072E7	0.0	2.0	9.626624E8	58.437007904052734	0.0	0.0	1.061281792E9	1.050124288E9	0.0	0.0	0.07325000315904617	0.04450000077486038	0.04924999922513962	0.9919999837875366	0.7571284174919128	0.0	244.0	371.0	0.0	0.0	0.0	0.0	0.0	0.0	null	null	null	null	null	null	null	null	338.0	337.0	334.0	336.0	335.0	338.0	335.0	336.0	334.0	334.0	334.0	
Sun Jun 04 22:34:00 UTC 2017	0.0	1.047281664E9	2675.51708984375	0.0	2.5731072E7	0.0	2.0	9.62572288E8	58.437007904052734	0.0	0.0	1.061281792E9	1.050124288E9	0.0	null	0.07649999856948853	0.05525000020861626	0.04574999958276749	0.9922500252723694	0.7571122646331787	0.0	244.0	371.0	0.0	0.0	0.0	0.0	0.0	0.0	null	null	null	null	null	null	null	null	333.0	332.0	337.0	334.0	336.0	336.0	336.0	337.0	338.0	336.0	334.0	
Sun Jun 04 22:33:00 UTC 2017	0.0	1.047281664E9	3455.745361328125	0.0	2.5731072E7	0.0	3.0	9.62572288E8	68.80746459960938	0.0	0.0	1.062293504E9	1.050124288E9	0.0	null	0.0860000029206276	0.04574999958276749	0.05000000074505806	0.9919999837875366	0.7593805193901062	0.0	244.0	371.0	0.0	0.0	0.0	0.0	0.0	0.0	null	null	null	null	null	null	null	null	337.0	337.0	336.0	334.0	336.0	334.0	333.0	332.0	333.0	334.0	337.0	
Sun Jun 04 22:32:00 UTC 2017	0.0	1.048293376E9	3455.745361328125	0.0	2.5731072E7	0.0	4.0	9.62572288E8	39.263980865478516	0.0	0.0	1.061281792E9	1.050124288E9	0.0	null	0.06525000184774399	0.04899999871850014	0.04899999871850014	0.9917500019073486	0.7570922374725342	0.0	244.0	371.0	0.0	0.0	0.0	0.0	0.0	0.0	null	null	null	null	null	null	null	null	335.0	335.0	338.0	335.0	335.0	338.0	337.0	337.0	334.0	334.0	333.0	
Sun Jun 04 22:31:00 UTC 2017	0.0	1.048293376E9	2647.001220703125	0.0	2.5731072E7	0.0	3.0	9.62363392E8	40.905792236328125	0.0	0.0	1.061281792E9	1.050124288E9	0.0	0.0	0.10225000232458115	0.05350000038743019	0.04975000023841858	0.9919999837875366	0.7570711970329285	0.0	244.0	371.0	0.0	0.0	0.0	0.0	0.0	0.0	null	null	null	null	null	null	null	null	336.0	335.0	336.0	333.0	339.0	333.0	336.0	333.0	336.0	336.0	332.0	
Sun Jun 04 22:30:00 UTC 2017	0.0	1.047281664E9	2647.001220703125	0.0	2.5731072E7	0.0	2.0	9.62453504E8	40.905792236328125	0.0	0.0	1.062293504E9	1.050124288E9	0.0	0.0	0.07750000059604645	0.05249999836087227	0.04475000128149986	0.9922500252723694	0.7570565342903137	0.0	244.0	371.0	0.0	0.0	0.0	0.0	0.0	0.0	null	null	null	null	null	null	null	null	335.0	336.0	334.0	337.0	334.0	337.0	336.0	336.0	336.0	336.0	337.0	
Sun Jun 04 22:29:00 UTC 2017	0.0	1.048293376E9	2647.001220703125	0.0	2.5731072E7	0.0	2.0	9.62363392E8	40.905792236328125	1.0	1.0	1.062293504E9	1.050124288E9	0.0	0.0	0.08425000309944153	0.04800000041723251	0.051249999552965164	0.9915000200271606	0.7593961954116821	0.0	244.0	371.0	0.0	0.0	0.0	0.0	0.0	0.0	null	null	null	null	null	null	null	null	332.0	330.0	334.0	336.0	332.0	330.0	334.0	336.0	331.0	331.0	335.0	
Sun Jun 04 22:28:00 UTC 2017	0.0	1.048293376E9	2820.5927734375	0.0	2.5731072E7	0.0	2.0	9.62363392E8	44.11381912231445	0.0	0.0	1.061281792E9	1.050124288E9	0.0	0.0	0.06400000303983688	0.05000000074505806	0.04600000008940697	0.9917500019073486	0.7570310831069946	0.0	244.0	371.0	0.0	0.0	0.0	0.0	0.0	0.0	null	null	null	null	null	null	null	null	337.0	336.0	335.0	335.0	336.0	337.0	336.0	336.0	336.0	335.0	335.0	
Sun Jun 04 22:27:00 UTC 2017	0.0	1.048293376E9	2481.35107421875	0.0	2.5731072E7	0.0	3.0	9.62363392E8	44.11381912231445	0.0	0.0	1.061281792E9	1.050124288E9	0.0	null	0.08250000327825546	0.05700000002980232	0.05000000074505806	0.9915000200271606	0.7570158839225769	0.0	244.0	371.0	0.0	0.0	0.0	0.0	0.0	0.0	null	null	null	null	null	null	null	null	335.0	335.0	337.0	335.0	332.0	334.0	334.0	334.0	335.0	335.0	334.0	
Sun Jun 04 22:26:00 UTC 2017	0.0	1.047281664E9	2481.35107421875	0.0	2.5731072E7	0.0	2.0	9.621504E8	45.34385681152344	0.0	0.0	1.062293504E9	1.050124288E9	0.0	null	0.0754999965429306	0.04699999839067459	0.04699999839067459	0.9917500019073486	0.7582493424415588	0.0	244.0	371.0	0.0	0.0	0.0	0.0	0.0	0.0	null	null	null	null	null	null	null	null	332.0	334.0	336.0	335.0	335.0	332.0	335.0	335.0	333.0	337.0	337.0	
Sun Jun 04 22:25:00 UTC 2017	0.0	1.048293376E9	2481.35107421875	0.0	2.5731072E7	0.0	2.0	9.62240512E8	45.34385681152344	0.0	0.0	1.061281792E9	1.050124288E9	0.0	null	0.0729999989271164	0.04924999922513962	0.04650000110268593	0.9919999837875366	0.7583892941474915	0.0	244.0	371.0	0.0	0.0	0.0	0.0	0.0	0.0	null	null	null	null	null	null	null	null	336.0	335.0	337.0	334.0	334.0	331.0	336.0	335.0	339.0	336.0	333.0	
Sun Jun 04 22:24:00 UTC 2017	1.0	1.047281664E9	2481.35107421875	0.0	2.5731072E7	0.0	2.0	9.621504E8	45.34385681152344	0.0	0.0	1.061281792E9	1.050124288E9	0.0	0.0	0.0832500010728836	0.05299999937415123	0.050999999046325684	0.9922500252723694	0.7568098902702332	0.0	244.0	371.0	0.0	0.0	0.0	0.0	0.0	0.0	null	null	null	null	null	null	null	null	332.0	335.0	335.0	336.0	336.0	335.0	333.0	337.0	336.0	333.0	336.0	
Sun Jun 04 22:23:00 UTC 2017	0.0	1.048293376E9	2481.35107421875	0.0	2.5731072E7	0.0	4.0	9.621504E8	38.076541900634766	0.0	0.0	1.062293504E9	1.050124288E9	0.0	0.0	0.06975000351667404	0.048500001430511475	0.04475000128149986	0.9922500252723694	0.7567893862724304	0.0	244.0	371.0	0.0	0.0	0.0	0.0	0.0	0.0	null	null	null	null	null	null	null	null	340.0	339.0	337.0	337.0	336.0	336.0	341.0	335.0	337.0	336.0	337.0	
Sun Jun 04 22:22:00 UTC 2017	0.0	1.047281664E9	2481.35107421875	0.0	2.5731072E7	0.0	3.0	9.621504E8	48.87714385986328	0.0	0.0	1.061281792E9	1.050124288E9	0.0	0.0	0.07349999994039536	0.05225000157952309	0.051249999552965164	0.9919999837875366	0.7585282325744629	0.0	244.0	371.0	0.0	0.0	0.0	0.0	0.0	0.0	null	null	null	null	null	null	null	null	334.0	335.0	335.0	334.0	333.0	339.0	332.0	333.0	337.0	338.0	335.0	
Sun Jun 04 22:21:00 UTC 2017	0.0	1.047281664E9	2785.255126953125	0.0	2.5731072E7	0.0	4.0	9.61937408E8	48.87714385986328	0.0	0.0	1.061281792E9	1.050124288E9	0.0	0.0	0.10324999690055847	0.048500001430511475	0.04699999839067459	0.9922500252723694	0.7568578720092773	0.0	244.0	371.0	0.0	0.0	0.0	0.0	0.0	0.0	null	null	null	null	null	null	null	null	337.0	333.0	339.0	336.0	335.0	334.0	336.0	338.0	333.0	335.0	334.0	
Sun Jun 04 22:20:00 UTC 2017	0.0	1.047281664E9	3215.1875	0.0	2.5731072E7	0.0	2.0	9.6202752E8	59.4613151550293	0.0	0.0	1.062293504E9	1.050124288E9	0.0	0.0	0.08275000005960464	0.05025000125169754	0.04600000008940697	0.9922500252723694	0.7575085759162903	0.0	244.0	371.0	0.0	0.0	0.0	0.0	0.0	0.0	null	null	null	null	null	null	null	null	331.0	338.0	334.0	335.0	336.0	332.0	338.0	332.0	336.0	333.0	336.0	
Sun Jun 04 22:19:00 UTC 2017	0.0	1.047281664E9	2314.5234375	0.0	2.5731072E7	0.0	2.0	9.61937408E8	59.4613151550293	0.0	0.0	1.062293504E9	1.050124288E9	0.0	0.0	0.07225000113248825	0.04899999871850014	0.05025000125169754	0.9922500252723694	0.756803572177887	0.0	244.0	371.0	0.0	0.0	0.0	0.0	0.0	0.0	null	null	null	null	null	null	null	null	335.0	332.0	337.0	337.0	336.0	338.0	339.0	341.0	335.0	336.0	332.0	
Sun Jun 04 22:18:00 UTC 2017	0.0	1.047281664E9	3227.4658203125	0.0	2.5731072E7	0.0	2.0	9.61937408E8	59.4613151550293	0.0	0.0	1.062293504E9	1.050124288E9	0.0	0.0	0.06825000047683716	0.05400000140070915	0.04574999958276749	0.9922500252723694	0.7580546140670776	0.0	244.0	371.0	0.0	0.0	0.0	0.0	0.0	0.0	null	null	null	null	null	null	null	null	335.0	335.0	334.0	335.0	335.0	334.0	332.0	336.0	334.0	344.0	341.0	
Sun Jun 04 22:17:00 UTC 2017	0.0	1.047281664E9	2465.837890625	0.0	2.5731072E7	0.0	3.0	9.61937408E8	59.4613151550293	0.0	0.0	1.061281792E9	1.050124288E9	0.0	0.0	0.08375000208616257	0.0494999997317791	0.0494999997317791	0.9922500252723694	0.7567497491836548	0.0	244.0	371.0	0.0	0.0	0.0	0.0	0.0	0.0	null	null	null	null	null	null	null	null	335.0	339.0	336.0	340.0	336.0	334.0	335.0	332.0	339.0	336.0	334.0	
Sun Jun 04 22:16:00 UTC 2017	0.0	1.047281664E9	2480.459716796875	0.0	2.5731072E7	0.0	2.0	9.61728512E8	59.4613151550293	2.0	2.0	1.061281792E9	1.050124288E9	0.0	0.0	0.06549999862909317	0.05575000122189522	0.0442500002682209	0.9919999837875366	0.756753146648407	0.0	244.0	371.0	0.0	0.0	0.0	0.0	0.0	0.0	null	null	null	null	null	null	null	null	332.0	335.0	335.0	333.0	339.0	337.0	338.0	335.0	333.0	333.0	334.0	
Sun Jun 04 22:15:00 UTC 2017	0.0	1.047281664E9	2400.01806640625	0.0	2.5731072E7	0.0	2.0	9.61818624E8	40.005130767822266	2.0	3.0	1.061281792E9	1.050124288E9	0.0	null	0.08349999785423279	0.05925000086426735	0.05225000157952309	0.9919999837875366	0.7567218542098999	0.0	244.0	371.0	0.0	0.0	0.0	0.0	0.0	0.0	null	null	null	null	null	null	null	null	335.0	332.0	338.0	337.0	336.0	334.0	337.0	335.0	339.0	339.0	334.0	
Sun Jun 04 22:14:00 UTC 2017	0.0	1.048293376E9	2400.01806640625	0.0	2.5731072E7	0.0	2.0	9.61728512E8	40.08509063720703	1.0	2.0	1.061281792E9	1.050124288E9	0.0	0.0	0.07374999672174454	0.04874999821186066	0.04650000110268593	0.9922500252723694	0.7567037343978882	0.0	244.0	371.0	0.0	0.0	0.0	0.0	0.0	0.0	null	null	null	null	null	null	null	null	334.0	338.0	333.0	335.0	337.0	340.0	339.0	337.0	335.0	334.0	336.0	
Sun Jun 04 22:13:00 UTC 2017	0.0	1.047281664E9	2400.01806640625	0.0	2.5731072E7	0.0	2.0	9.61728512E8	56.238372802734375	0.0	0.0	1.062293504E9	1.050124288E9	0.0	0.0	0.0767500028014183	0.057999998331069946	0.04724999889731407	0.9919999837875366	0.7589768767356873	0.0	244.0	371.0	0.0	0.0	0.0	0.0	0.0	0.0	null	null	null	null	null	null	null	null	334.0	333.0	335.0	341.0	333.0	337.0	335.0	332.0	335.0	332.0	332.0	
Sun Jun 04 22:12:00 UTC 2017	0.0	1.047281664E9	2728.118408203125	0.0	2.5731072E7	0.0	3.0	9.61728512E8	45.565406799316406	0.0	0.0	1.062293504E9	1.050124288E9	0.0	null	0.06949999928474426	0.04600000008940697	0.04874999821186066	0.9922500252723694	0.7589734792709351	0.0	244.0	371.0	0.0	0.0	0.0	0.0	0.0	0.0	null	null	null	null	null	null	null	null	335.0	335.0	336.0	335.0	336.0	334.0	336.0	333.0	340.0	339.0	335.0	
Sun Jun 04 22:11:00 UTC 2017	0.0	1.047281664E9	2749.458740234375	0.0	2.5731072E7	0.0	4.0	9.6151552E8	47.39227294921875	0.0	0.0	1.061281792E9	1.050124288E9	0.0	null	0.09799999743700027	0.05050000175833702	0.04924999922513962	0.9917500019073486	0.758976399898529	0.0	244.0	371.0	0.0	0.0	0.0	0.0	0.0	0.0	null	null	null	null	null	null	null	null	338.0	338.0	333.0	336.0	337.0	337.0	336.0	336.0	337.0	331.0	335.0	
Sun Jun 04 22:10:00 UTC 2017	0.0	1.048293376E9	2749.458740234375	0.0	2.5731072E7	0.0	7.0	9.61867776E8	41.625213623046875	0.0	0.0	1.062293504E9	1.050124288E9	0.0	null	0.07175000011920929	0.04924999922513962	0.052000001072883606	0.9917500019073486	0.7567198872566223	0.0	244.0	371.0	0.0	0.0	0.0	0.0	0.0	0.0	null	null	null	null	null	null	null	null	334.0	334.0	335.0	333.0	335.0	335.0	337.0	334.0	334.0	335.0	335.0	
Sun Jun 04 22:09:00 UTC 2017	0.0	1.047281664E9	2749.458740234375	0.0	2.5731072E7	0.0	4.0	9.61503232E8	43.36260223388672	0.0	0.0	1.061281792E9	1.050124288E9	0.0	null	0.07625000178813934	0.05025000125169754	0.04450000077486038	0.9919999837875366	0.7567008137702942	0.0	244.0	371.0	0.0	0.0	0.0	0.0	0.0	0.0	null	null	null	null	null	null	null	null	335.0	335.0	336.0	334.0	334.0	334.0	333.0	337.0	335.0	338.0	336.0	
Sun Jun 04 22:08:00 UTC 2017	0.0	1.047281664E9	2396.863525390625	0.0	2.5731072E7	0.0	2.0	9.61503232E8	43.36260223388672	0.0	0.0	1.062293504E9	1.050124288E9	0.0	null	0.07500000298023224	0.057500001043081284	0.051500000059604645	0.9919999837875366	0.7566871047019958	0.0	244.0	371.0	0.0	0.0	0.0	0.0	0.0	0.0	null	null	null	null	null	null	null	null	335.0	337.0	333.0	335.0	338.0	337.0	334.0	335.0	331.0	338.0	333.0	
Sun Jun 04 22:07:00 UTC 2017	0.0	1.048293376E9	2396.863525390625	0.0	2.5731072E7	0.0	2.0	9.61503232E8	43.36260223388672	0.0	0.0	1.061281792E9	1.050124288E9	0.0	null	0.07275000214576721	0.051249999552965164	0.04699999839067459	0.9922500252723694	0.7566758394241333	0.0	244.0	371.0	0.0	0.0	0.0	0.0	0.0	0.0	null	null	null	null	null	null	null	null	335.0	336.0	335.0	337.0	334.0	334.0	338.0	335.0	336.0	332.0	337.0	
Sun Jun 04 22:06:00 UTC 2017	0.0	1.048293376E9	2878.57080078125	0.0	2.5731072E7	0.0	3.0	9.6129024E8	43.36260223388672	0.0	0.0	1.061281792E9	1.050124288E9	0.0	0.0	0.07450000196695328	0.04625000059604645	0.04899999871850014	0.9922500252723694	0.7566596865653992	0.0	244.0	371.0	0.0	0.0	0.0	0.0	0.0	0.0	null	null	null	null	null	null	null	null	337.0	333.0	337.0	335.0	336.0	335.0	334.0	335.0	336.0	336.0	334.0	
Sun Jun 04 22:05:00 UTC 2017	0.0	1.048293376E9	2663.770751953125	0.0	2.5731072E7	0.0	2.0	9.61380352E8	51.09093475341797	0.0	0.0	1.062293504E9	1.050124288E9	0.0	0.0	0.07649999856948853	0.05025000125169754	0.04675000160932541	0.9917500019073486	0.7566391825675964	0.0	244.0	371.0	0.0	0.0	0.0	0.0	0.0	0.0	null	null	null	null	null	null	null	null	336.0	332.0	340.0	336.0	333.0	333.0	336.0	333.0	338.0	333.0	335.0	
Sun Jun 04 22:04:00 UTC 2017	0.0	1.048293376E9	2502.1630859375	0.0	2.5731072E7	0.0	2.0	9.6129024E8	51.09093475341797	0.0	0.0	1.061281792E9	1.050124288E9	0.0	0.0	0.07474999874830246	0.05025000125169754	0.04600000008940697	0.9919999837875366	0.7566401362419128	0.0	244.0	371.0	0.0	0.0	0.0	0.0	0.0	0.0	null	null	null	null	null	null	null	null	339.0	338.0	330.0	338.0	334.0	336.0	333.0	334.0	332.0	336.0	333.0	
Sun Jun 04 22:03:00 UTC 2017	0.0	1.048293376E9	2726.135009765625	0.0	2.5731072E7	0.0	2.0	9.6129024E8	51.09093475341797	0.0	0.0	1.062293504E9	1.050124288E9	0.0	0.0	0.07275000214576721	0.05025000125169754	0.04675000160932541	0.9919999837875366	0.7566215395927429	0.0	244.0	371.0	0.0	0.0	0.0	0.0	0.0	0.0	null	null	null	null	null	null	null	null	335.0	337.0	339.0	332.0	335.0	334.0	337.0	337.0	336.0	335.0	333.0	
Sun Jun 04 22:02:00 UTC 2017	0.0	1.047281664E9	2726.135009765625	0.0	2.5731072E7	0.0	2.0	9.6129024E8	48.12425231933594	0.0	0.0	1.062293504E9	1.050124288E9	0.0	0.0	0.07349999994039536	0.048500001430511475	0.04975000023841858	0.9922500252723694	0.7566112875938416	0.0	244.0	371.0	0.0	0.0	0.0	0.0	0.0	0.0	null	null	null	null	null	null	null	null	336.0	334.0	335.0	337.0	338.0	335.0	332.0	334.0	336.0	338.0	337.0	
Sun Jun 04 22:01:00 UTC 2017	0.0	1.047281664E9	2573.9775390625	0.0	2.5731072E7	0.0	4.0	9.61077248E8	48.12425231933594	0.0	0.0	1.061281792E9	1.050124288E9	0.0	0.0	0.09925000369548798	0.05575000122189522	0.0507499985396862	0.9919999837875366	0.7566142082214355	0.0	244.0	371.0	0.0	0.0	0.0	0.0	0.0	0.0	null	null	null	null	null	null	null	null	334.0	336.0	331.0	336.0	332.0	334.0	337.0	334.0	335.0	336.0	338.0	
Sun Jun 04 22:00:00 UTC 2017	0.0	1.048293376E9	2573.9775390625	0.0	2.5731072E7	0.0	2.0	9.6116736E8	48.12425231933594	0.0	0.0	1.061281792E9	1.050124288E9	0.0	0.0	0.08375000208616257	0.04475000128149986	0.045249998569488525	0.9917500019073486	0.7565569877624512	0.0	244.0	371.0	0.0	0.0	0.0	0.0	0.0	0.0	null	null	null	null	null	null	null	null	334.0	334.0	335.0	335.0	335.0	338.0	332.0	337.0	330.0	338.0	337.0	
Sun Jun 04 21:59:00 UTC 2017	0.0	1.048293376E9	2863.184814453125	0.0	2.5731072E7	0.0	2.0	9.61077248E8	48.12425231933594	0.0	0.0	1.061281792E9	1.050124288E9	0.0	0.0	0.06424999982118607	0.0507499985396862	0.05025000125169754	0.9919999837875366	0.7565383911132812	0.0	244.0	371.0	0.0	0.0	0.0	0.0	0.0	0.0	null	null	null	null	null	null	null	null	333.0	334.0	335.0	338.0	336.0	335.0	336.0	338.0	338.0	336.0	335.0	
Sun Jun 04 21:58:00 UTC 2017	0.0	1.047281664E9	2863.184814453125	0.0	2.5731072E7	0.0	2.0	9.61077248E8	57.28642654418945	1.0	1.0	1.061281792E9	1.050124288E9	0.0	0.0	0.08550000190734863	0.05649999901652336	0.04774999991059303	0.9919999837875366	0.7565373778343201	0.0	244.0	371.0	0.0	0.0	0.0	0.0	0.0	0.0	null	null	null	null	null	null	null	null	336.0	333.0	336.0	335.0	332.0	337.0	339.0	336.0	334.0	333.0	334.0	
Sun Jun 04 21:57:00 UTC 2017	0.0	1.047281664E9	2830.509765625	0.0	2.5731072E7	0.0	5.0	9.61077248E8	57.28642654418945	0.0	0.0	1.061281792E9	1.050124288E9	0.0	0.0	0.07400000095367432	0.05550000071525574	0.04874999821186066	0.9922500252723694	0.7584117650985718	0.0	244.0	371.0	0.0	0.0	0.0	0.0	0.0	0.0	null	null	null	null	null	null	null	null	341.0	338.0	336.0	334.0	337.0	337.0	334.0	335.0	337.0	338.0	335.0	
Sun Jun 04 21:56:00 UTC 2017	0.0	1.048293376E9	2830.509765625	0.0	2.5731072E7	0.0	4.0	9.60868352E8	57.28642654418945	1.0	1.0	1.062293504E9	1.050124288E9	0.0	0.0	0.0689999982714653	0.048250000923871994	0.048500001430511475	0.9922500252723694	0.7587787508964539	0.0	244.0	371.0	0.0	0.0	0.0	0.0	0.0	0.0	null	null	null	null	null	null	null	null	335.0	336.0	336.0	334.0	335.0	335.0	333.0	335.0	336.0	335.0	337.0	
Sun Jun 04 21:55:00 UTC 2017	0.0	1.048293376E9	2474.162841796875	0.0	2.5731072E7	0.0	2.0	9.60958464E8	57.28642654418945	1.0	1.0	1.062293504E9	1.050124288E9	0.0	null	0.07524999976158142	0.05274999886751175	0.04374999925494194	0.9917500019073486	0.7564708590507507	0.0	244.0	371.0	0.0	0.0	0.0	0.0	0.0	0.0	null	null	null	null	null	null	null	null	332.0	332.0	333.0	333.0	337.0	336.0	335.0	335.0	334.0	333.0	333.0	
Sun Jun 04 21:54:00 UTC 2017	0.0	1.047281664E9	2474.162841796875	0.0	2.5731072E7	0.0	4.0	9.60868352E8	44.24806594848633	1.0	1.0	1.062293504E9	1.050124288E9	0.0	null	0.07850000262260437	0.05550000071525574	0.05025000125169754	0.9917500019073486	0.757003664970398	0.0	244.0	371.0	0.0	0.0	0.0	0.0	0.0	0.0	null	null	null	null	null	null	null	null	339.0	339.0	332.0	337.0	337.0	335.0	335.0	338.0	335.0	336.0	336.0	
Sun Jun 04 21:53:00 UTC 2017	0.0	1.047281664E9	3121.9345703125	0.0	2.5731072E7	0.0	2.0	9.60868352E8	44.24806594848633	1.0	1.0	1.061281792E9	1.050124288E9	0.0	null	0.08049999922513962	0.054499998688697815	0.04625000059604645	0.9922500252723694	0.7577903866767883	0.0	244.0	371.0	0.0	0.0	0.0	0.0	0.0	0.0	null	null	null	null	null	null	null	null	335.0	336.0	338.0	334.0	334.0	337.0	334.0	337.0	335.0	338.0	334.0	
Sun Jun 04 21:52:00 UTC 2017	0.0	1.048293376E9	3121.9345703125	0.0	2.5731072E7	0.0	2.0	9.60868352E8	51.68660354614258	0.0	0.0	1.062293504E9	1.050124288E9	0.0	null	0.0754999965429306	0.05400000140070915	0.050999999046325684	0.9922500252723694	0.756465494632721	0.0	244.0	371.0	0.0	0.0	0.0	0.0	0.0	0.0	null	null	null	null	null	null	null	null	336.0	334.0	333.0	337.0	333.0	335.0	335.0	334.0	334.0	331.0	336.0	
Sun Jun 04 21:51:00 UTC 2017	0.0	1.048293376E9	2668.625732421875	0.0	2.5731072E7	0.0	2.0	9.60651264E8	64.28092193603516	0.0	0.0	1.062293504E9	1.050124288E9	0.0	0.0	0.08824999630451202	0.04800000041723251	0.0430000014603138	0.9922500252723694	0.7564502954483032	0.0	244.0	371.0	0.0	0.0	0.0	0.0	0.0	0.0	null	null	null	null	null	null	null	null	336.0	340.0	335.0	339.0	339.0	337.0	334.0	334.0	338.0	339.0	335.0	
Sun Jun 04 21:50:00 UTC 2017	0.0	1.047281664E9	2668.625732421875	0.0	2.5731072E7	0.0	2.0	9.60741376E8	46.38847351074219	0.0	0.0	1.061281792E9	1.050124288E9	0.0	0.0	0.07750000059604645	0.05674999952316284	0.05025000125169754	0.9922500252723694	0.7571411728858948	0.0	244.0	371.0	0.0	0.0	0.0	0.0	0.0	0.0	null	null	null	null	null	null	null	null	335.0	334.0	331.0	335.0	332.0	332.0	333.0	338.0	334.0	335.0	335.0	
Sun Jun 04 21:49:00 UTC 2017	0.0	1.048293376E9	2668.625732421875	0.0	2.5731072E7	0.0	2.0	9.60651264E8	34.890201568603516	1.0	1.0	1.062293504E9	1.050124288E9	0.0	0.0	0.08250000327825546	0.054249998182058334	0.05050000175833702	0.9922500252723694	0.7564106583595276	0.0	244.0	371.0	0.0	0.0	0.0	0.0	0.0	0.0	null	null	null	null	null	null	null	null	333.0	336.0	338.0	335.0	339.0	338.0	340.0	336.0	336.0	336.0	334.0	
Sun Jun 04 21:48:00 UTC 2017	0.0	1.047281664E9	2668.625732421875	0.0	2.5731072E7	0.0	4.0	9.60651264E8	47.852657318115234	1.0	0.0	1.061281792E9	1.050124288E9	0.0	0.0	0.06449999660253525	0.051249999552965164	0.04600000008940697	0.9919999837875366	0.756393551826477	0.0	244.0	371.0	0.0	0.0	0.0	0.0	0.0	0.0	null	null	null	null	null	null	null	null	339.0	334.0	333.0	334.0	334.0	334.0	336.0	335.0	336.0	337.0	339.0	
Sun Jun 04 21:47:00 UTC 2017	0.0	1.048293376E9	2668.625732421875	0.0	2.5731072E7	0.0	4.0	9.60651264E8	47.852657318115234	1.0	0.0	1.062293504E9	1.050124288E9	0.0	0.0	0.08524999767541885	0.048500001430511475	0.04899999871850014	0.9925000071525574	0.7563749551773071	0.0	244.0	371.0	0.0	0.0	0.0	0.0	0.0	0.0	null	null	null	null	null	null	null	null	333.0	337.0	338.0	341.0	336.0	334.0	337.0	334.0	332.0	336.0	333.0	
Sun Jun 04 21:46:00 UTC 2017	0.0	1.048293376E9	2378.49609375	0.0	2.5731072E7	0.0	4.0	9.60438272E8	53.02467346191406	0.0	0.0	1.061281792E9	1.050124288E9	0.0	0.0	0.07524999976158142	0.054999999701976776	0.04899999871850014	0.9922500252723694	0.7563554048538208	0.0	244.0	371.0	0.0	0.0	0.0	0.0	0.0	0.0	null	null	null	null	null	null	null	null	332.0	335.0	331.0	335.0	336.0	336.0	336.0	335.0	337.0	335.0	336.0	
Sun Jun 04 21:45:00 UTC 2017	0.0	1.047281664E9	2378.49609375	0.0	2.5731072E7	0.0	2.0	9.60528384E8	53.02467346191406	0.0	0.0	1.062293504E9	1.050124288E9	0.0	0.0	0.06800000369548798	0.04724999889731407	0.05050000175833702	0.9922500252723694	0.7563461065292358	0.0	244.0	371.0	0.0	0.0	0.0	0.0	0.0	0.0	null	null	null	null	null	null	null	null	334.0	338.0	340.0	337.0	335.0	336.0	335.0	334.0	338.0	333.0	338.0	
Sun Jun 04 21:44:00 UTC 2017	0.0	1.048293376E9	2378.49609375	0.0	2.5731072E7	0.0	2.0	9.60438272E8	47.52955627441406	0.0	0.0	1.061281792E9	1.050124288E9	0.0	0.0	0.07900000363588333	0.0507499985396862	0.04774999991059303	0.9922500252723694	0.758547306060791	0.0	244.0	371.0	0.0	0.0	0.0	0.0	0.0	0.0	null	null	null	null	null	null	null	null	341.0	335.0	335.0	335.0	336.0	335.0	335.0	335.0	336.0	334.0	334.0	
Sun Jun 04 21:43:00 UTC 2017	0.0	1.047281664E9	2378.49609375	0.0	2.5731072E7	0.0	2.0	9.60438272E8	47.52955627441406	0.0	0.0	1.062293504E9	1.050124288E9	0.0	0.0	0.07400000095367432	0.05000000074505806	0.04574999958276749	0.9922500252723694	0.7563372850418091	0.0	244.0	371.0	0.0	0.0	0.0	0.0	0.0	0.0	null	null	null	null	null	null	null	null	333.0	334.0	340.0	333.0	332.0	340.0	332.0	337.0	332.0	333.0	335.0	
Sun Jun 04 21:42:00 UTC 2017	0.0	1.047281664E9	2688.071533203125	0.0	2.5731072E7	0.0	2.0	9.60438272E8	47.52955627441406	0.0	0.0	1.062293504E9	1.050124288E9	0.0	null	0.07349999994039536	0.054999999701976776	0.04724999889731407	0.9919999837875366	0.7586050629615784	0.0	244.0	371.0	0.0	0.0	0.0	0.0	0.0	0.0	null	null	null	null	null	null	null	null	338.0	341.0	336.0	338.0	335.0	334.0	336.0	336.0	338.0	334.0	334.0	
Sun Jun 04 21:41:00 UTC 2017	0.0	1.048293376E9	2688.071533203125	0.0	2.5731072E7	0.0	2.0	9.60229376E8	65.82310485839844	0.0	0.0	1.061281792E9	1.050124288E9	0.0	null	0.10350000113248825	0.04574999958276749	0.04800000041723251	0.9922500252723694	0.7569312453269958	0.0	244.0	371.0	0.0	0.0	0.0	0.0	0.0	0.0	null	null	null	null	null	null	null	null	337.0	335.0	337.0	333.0	334.0	336.0	333.0	337.0	332.0	337.0	337.0	
Sun Jun 04 21:40:00 UTC 2017	0.0	1.048293376E9	2793.675048828125	0.0	2.5731072E7	0.0	2.0	9.60499712E8	65.82310485839844	0.0	0.0	1.061281792E9	1.050124288E9	0.0	0.0	0.07500000298023224	0.05525000020861626	0.04650000110268593	0.9919999837875366	0.7562673091888428	0.0	244.0	371.0	0.0	0.0	0.0	0.0	0.0	0.0	null	null	null	null	null	null	null	null	333.0	335.0	329.0	332.0	337.0	335.0	334.0	334.0	338.0	340.0	332.0	
Sun Jun 04 21:39:00 UTC 2017	0.0	1.047281664E9	2793.675048828125	0.0	2.5731072E7	0.0	2.0	9.60229376E8	65.82310485839844	0.0	0.0	1.062293504E9	1.050124288E9	0.0	0.0	0.07374999672174454	0.051500000059604645	0.04975000023841858	0.9917500019073486	0.7562531232833862	0.0	244.0	371.0	0.0	0.0	0.0	0.0	0.0	0.0	null	null	null	null	null	null	null	null	337.0	335.0	337.0	334.0	338.0	335.0	336.0	336.0	332.0	332.0	336.0	
Sun Jun 04 21:38:00 UTC 2017	0.0	1.048293376E9	2793.675048828125	0.0	2.5731072E7	0.0	4.0	9.60229376E8	32.2158203125	0.0	0.0	1.062293504E9	1.050124288E9	0.0	0.0	0.07724999636411667	0.048500001430511475	0.04749999940395355	0.9919999837875366	0.7584685683250427	0.0	244.0	371.0	0.0	0.0	0.0	0.0	0.0	0.0	null	null	null	null	null	null	null	null	329.0	338.0	335.0	338.0	333.0	336.0	337.0	333.0	336.0	336.0	335.0	
Sun Jun 04 21:37:00 UTC 2017	0.0	1.047281664E9	2793.675048828125	0.0	2.5731072E7	0.0	5.0	9.60229376E8	47.71451950073242	2.0	2.0	1.062293504E9	1.050124288E9	0.0	0.0	0.07500000298023224	0.051249999552965164	0.04924999922513962	0.9917500019073486	0.7562223076820374	0.0	244.0	371.0	0.0	0.0	0.0	0.0	0.0	0.0	null	null	null	null	null	null	null	null	337.0	336.0	333.0	336.0	335.0	334.0	332.0	337.0	337.0	338.0	334.0	
Sun Jun 04 21:36:00 UTC 2017	0.0	1.048293376E9	2793.675048828125	0.0	2.5731072E7	0.0	3.0	9.60016384E8	47.71451950073242	0.0	1.0	1.062293504E9	1.050124288E9	0.0	0.0	0.07249999791383743	0.052000001072883606	0.04874999821186066	0.9917500019073486	0.756199300289154	0.0	244.0	371.0	0.0	0.0	0.0	0.0	0.0	0.0	null	null	null	null	null	null	null	null	333.0	333.0	336.0	332.0	337.0	334.0	337.0	332.0	333.0	333.0	333.0	
Sun Jun 04 21:35:00 UTC 2017	0.0	1.047281664E9	2793.675048828125	0.0	2.5731072E7	0.0	3.0	9.60106496E8	48.81779098510742	1.0	2.0	1.062293504E9	1.050124288E9	0.0	null	0.07400000095367432	0.057750001549720764	0.04874999821186066	0.9919999837875366	0.7561777830123901	0.0	244.0	371.0	0.0	0.0	0.0	0.0	0.0	0.0	null	null	null	null	null	null	null	null	334.0	336.0	332.0	336.0	335.0	336.0	329.0	334.0	334.0	335.0	336.0	
Sun Jun 04 21:34:00 UTC 2017	0.0	1.048293376E9	2793.675048828125	0.0	2.5731072E7	0.0	5.0	9.60016384E8	48.81779098510742	0.0	0.0	1.062293504E9	1.050124288E9	0.0	null	0.07400000095367432	0.05025000125169754	0.045499999076128006	0.9919999837875366	0.7562159299850464	0.0	244.0	371.0	0.0	0.0	0.0	0.0	0.0	0.0	null	null	null	null	null	null	null	null	336.0	333.0	337.0	336.0	335.0	337.0	335.0	335.0	337.0	337.0	336.0	
Sun Jun 04 21:33:00 UTC 2017	0.0	1.047281664E9	2793.675048828125	0.0	2.5731072E7	0.0	2.0	9.60016384E8	56.768436431884766	0.0	0.0	1.062293504E9	1.050124288E9	0.0	0.0	0.07925000041723251	0.04874999821186066	0.04924999922513962	0.9919999837875366	0.7562398910522461	0.0	244.0	371.0	0.0	0.0	0.0	0.0	0.0	0.0	null	null	null	null	null	null	null	null	335.0	335.0	335.0	333.0	335.0	336.0	339.0	335.0	335.0	338.0	334.0	
Sun Jun 04 21:32:00 UTC 2017	0.0	1.048293376E9	2793.675048828125	0.0	2.5731072E7	0.0	3.0	9.60016384E8	46.52751159667969	0.0	0.0	1.061281792E9	1.050124288E9	0.0	0.0	0.0702499970793724	0.05274999886751175	0.04800000041723251	0.9919999837875366	0.7561479210853577	0.0	244.0	371.0	0.0	0.0	0.0	0.0	0.0	0.0	null	null	null	null	null	null	null	null	335.0	338.0	336.0	337.0	337.0	337.0	332.0	336.0	337.0	334.0	333.0	
Sun Jun 04 21:31:00 UTC 2017	0.0	1.047281664E9	2793.675048828125	0.0	2.5731072E7	0.0	3.0	9.59803392E8	42.58289337158203	0.0	0.0	1.062293504E9	1.050124288E9	0.0	0.0	0.1080000028014183	0.04675000160932541	0.04899999871850014	0.9915000200271606	0.7560892105102539	0.0	244.0	371.0	0.0	0.0	0.0	0.0	0.0	0.0	null	null	null	null	null	null	null	null	337.0	335.0	337.0	335.0	333.0	333.0	335.0	336.0	332.0	333.0	340.0	
Sun Jun 04 21:30:00 UTC 2017	0.0	1.048293376E9	2793.675048828125	0.0	2.5731072E7	0.0	3.0	9.59893504E8	37.00739288330078	0.0	0.0	1.061281792E9	1.050124288E9	0.0	0.0	0.07400000095367432	0.05025000125169754	0.0494999997317791	0.9919999837875366	0.7560710906982422	0.0	244.0	371.0	0.0	0.0	0.0	0.0	0.0	0.0	null	null	null	null	null	null	null	null	332.0	334.0	333.0	333.0	334.0	335.0	335.0	334.0	331.0	335.0	332.0	
Sun Jun 04 21:29:00 UTC 2017	0.0	1.047281664E9	2793.675048828125	0.0	2.5731072E7	0.0	4.0	9.59803392E8	47.868743896484375	0.0	0.0	1.061281792E9	1.050124288E9	0.0	0.0	0.07699999958276749	0.05000000074505806	0.04500000178813934	0.9919999837875366	0.7560603618621826	0.0	244.0	371.0	0.0	0.0	0.0	0.0	0.0	0.0	null	null	null	null	null	null	null	null	336.0	337.0	336.0	337.0	335.0	336.0	334.0	337.0	334.0	334.0	337.0	
Sun Jun 04 21:28:00 UTC 2017	0.0	1.047281664E9	2520.069580078125	0.0	2.5731072E7	0.0	2.0	9.59803392E8	44.67130661010742	0.0	0.0	1.062293504E9	1.050124288E9	0.0	0.0	0.0820000022649765	0.0494999997317791	0.05000000074505806	0.9919999837875366	0.7560300230979919	0.0	244.0	371.0	0.0	0.0	0.0	0.0	0.0	0.0	null	null	null	null	null	null	null	null	333.0	333.0	333.0	333.0	334.0	334.0	334.0	332.0	338.0	333.0	335.0	
Sun Jun 04 21:27:00 UTC 2017	0.0	1.047281664E9	3191.3505859375	0.0	2.5731072E7	0.0	2.0	9.59803392E8	55.9127082824707	0.0	0.0	1.062293504E9	1.050124288E9	0.0	null	0.06650000065565109	0.0572500005364418	0.04699999839067459	0.9919999837875366	0.7561547756195068	0.0	244.0	371.0	0.0	0.0	0.0	0.0	0.0	0.0	null	null	null	null	null	null	null	null	336.0	336.0	337.0	335.0	334.0	335.0	335.0	339.0	336.0	339.0	333.0	
Sun Jun 04 21:26:00 UTC 2017	0.0	1.048293376E9	3191.3505859375	0.0	2.5731072E7	0.0	2.0	9.595904E8	55.9127082824707	0.0	0.0	1.061281792E9	1.050124288E9	0.0	null	0.08100000023841858	0.04699999839067459	0.04699999839067459	0.9917500019073486	0.7568466067314148	0.0	244.0	371.0	0.0	0.0	0.0	0.0	0.0	0.0	null	null	null	null	null	null	null	null	334.0	336.0	336.0	336.0	333.0	337.0	338.0	335.0	334.0	336.0	336.0	
Sun Jun 04 21:25:00 UTC 2017	0.0	1.047281664E9	3191.3505859375	0.0	2.5731072E7	0.0	2.0	9.59680512E8	54.8957633972168	0.0	0.0	1.062293504E9	1.050124288E9	0.0	null	0.07774999737739563	0.051750000566244125	0.051500000059604645	0.9917500019073486	0.7560549974441528	0.0	244.0	371.0	0.0	0.0	0.0	0.0	0.0	0.0	null	null	null	null	null	null	null	null	330.0	334.0	334.0	334.0	335.0	334.0	332.0	337.0	336.0	333.0	329.0	
Sun Jun 04 21:24:00 UTC 2017	0.0	1.048293376E9	3191.3505859375	0.0	2.5731072E7	0.0	2.0	9.595904E8	54.8957633972168	0.0	0.0	1.062293504E9	1.050124288E9	0.0	null	0.07900000363588333	0.048250000923871994	0.04500000178813934	0.9917500019073486	0.7560417652130127	0.0	244.0	371.0	0.0	0.0	0.0	0.0	0.0	0.0	null	null	null	null	null	null	null	null	336.0	336.0	333.0	335.0	337.0	336.0	334.0	337.0	337.0	334.0	336.0	
Sun Jun 04 21:23:00 UTC 2017	0.0	1.047281664E9	3191.3505859375	0.0	2.5731072E7	0.0	4.0	9.595904E8	36.29384231567383	0.0	0.0	1.062293504E9	1.050124288E9	0.0	0.0	0.07474999874830246	0.0507499985396862	0.04600000008940697	0.9922500252723694	0.756020724773407	0.0	244.0	371.0	0.0	0.0	0.0	0.0	0.0	0.0	null	null	null	null	null	null	null	null	334.0	333.0	333.0	335.0	336.0	334.0	339.0	335.0	339.0	334.0	335.0	
Sun Jun 04 21:22:00 UTC 2017	0.0	1.048293376E9	3191.3505859375	0.0	2.5731072E7	0.0	2.0	9.595904E8	66.01264953613281	0.0	0.0	1.062293504E9	1.050124288E9	0.0	0.0	0.07175000011920929	0.051249999552965164	0.04924999922513962	0.9922500252723694	0.7566773295402527	0.0	244.0	371.0	0.0	0.0	0.0	0.0	0.0	0.0	null	null	null	null	null	null	null	null	336.0	337.0	335.0	336.0	337.0	337.0	334.0	333.0	335.0	340.0	330.0	
Sun Jun 04 21:21:00 UTC 2017	0.0	1.048293376E9	2498.47021484375	0.0	2.5731072E7	0.0	2.0	9.59471616E8	62.54163360595703	0.0	0.0	1.061281792E9	1.050124288E9	0.0	0.0	0.09200000017881393	0.05274999886751175	0.052000001072883606	0.9919999837875366	0.7559879422187805	0.0	244.0	371.0	0.0	0.0	0.0	0.0	0.0	0.0	null	null	null	null	null	null	null	null	338.0	332.0	336.0	338.0	335.0	335.0	337.0	339.0	337.0	335.0	338.0	
Sun Jun 04 21:20:00 UTC 2017	0.0	1.048293376E9	2804.3818359375	0.0	2.5731072E7	0.0	2.0	9.59471616E8	36.24064636230469	0.0	0.0	1.061281792E9	1.050124288E9	0.0	0.0	0.07450000196695328	0.04975000023841858	0.04349999874830246	0.9917500019073486	0.7559208869934082	0.0	244.0	371.0	0.0	0.0	0.0	0.0	0.0	0.0	null	null	null	null	null	null	null	null	333.0	338.0	334.0	336.0	333.0	336.0	332.0	332.0	333.0	334.0	332.0	
Sun Jun 04 21:19:00 UTC 2017	0.0	1.047281664E9	2804.3818359375	0.0	2.5731072E7	0.0	2.0	9.59381504E8	52.528446197509766	0.0	0.0	1.061281792E9	1.050124288E9	0.0	0.0	0.08150000125169754	0.0560000017285347	0.0507499985396862	0.9922500252723694	0.755876898765564	0.0	244.0	371.0	0.0	0.0	0.0	0.0	0.0	0.0	null	null	null	null	null	null	null	null	338.0	332.0	336.0	334.0	335.0	332.0	340.0	337.0	336.0	332.0	334.0	
Sun Jun 04 21:18:00 UTC 2017	0.0	1.047281664E9	2996.702880859375	0.0	2.5731072E7	0.0	4.0	9.59381504E8	42.13382339477539	0.0	0.0	1.062293504E9	1.050124288E9	0.0	0.0	0.07325000315904617	0.045499999076128006	0.04699999839067459	0.9919999837875366	0.7558783292770386	0.0	244.0	371.0	0.0	0.0	0.0	0.0	0.0	0.0	null	null	null	null	null	null	null	null	333.0	337.0	337.0	337.0	335.0	340.0	336.0	336.0	337.0	338.0	337.0	
Sun Jun 04 21:17:00 UTC 2017	0.0	1.047281664E9	2488.52099609375	0.0	2.5731072E7	0.0	3.0	9.59381504E8	42.13382339477539	0.0	0.0	1.061281792E9	1.050124288E9	0.0	0.0	0.06849999725818634	0.054749999195337296	0.045499999076128006	0.9922500252723694	0.7581911087036133	0.0	244.0	371.0	0.0	0.0	0.0	0.0	0.0	0.0	null	null	null	null	null	null	null	null	336.0	335.0	340.0	336.0	337.0	336.0	334.0	335.0	333.0	334.0	331.0	
Sun Jun 04 21:16:00 UTC 2017	0.0	1.047281664E9	2611.703369140625	0.0	2.5731072E7	0.0	2.0	9.59168512E8	46.85432434082031	0.0	0.0	1.062293504E9	1.050124288E9	0.0	0.0	0.08150000125169754	0.04800000041723251	0.04774999991059303	0.9922500252723694	0.756568193435669	0.0	244.0	371.0	0.0	0.0	0.0	0.0	0.0	0.0	null	null	null	null	null	null	null	null	340.0	338.0	335.0	337.0	333.0	334.0	340.0	335.0	338.0	335.0	336.0	
Sun Jun 04 21:15:00 UTC 2017	0.0	1.047281664E9	2626.637939453125	0.0	2.5731072E7	0.0	2.0	9.59258624E8	39.09088134765625	0.0	0.0	1.061281792E9	1.050124288E9	0.0	0.0	0.07124999910593033	0.05249999836087227	0.04800000041723251	0.9919999837875366	0.7581706047058105	0.0	244.0	371.0	0.0	0.0	0.0	0.0	0.0	0.0	null	null	null	null	null	null	null	null	335.0	335.0	332.0	332.0	332.0	336.0	333.0	332.0	334.0	333.0	336.0	
Sun Jun 04 21:14:00 UTC 2017	0.0	1.048293376E9	2626.637939453125	0.0	2.5731072E7	0.0	2.0	9.59168512E8	38.542728424072266	0.0	0.0	1.062293504E9	1.050124288E9	0.0	0.0	0.07100000232458115	0.045249998569488525	0.051500000059604645	0.9919999837875366	0.7558044791221619	0.0	244.0	371.0	0.0	0.0	0.0	0.0	0.0	0.0	null	null	null	null	null	null	null	null	338.0	333.0	337.0	336.0	337.0	337.0	334.0	338.0	337.0	333.0	338.0	
Sun Jun 04 21:13:00 UTC 2017	0.0	1.048293376E9	2261.52197265625	0.0	2.5731072E7	0.0	2.0	9.59168512E8	46.786293029785156	0.0	0.0	1.061281792E9	1.050124288E9	0.0	0.0	0.08174999803304672	0.057500001043081284	0.04675000160932541	0.9922500252723694	0.7573485970497131	0.0	244.0	371.0	0.0	0.0	0.0	0.0	0.0	0.0	null	null	null	null	null	null	null	null	335.0	336.0	337.0	337.0	334.0	333.0	336.0	336.0	338.0	336.0	334.0	
Sun Jun 04 21:12:00 UTC 2017	0.0	1.047281664E9	2261.52197265625	0.0	2.5731072E7	0.0	3.0	9.59168512E8	47.30989074707031	0.0	0.0	1.061281792E9	1.050124288E9	0.0	0.0	0.07474999874830246	0.05000000074505806	0.04975000023841858	0.9922500252723694	0.755713939666748	0.0	244.0	371.0	0.0	0.0	0.0	0.0	0.0	0.0	null	null	null	null	null	null	null	null	333.0	339.0	331.0	334.0	335.0	334.0	335.0	336.0	334.0	334.0	337.0	
Sun Jun 04 21:11:00 UTC 2017	0.0	1.047281664E9	2780.349365234375	0.0	2.5731072E7	0.0	2.0	9.5895552E8	52.692962646484375	0.0	0.0	1.061281792E9	1.050124288E9	0.0	0.0	0.09399999678134918	0.048500001430511475	0.04399999976158142	0.9919999837875366	0.7558093667030334	0.0	244.0	371.0	0.0	0.0	0.0	0.0	0.0	0.0	null	null	null	null	null	null	null	null	336.0	335.0	339.0	334.0	336.0	336.0	337.0	336.0	335.0	334.0	335.0	
Sun Jun 04 21:10:00 UTC 2017	0.0	1.048293376E9	2780.349365234375	0.0	2.5731072E7	0.0	3.0	9.59307776E8	36.67839050292969	0.0	0.0	1.062293504E9	1.050124288E9	0.0	0.0	0.08100000023841858	0.05324999988079071	0.05050000175833702	0.9919999837875366	0.7556846141815186	0.0	244.0	371.0	0.0	0.0	0.0	0.0	0.0	0.0	null	null	null	null	null	null	null	null	335.0	331.0	333.0	334.0	335.0	337.0	336.0	333.0	333.0	332.0	337.0	
Sun Jun 04 21:09:00 UTC 2017	0.0	1.047281664E9	2780.349365234375	0.0	2.5731072E7	0.0	2.0	9.58779392E8	38.98819351196289	0.0	0.0	1.062293504E9	1.050124288E9	0.0	0.0	0.06825000047683716	0.04800000041723251	0.048500001430511475	0.9917500019073486	0.7556895017623901	0.0	244.0	371.0	0.0	0.0	0.0	0.0	0.0	0.0	null	null	null	null	null	null	null	null	339.0	336.0	339.0	337.0	335.0	337.0	336.0	336.0	335.0	337.0	336.0	
Sun Jun 04 21:08:00 UTC 2017	0.0	1.048293376E9	2780.349365234375	0.0	2.5731072E7	0.0	4.0	9.58779392E8	41.45911407470703	0.0	0.0	1.062293504E9	1.050124288E9	0.0	0.0	0.08150000125169754	0.05050000175833702	0.048250000923871994	0.9917500019073486	0.7579225301742554	0.0	244.0	371.0	0.0	0.0	0.0	0.0	0.0	0.0	null	null	null	null	null	null	null	null	333.0	334.0	335.0	330.0	335.0	337.0	333.0	332.0	332.0	335.0	337.0	
Sun Jun 04 21:07:00 UTC 2017	0.0	1.048293376E9	2167.45849609375	0.0	2.5731072E7	0.0	5.0	9.58779392E8	41.45911407470703	0.0	0.0	1.062293504E9	1.050124288E9	0.0	null	0.07150000333786011	0.052000001072883606	0.04899999871850014	0.9922500252723694	0.7557403445243835	0.0	244.0	371.0	0.0	0.0	0.0	0.0	0.0	0.0	null	null	null	null	null	null	null	null	338.0	335.0	334.0	336.0	337.0	335.0	336.0	337.0	338.0	333.0	335.0	
Sun Jun 04 21:06:00 UTC 2017	0.0	1.047281664E9	2167.45849609375	0.0	2.5731072E7	0.0	2.0	9.58570496E8	33.380977630615234	0.0	0.0	1.062293504E9	1.050124288E9	0.0	0.0	0.07500000298023224	0.04899999871850014	0.0442500002682209	0.9922500252723694	0.7556919455528259	0.0	244.0	371.0	0.0	0.0	0.0	0.0	0.0	0.0	null	null	null	null	null	null	null	null	334.0	336.0	335.0	335.0	336.0	335.0	333.0	334.0	332.0	334.0	337.0	
Sun Jun 04 21:05:00 UTC 2017	0.0	1.048293376E9	2167.45849609375	0.0	2.5731072E7	0.0	3.0	9.58660608E8	33.380977630615234	0.0	0.0	1.061281792E9	1.050124288E9	0.0	0.0	0.08500000089406967	0.04749999940395355	0.051249999552965164	0.9919999837875366	0.7563426494598389	0.0	244.0	371.0	0.0	0.0	0.0	0.0	0.0	0.0	null	null	null	null	null	null	null	null	334.0	335.0	336.0	336.0	334.0	338.0	334.0	337.0	337.0	333.0	335.0	
Sun Jun 04 21:04:00 UTC 2017	0.0	1.047281664E9	2167.45849609375	0.0	2.5731072E7	0.0	2.0	9.58570496E8	33.380977630615234	0.0	0.0	1.061281792E9	1.050124288E9	0.0	0.0	0.0689999982714653	0.054499998688697815	0.0494999997317791	0.9922500252723694	0.7556757926940918	0.0	244.0	371.0	0.0	0.0	0.0	0.0	0.0	0.0	null	null	null	null	null	null	null	null	337.0	337.0	338.0	334.0	331.0	336.0	339.0	334.0	336.0	336.0	337.0	
Sun Jun 04 21:03:00 UTC 2017	0.0	1.048293376E9	2167.45849609375	0.0	2.5731072E7	0.0	3.0	9.58570496E8	33.380977630615234	0.0	0.0	1.061281792E9	1.050124288E9	0.0	0.0	0.07175000011920929	0.04600000008940697	0.04675000160932541	0.9922500252723694	0.7565960884094238	0.0	244.0	371.0	0.0	0.0	0.0	0.0	0.0	0.0	null	null	null	null	null	null	null	null	333.0	332.0	336.0	336.0	336.0	336.0	334.0	336.0	334.0	335.0	335.0	
Sun Jun 04 21:02:00 UTC 2017	0.0	1.048293376E9	2507.72705078125	0.0	2.5731072E7	0.0	3.0	9.58570496E8	33.380977630615234	0.0	0.0	1.062293504E9	1.050124288E9	0.0	0.0	0.07625000178813934	0.05649999901652336	0.048250000923871994	0.9919999837875366	0.755635678768158	0.0	244.0	371.0	0.0	0.0	0.0	0.0	0.0	0.0	null	null	null	null	null	null	null	null	334.0	336.0	334.0	335.0	335.0	338.0	335.0	337.0	336.0	336.0	331.0	
Sun Jun 04 21:01:00 UTC 2017	0.0	1.047281664E9	2507.72705078125	0.0	2.5731072E7	0.0	3.0	9.5844352E8	56.86221694946289	0.0	0.0	1.061281792E9	1.050124288E9	0.0	0.0	0.10724999755620956	0.051500000059604645	0.04800000041723251	0.9922500252723694	0.7556288242340088	0.0	244.0	371.0	0.0	0.0	0.0	0.0	0.0	0.0	null	null	null	null	null	null	null	null	335.0	334.0	331.0	337.0	335.0	336.0	336.0	335.0	336.0	338.0	335.0	
Sun Jun 04 21:00:00 UTC 2017	0.0	1.047281664E9	2947.89111328125	0.0	2.5731072E7	0.0	2.0	9.5844352E8	44.63368606567383	0.0	0.0	1.061281792E9	1.050124288E9	0.0	0.0	0.06700000166893005	0.045249998569488525	0.04399999976158142	0.9919999837875366	0.7556033730506897	0.0	244.0	371.0	0.0	0.0	0.0	0.0	0.0	0.0	null	null	null	null	null	null	null	null	336.0	335.0	337.0	332.0	336.0	335.0	338.0	337.0	337.0	332.0	335.0	
Sun Jun 04 20:59:00 UTC 2017	0.0	1.047281664E9	2688.557861328125	0.0	2.5731072E7	0.0	2.0	9.58353408E8	40.5305290222168	0.0	0.0	1.062293504E9	1.050124288E9	0.0	0.0	0.08425000309944153	0.05525000020861626	0.05050000175833702	0.9919999837875366	0.7555891871452332	0.0	244.0	371.0	0.0	0.0	0.0	0.0	0.0	0.0	null	null	null	null	null	null	null	null	333.0	336.0	337.0	334.0	337.0	333.0	332.0	338.0	334.0	337.0	333.0	
Sun Jun 04 20:58:00 UTC 2017	0.0	1.048293376E9	2688.557861328125	0.0	2.5731072E7	0.0	2.0	9.583616E8	40.5305290222168	0.0	0.0	1.061281792E9	1.050124288E9	0.0	0.0	0.06925000250339508	0.04625000059604645	0.04500000178813934	0.9919999837875366	0.7556674480438232	0.0	244.0	371.0	0.0	0.0	0.0	0.0	0.0	0.0	null	null	null	null	null	null	null	null	335.0	336.0	335.0	333.0	334.0	334.0	339.0	336.0	337.0	335.0	335.0	
Sun Jun 04 20:57:00 UTC 2017	0.0	1.048293376E9	2514.958984375	0.0	2.5731072E7	0.0	3.0	9.583616E8	61.328369140625	1.0	1.0	1.061281792E9	1.050124288E9	0.0	0.0	0.07850000262260437	0.0560000017285347	0.051249999552965164	0.9919999837875366	0.7556512951850891	0.0	244.0	371.0	0.0	0.0	0.0	0.0	0.0	0.0	null	null	null	null	null	null	null	null	335.0	337.0	335.0	335.0	339.0	337.0	333.0	334.0	335.0	335.0	337.0	
Sun Jun 04 20:56:00 UTC 2017	0.0	1.048293376E9	2875.83642578125	0.0	2.5731072E7	0.0	2.0	9.58148608E8	41.25806427001953	0.0	0.0	1.061281792E9	1.050124288E9	0.0	0.0	0.07575000077486038	0.0560000017285347	0.04600000008940697	0.9919999837875366	0.755629301071167	0.0	244.0	371.0	0.0	0.0	0.0	0.0	0.0	0.0	null	null	null	null	null	null	null	null	335.0	337.0	335.0	336.0	333.0	334.0	337.0	335.0	336.0	336.0	337.0	
Sun Jun 04 20:55:00 UTC 2017	0.0	1.048293376E9	2736.97900390625	0.0	2.5731072E7	0.0	2.0	9.5823872E8	41.25806427001953	0.0	0.0	1.062293504E9	1.050124288E9	0.0	0.0	0.07774999737739563	0.04625000059604645	0.05050000175833702	0.9919999837875366	0.7556302547454834	0.0	244.0	371.0	0.0	0.0	0.0	0.0	0.0	0.0	null	null	null	null	null	null	null	null	336.0	334.0	336.0	334.0	335.0	335.0	334.0	335.0	336.0	340.0	336.0	
Sun Jun 04 20:54:00 UTC 2017	0.0	1.047281664E9	2736.97900390625	0.0	2.5731072E7	0.0	2.0	9.58148608E8	41.25806427001953	0.0	0.0	1.061281792E9	1.050124288E9	0.0	0.0	0.0677499994635582	0.04800000041723251	0.04800000041723251	0.9919999837875366	0.7556131482124329	0.0	244.0	371.0	0.0	0.0	0.0	0.0	0.0	0.0	null	null	null	null	null	null	null	null	337.0	338.0	335.0	335.0	333.0	331.0	334.0	335.0	335.0	335.0	334.0	
Sun Jun 04 20:53:00 UTC 2017	0.0	1.047281664E9	3000.20703125	0.0	2.5731072E7	0.0	2.0	9.58148608E8	41.25806427001953	0.0	0.0	1.062293504E9	1.050124288E9	0.0	0.0	0.07975000143051147	0.054749999195337296	0.048500001430511475	0.9919999837875366	0.7556062936782837	0.0	244.0	371.0	0.0	0.0	0.0	0.0	0.0	0.0	null	null	null	null	null	null	null	null	334.0	334.0	334.0	338.0	335.0	335.0	336.0	334.0	333.0	334.0	337.0	
Sun Jun 04 20:52:00 UTC 2017	0.0	1.047281664E9	2463.515380859375	0.0	2.5731072E7	0.0	3.0	9.58148608E8	56.77921676635742	0.0	0.0	1.061281792E9	1.050124288E9	0.0	0.0	0.07774999737739563	0.045249998569488525	0.0430000014603138	0.9919999837875366	0.7555896639823914	0.0	244.0	371.0	0.0	0.0	0.0	0.0	0.0	0.0	null	null	null	null	null	null	null	null	336.0	334.0	340.0	334.0	336.0	338.0	334.0	334.0	339.0	335.0	335.0	
Sun Jun 04 20:51:00 UTC 2017	0.0	1.047281664E9	2601.08154296875	0.0	2.5731072E7	0.0	5.0	9.57939712E8	56.77921676635742	0.0	0.0	1.061281792E9	1.050124288E9	0.0	0.0	0.1067499965429306	0.05400000140070915	0.05225000157952309	0.9917500019073486	0.7554957270622253	0.0	244.0	371.0	0.0	0.0	0.0	0.0	0.0	0.0	null	null	null	null	null	null	null	null	332.0	334.0	335.0	336.0	335.0	338.0	340.0	333.0	334.0	335.0	333.0	
Sun Jun 04 20:50:00 UTC 2017	0.0	1.048293376E9	2601.08154296875	0.0	2.5731072E7	0.0	2.0	9.58029824E8	56.77921676635742	0.0	0.0	1.061281792E9	1.050124288E9	0.0	null	0.07349999994039536	0.04774999991059303	0.04899999871850014	0.9919999837875366	0.7554795742034912	0.0	244.0	371.0	0.0	0.0	0.0	0.0	0.0	0.0	null	null	null	null	null	null	null	null	335.0	331.0	336.0	339.0	332.0	332.0	336.0	334.0	336.0	332.0	335.0	
Sun Jun 04 20:49:00 UTC 2017	0.0	1.047281664E9	2601.08154296875	0.0	2.5731072E7	0.0	3.0	9.57939712E8	30.988189697265625	0.0	0.0	1.062293504E9	1.050124288E9	0.0	null	0.07500000298023224	0.054249998182058334	0.04924999922513962	0.9919999837875366	0.7554781436920166	0.0	244.0	371.0	0.0	0.0	0.0	0.0	0.0	0.0	null	null	null	null	null	null	null	null	339.0	337.0	335.0	335.0	337.0	336.0	332.0	339.0	336.0	340.0	334.0	
Sun Jun 04 20:48:00 UTC 2017	0.0	1.048293376E9	2601.08154296875	0.0	2.5731072E7	0.0	2.0	9.57939712E8	29.620817184448242	0.0	0.0	1.061281792E9	1.050124288E9	0.0	null	0.0794999971985817	0.051750000566244125	0.04699999839067459	0.9922500252723694	0.7554600238800049	0.0	244.0	371.0	0.0	0.0	0.0	0.0	0.0	0.0	null	null	null	null	null	null	null	null	335.0	336.0	336.0	332.0	332.0	337.0	341.0	334.0	338.0	334.0	334.0	
Sun Jun 04 20:47:00 UTC 2017	0.0	1.047281664E9	2601.08154296875	0.0	2.5731072E7	0.0	3.0	9.57939712E8	29.620817184448242	0.0	0.0	1.062293504E9	1.050124288E9	0.0	null	0.07599999755620956	0.04625000059604645	0.04625000059604645	0.9919999837875366	0.7554394602775574	0.0	244.0	371.0	0.0	0.0	0.0	0.0	0.0	0.0	null	null	null	null	null	null	null	null	332.0	336.0	333.0	339.0	338.0	339.0	336.0	337.0	332.0	337.0	338.0	
Sun Jun 04 20:46:00 UTC 2017	0.0	1.048293376E9	2601.08154296875	0.0	2.5731072E7	0.0	2.0	9.5772672E8	48.436012268066406	0.0	0.0	1.062293504E9	1.050124288E9	0.0	null	0.0677499994635582	0.04924999922513962	0.04675000160932541	0.9917500019073486	0.755441427230835	0.0	244.0	371.0	0.0	0.0	0.0	0.0	0.0	0.0	null	null	null	null	null	null	null	null	336.0	337.0	340.0	337.0	333.0	336.0	334.0	336.0	334.0	333.0	336.0	
Sun Jun 04 20:45:00 UTC 2017	0.0	1.047281664E9	2601.08154296875	0.0	2.5731072E7	0.0	3.0	9.57816832E8	48.436012268066406	0.0	0.0	1.061281792E9	1.050124288E9	0.0	null	0.0794999971985817	0.05225000157952309	0.052000001072883606	0.9922500252723694	0.7554184198379517	0.0	244.0	371.0	0.0	0.0	0.0	0.0	0.0	0.0	null	null	null	null	null	null	null	null	336.0	333.0	336.0	333.0	336.0	333.0	338.0	336.0	336.0	333.0	332.0	
Sun Jun 04 20:44:00 UTC 2017	0.0	1.048293376E9	2601.08154296875	0.0	2.5731072E7	0.0	2.0	9.5772672E8	48.436012268066406	0.0	0.0	1.062293504E9	1.050124288E9	0.0	null	0.07225000113248825	0.05525000020861626	0.04724999889731407	0.9922500252723694	0.7567785978317261	0.0	244.0	371.0	0.0	0.0	0.0	0.0	0.0	0.0	null	null	null	null	null	null	null	null	335.0	334.0	337.0	341.0	337.0	339.0	338.0	332.0	334.0	336.0	336.0	
Sun Jun 04 20:43:00 UTC 2017	0.0	1.047281664E9	2601.08154296875	0.0	2.5731072E7	0.0	2.0	9.5772672E8	46.581092834472656	0.0	0.0	1.061281792E9	1.050124288E9	0.0	null	0.08100000023841858	0.045499999076128006	0.04650000110268593	0.9922500252723694	0.7553895711898804	0.0	244.0	371.0	0.0	0.0	0.0	0.0	0.0	0.0	null	null	null	null	null	null	null	null	333.0	335.0	335.0	334.0	338.0	334.0	337.0	336.0	338.0	337.0	332.0	
Sun Jun 04 20:42:00 UTC 2017	0.0	1.048293376E9	2601.08154296875	0.0	2.5731072E7	0.0	5.0	9.5772672E8	50.72962188720703	0.0	0.0	1.062293504E9	1.050124288E9	0.0	null	0.07199999690055847	0.0572500005364418	0.04749999940395355	0.9922500252723694	0.756212055683136	0.0	244.0	371.0	0.0	0.0	0.0	0.0	0.0	0.0	null	null	null	null	null	null	null	null	339.0	337.0	336.0	336.0	333.0	335.0	336.0	333.0	334.0	337.0	339.0	
Sun Jun 04 20:41:00 UTC 2017	0.0	1.048293376E9	3341.591796875	0.0	2.5731072E7	0.0	4.0	9.57513728E8	37.98639678955078	0.0	0.0	1.062293504E9	1.050124288E9	0.0	0.0	0.11050000041723251	0.045499999076128006	0.04450000077486038	0.9919999837875366	0.755370020866394	0.0	244.0	371.0	0.0	0.0	0.0	0.0	0.0	0.0	null	null	null	null	null	null	null	null	336.0	333.0	334.0	340.0	341.0	336.0	335.0	339.0	334.0	334.0	332.0	
Sun Jun 04 20:40:00 UTC 2017	0.0	1.048293376E9	2736.343017578125	0.0	2.5731072E7	0.0	6.0	9.5760384E8	37.98639678955078	0.0	0.0	1.061281792E9	1.050124288E9	0.0	0.0	0.06975000351667404	0.05525000020861626	0.05900000035762787	0.9919999837875366	0.7553704977035522	0.0	244.0	371.0	0.0	0.0	0.0	0.0	0.0	0.0	null	null	null	null	null	null	null	null	336.0	332.0	339.0	334.0	334.0	334.0	337.0	332.0	335.0	337.0	332.0	
Sun Jun 04 20:39:00 UTC 2017	0.0	1.048293376E9	3216.2802734375	0.0	2.5731072E7	0.0	5.0	9.57513728E8	37.98639678955078	0.0	0.0	1.062293504E9	1.050124288E9	0.0	0.0	0.08250000327825546	0.04475000128149986	0.05550000071525574	0.9919999837875366	0.7553523778915405	0.0	244.0	371.0	0.0	0.0	0.0	0.0	0.0	0.0	null	null	null	null	null	null	null	null	335.0	337.0	334.0	338.0	335.0	336.0	334.0	339.0	333.0	333.0	336.0	
Sun Jun 04 20:38:00 UTC 2017	0.0	1.047281664E9	3216.2802734375	0.0	2.5731072E7	0.0	4.0	9.57513728E8	49.08375930786133	0.0	0.0	1.062293504E9	1.050124288E9	0.0	0.0	0.06525000184774399	0.05249999836087227	0.04874999821186066	0.9919999837875366	0.7576230764389038	0.0	244.0	371.0	0.0	0.0	0.0	0.0	0.0	0.0	null	null	null	null	null	null	null	null	334.0	335.0	340.0	337.0	336.0	335.0	336.0	336.0	335.0	335.0	338.0	
Sun Jun 04 20:37:00 UTC 2017	0.0	1.047281664E9	2781.36669921875	0.0	2.5731072E7	0.0	2.0	9.57513728E8	49.08375930786133	0.0	0.0	1.061281792E9	1.050124288E9	0.0	0.0	0.07925000041723251	0.05624999850988388	0.042500000447034836	0.9919999837875366	0.7576191425323486	0.0	244.0	371.0	0.0	0.0	0.0	0.0	0.0	0.0	null	null	null	null	null	null	null	null	336.0	336.0	333.0	334.0	339.0	336.0	330.0	337.0	336.0	338.0	334.0	
Sun Jun 04 20:36:00 UTC 2017	0.0	1.048293376E9	2781.36669921875	0.0	2.5731072E7	0.0	2.0	9.57304832E8	49.08375930786133	0.0	0.0	1.061281792E9	1.050124288E9	0.0	0.0	0.07275000214576721	0.04675000160932541	0.04899999871850014	0.9919999837875366	0.7553161978721619	0.0	244.0	371.0	0.0	0.0	0.0	0.0	0.0	0.0	null	null	null	null	null	null	null	null	331.0	337.0	339.0	336.0	336.0	338.0	335.0	334.0	332.0	334.0	333.0	
Sun Jun 04 20:35:00 UTC 2017	0.0	1.047281664E9	2781.36669921875	0.0	2.5731072E7	0.0	2.0	9.57390848E8	49.08375930786133	0.0	0.0	1.062293504E9	1.050124288E9	0.0	0.0	0.07074999809265137	0.05050000175833702	0.04975000023841858	0.9919999837875366	0.7557770609855652	0.0	244.0	371.0	0.0	0.0	0.0	0.0	0.0	0.0	null	null	null	null	null	null	null	null	338.0	333.0	332.0	334.0	337.0	335.0	333.0	335.0	337.0	337.0	336.0	
Sun Jun 04 20:34:00 UTC 2017	0.0	1.047281664E9	1733.4268798828125	0.0	2.5731072E7	0.0	2.0	9.57300736E8	67.66738891601562	0.0	0.0	1.061281792E9	1.050124288E9	0.0	0.0	0.07524999976158142	0.05350000038743019	0.0442500002682209	0.9917500019073486	0.7552931904792786	0.0	244.0	371.0	0.0	0.0	0.0	0.0	0.0	0.0	null	null	null	null	null	null	null	null	331.0	335.0	338.0	335.0	333.0	337.0	336.0	337.0	335.0	337.0	337.0	
Sun Jun 04 20:33:00 UTC 2017	0.0	1.048293376E9	1733.4268798828125	0.0	2.5731072E7	0.0	2.0	9.57300736E8	45.01751708984375	1.0	0.0	1.062293504E9	1.050124288E9	0.0	0.0	0.07824999839067459	0.051249999552965164	0.04625000059604645	0.9919999837875366	0.7553861141204834	0.0	244.0	371.0	0.0	0.0	0.0	0.0	0.0	0.0	null	null	null	null	null	null	null	null	334.0	335.0	333.0	335.0	335.0	334.0	336.0	335.0	335.0	332.0	332.0	
Sun Jun 04 20:32:00 UTC 2017	0.0	1.047281664E9	1733.4268798828125	0.0	2.5731072E7	0.0	4.0	9.57300736E8	45.10529327392578	0.0	0.0	1.061281792E9	1.050124288E9	0.0	0.0	0.07750000059604645	0.05550000071525574	0.048250000923871994	0.9919999837875366	0.7575443387031555	0.0	244.0	371.0	0.0	0.0	0.0	0.0	0.0	0.0	null	null	null	null	null	null	null	null	336.0	335.0	335.0	336.0	337.0	336.0	336.0	336.0	337.0	336.0	338.0	
Sun Jun 04 20:31:00 UTC 2017	0.0	1.047281664E9	3071.528076171875	0.0	2.5731072E7	0.0	5.0	9.5709184E8	34.286983489990234	0.0	0.0	1.061281792E9	1.050124288E9	0.0	0.0	0.09925000369548798	0.045499999076128006	0.051249999552965164	0.9922500252723694	0.7552369236946106	0.0	244.0	371.0	0.0	0.0	0.0	0.0	0.0	0.0	null	null	null	null	null	null	null	null	333.0	334.0	337.0	335.0	337.0	334.0	335.0	336.0	335.0	337.0	337.0	
Sun Jun 04 20:30:00 UTC 2017	0.0	1.048293376E9	3071.528076171875	0.0	2.5731072E7	0.0	2.0	9.57181952E8	34.286983489990234	0.0	0.0	1.061281792E9	1.050124288E9	0.0	0.0	0.07450000196695328	0.05375000089406967	0.04724999889731407	0.9922500252723694	0.7552188038825989	0.0	244.0	371.0	0.0	0.0	0.0	0.0	0.0	0.0	null	null	null	null	null	null	null	null	335.0	334.0	336.0	335.0	334.0	335.0	335.0	333.0	335.0	334.0	335.0	
Sun Jun 04 20:29:00 UTC 2017	0.0	1.048293376E9	2520.498291015625	0.0	2.5731072E7	0.0	3.0	9.5709184E8	34.286983489990234	0.0	0.0	1.061281792E9	1.050124288E9	0.0	0.0	0.07874999940395355	0.04899999871850014	0.04899999871850014	0.9917500019073486	0.7551923990249634	0.0	244.0	371.0	0.0	0.0	0.0	0.0	0.0	0.0	null	null	null	null	null	null	null	null	337.0	334.0	335.0	335.0	336.0	336.0	335.0	339.0	335.0	336.0	333.0	
Sun Jun 04 20:28:00 UTC 2017	0.0	1.047281664E9	2520.498291015625	0.0	2.5731072E7	0.0	2.0	9.5709184E8	34.286983489990234	0.0	0.0	1.061281792E9	1.050124288E9	0.0	null	0.0754999965429306	0.054749999195337296	0.04699999839067459	0.9919999837875366	0.7574816942214966	0.0	244.0	371.0	0.0	0.0	0.0	0.0	0.0	0.0	null	null	null	null	null	null	null	null	335.0	336.0	337.0	336.0	337.0	333.0	336.0	335.0	335.0	337.0	337.0	
Sun Jun 04 20:27:00 UTC 2017	0.0	1.048293376E9	2520.498291015625	0.0	2.5731072E7	0.0	3.0	9.5709184E8	56.93397521972656	0.0	0.0	1.061281792E9	1.050124288E9	0.0	0.0	0.07325000315904617	0.050999999046325684	0.05000000074505806	0.9922500252723694	0.755193829536438	0.0	244.0	371.0	0.0	0.0	0.0	0.0	0.0	0.0	null	null	null	null	null	null	null	null	338.0	334.0	338.0	332.0	334.0	336.0	332.0	334.0	335.0	334.0	334.0	
Sun Jun 04 20:26:00 UTC 2017	0.0	1.048293376E9	2666.005126953125	0.0	2.5731072E7	0.0	2.0	9.56878848E8	34.78884506225586	0.0	0.0	1.062293504E9	1.050124288E9	0.0	0.0	0.0754999965429306	0.04600000008940697	0.04800000041723251	0.9922500252723694	0.7551733255386353	0.0	244.0	371.0	0.0	0.0	0.0	0.0	0.0	0.0	null	null	null	null	null	null	null	null	335.0	337.0	334.0	337.0	336.0	336.0	335.0	336.0	333.0	336.0	336.0	
Sun Jun 04 20:25:00 UTC 2017	0.0	1.048293376E9	2858.583251953125	0.0	2.5731072E7	0.0	2.0	9.5696896E8	55.66287612915039	0.0	0.0	1.061281792E9	1.050124288E9	0.0	0.0	0.07874999940395355	0.05249999836087227	0.045249998569488525	0.9919999837875366	0.7551414966583252	0.0	244.0	371.0	0.0	0.0	0.0	0.0	0.0	0.0	null	null	null	null	null	null	null	null	336.0	335.0	336.0	333.0	335.0	335.0	334.0	333.0	337.0	334.0	333.0	
Sun Jun 04 20:24:00 UTC 2017	0.0	1.048293376E9	2507.202392578125	0.0	2.5731072E7	0.0	4.0	9.56878848E8	67.28533172607422	0.0	0.0	1.061281792E9	1.050124288E9	0.0	0.0	0.07500000298023224	0.054499998688697815	0.04874999821186066	0.9919999837875366	0.7574039101600647	0.0	244.0	371.0	0.0	0.0	0.0	0.0	0.0	0.0	null	null	null	null	null	null	null	null	335.0	335.0	333.0	336.0	332.0	333.0	337.0	337.0	335.0	336.0	338.0	
Sun Jun 04 20:23:00 UTC 2017	0.0	1.048293376E9	3000.693603515625	0.0	2.5731072E7	0.0	3.0	9.56878848E8	67.28533172607422	0.0	0.0	1.062293504E9	1.050124288E9	0.0	0.0	0.07774999737739563	0.04724999889731407	0.04699999839067459	0.9917500019073486	0.7551009058952332	0.0	244.0	371.0	0.0	0.0	0.0	0.0	0.0	0.0	null	null	null	null	null	null	null	null	337.0	334.0	339.0	337.0	338.0	336.0	335.0	333.0	335.0	337.0	334.0	
Sun Jun 04 20:22:00 UTC 2017	0.0	1.048293376E9	2542.078125	0.0	2.5731072E7	0.0	3.0	9.56878848E8	56.550601959228516	0.0	0.0	1.061281792E9	1.050124288E9	0.0	0.0	0.0677499994635582	0.05550000071525574	0.05050000175833702	0.9919999837875366	0.7550964951515198	0.0	244.0	371.0	0.0	0.0	0.0	0.0	0.0	0.0	null	null	null	null	null	null	null	null	336.0	336.0	336.0	336.0	336.0	335.0	336.0	335.0	336.0	338.0	336.0	
Sun Jun 04 20:21:00 UTC 2017	0.0	1.048293376E9	2979.6796875	0.0	2.5731072E7	0.0	2.0	9.56665856E8	34.21467208862305	0.0	0.0	1.062293504E9	1.050124288E9	0.0	0.0	0.10350000113248825	0.05050000175833702	0.04699999839067459	0.9919999837875366	0.7550823092460632	0.0	244.0	371.0	0.0	0.0	0.0	0.0	0.0	0.0	null	null	null	null	null	null	null	null	338.0	332.0	333.0	334.0	334.0	334.0	335.0	335.0	336.0	336.0	333.0	
Sun Jun 04 20:20:00 UTC 2017	0.0	1.047281664E9	2979.6796875	0.0	2.5731072E7	0.0	2.0	9.56755968E8	34.21467208862305	0.0	0.0	1.061281792E9	1.050124288E9	0.0	0.0	0.07074999809265137	0.05225000157952309	0.048250000923871994	0.9917500019073486	0.7565452456474304	0.0	244.0	371.0	0.0	0.0	0.0	0.0	0.0	0.0	null	null	null	null	null	null	null	null	334.0	335.0	338.0	333.0	337.0	331.0	336.0	335.0	335.0	333.0	339.0	
Sun Jun 04 20:19:00 UTC 2017	0.0	1.047281664E9	2575.59423828125	0.0	2.5731072E7	0.0	3.0	9.56665856E8	34.21467208862305	0.0	0.0	1.061281792E9	1.050124288E9	0.0	0.0	0.07649999856948853	0.05025000125169754	0.04724999889731407	0.9922500252723694	0.7550641894340515	0.0	244.0	371.0	0.0	0.0	0.0	0.0	0.0	0.0	null	null	null	null	null	null	null	null	337.0	340.0	339.0	337.0	335.0	335.0	335.0	335.0	335.0	336.0	335.0	
Sun Jun 04 20:18:00 UTC 2017	0.0	1.048293376E9	2575.59423828125	0.0	2.5731072E7	0.0	2.0	9.56665856E8	34.21467208862305	0.0	0.0	1.062293504E9	1.050124288E9	0.0	0.0	0.07050000131130219	0.04724999889731407	0.04899999871850014	0.9922500252723694	0.7550490498542786	0.0	244.0	371.0	0.0	0.0	0.0	0.0	0.0	0.0	null	null	null	null	null	null	null	null	335.0	335.0	333.0	338.0	334.0	335.0	337.0	333.0	340.0	337.0	334.0	
Sun Jun 04 20:17:00 UTC 2017	0.0	1.047281664E9	2575.59423828125	0.0	2.5731072E7	0.0	2.0	9.56665856E8	56.39994812011719	0.0	0.0	1.062293504E9	1.050124288E9	0.0	0.0	0.07774999737739563	0.04800000041723251	0.045249998569488525	0.9919999837875366	0.7573378682136536	0.0	244.0	371.0	0.0	0.0	0.0	0.0	0.0	0.0	null	null	null	null	null	null	null	null	334.0	334.0	335.0	335.0	332.0	338.0	334.0	333.0	337.0	334.0	339.0	
Sun Jun 04 20:16:00 UTC 2017	0.0	1.048293376E9	2575.59423828125	0.0	2.5731072E7	0.0	2.0	9.56547072E8	56.39994812011719	0.0	0.0	1.062293504E9	1.050124288E9	0.0	null	0.08049999922513962	0.054999999701976776	0.04774999991059303	0.9922500252723694	0.757291853427887	0.0	244.0	371.0	0.0	0.0	0.0	0.0	0.0	0.0	null	null	null	null	null	null	null	null	337.0	338.0	337.0	335.0	336.0	335.0	338.0	335.0	331.0	337.0	336.0	
Sun Jun 04 20:15:00 UTC 2017	0.0	1.048293376E9	3039.81005859375	0.0	2.5731072E7	0.0	3.0	9.56547072E8	29.084367752075195	0.0	0.0	1.061281792E9	1.050124288E9	0.0	null	0.07800000160932541	0.05050000175833702	0.05299999937415123	0.9922500252723694	0.7549448013305664	0.0	244.0	371.0	0.0	0.0	0.0	0.0	0.0	0.0	null	null	null	null	null	null	null	null	336.0	335.0	336.0	339.0	334.0	333.0	332.0	334.0	340.0	338.0	335.0	
Sun Jun 04 20:14:00 UTC 2017	0.0	1.048293376E9	2402.132568359375	0.0	2.5731072E7	0.0	2.0	9.5645696E8	45.17487716674805	0.0	0.0	1.061281792E9	1.050124288E9	0.0	0.0	0.07225000113248825	0.051750000566244125	0.0494999997317791	0.9919999837875366	0.7549418807029724	0.0	244.0	371.0	0.0	0.0	0.0	0.0	0.0	0.0	null	null	null	null	null	null	null	null	335.0	332.0	335.0	332.0	336.0	335.0	340.0	335.0	334.0	334.0	334.0	
Sun Jun 04 20:13:00 UTC 2017	0.0	1.048293376E9	2724.74658203125	0.0	2.5731072E7	0.0	2.0	9.5645696E8	45.17487716674805	0.0	0.0	1.062293504E9	1.050124288E9	0.0	0.0	0.06849999725818634	0.045249998569488525	0.041749998927116394	0.9919999837875366	0.7549267411231995	0.0	244.0	371.0	0.0	0.0	0.0	0.0	0.0	0.0	null	null	null	null	null	null	null	null	333.0	335.0	335.0	335.0	340.0	338.0	334.0	336.0	335.0	336.0	339.0	
Sun Jun 04 20:12:00 UTC 2017	0.0	1.048293376E9	3149.949462890625	0.0	2.5731072E7	0.0	2.0	9.5645696E8	45.17487716674805	0.0	0.0	1.062293504E9	1.050124288E9	0.0	0.0	0.08224999904632568	0.0572500005364418	0.04924999922513962	0.9919999837875366	0.7566386461257935	0.0	244.0	371.0	0.0	0.0	0.0	0.0	0.0	0.0	null	null	null	null	null	null	null	null	337.0	338.0	335.0	337.0	333.0	334.0	334.0	336.0	333.0	334.0	337.0	
Sun Jun 04 20:11:00 UTC 2017	0.0	1.048293376E9	2304.766357421875	0.0	2.5731072E7	0.0	5.0	9.56592128E8	45.17487716674805	0.0	0.0	1.062293504E9	1.050124288E9	0.0	0.0	0.10050000250339508	0.04600000008940697	0.051750000566244125	0.9919999837875366	0.7549081444740295	0.0	244.0	371.0	0.0	0.0	0.0	0.0	0.0	0.0	null	null	null	null	null	null	null	null	334.0	335.0	336.0	333.0	338.0	338.0	339.0	340.0	337.0	337.0	335.0	
Sun Jun 04 20:10:00 UTC 2017	0.0	1.048293376E9	3085.08837890625	0.0	2.5731072E7	0.0	5.0	9.56592128E8	46.83681106567383	0.0	0.0	1.062293504E9	1.050124288E9	0.0	0.0	0.08049999922513962	0.05225000157952309	0.0494999997317791	0.9919999837875366	0.7548909783363342	0.0	244.0	371.0	0.0	0.0	0.0	0.0	0.0	0.0	null	null	null	null	null	null	null	null	339.0	332.0	338.0	335.0	335.0	332.0	333.0	332.0	334.0	336.0	336.0	
Sun Jun 04 20:09:00 UTC 2017	0.0	1.048293376E9	3023.8466796875	0.0	2.5731072E7	0.0	2.0	9.56403712E8	46.83681106567383	0.0	0.0	1.062293504E9	1.050124288E9	0.0	0.0	0.07450000196695328	0.04724999889731407	0.042500000447034836	0.9919999837875366	0.7548719048500061	0.0	244.0	371.0	0.0	0.0	0.0	0.0	0.0	0.0	null	null	null	null	null	null	null	null	332.0	335.0	333.0	332.0	336.0	337.0	336.0	337.0	338.0	334.0	334.0	
Sun Jun 04 20:08:00 UTC 2017	0.0	1.048293376E9	2806.43896484375	0.0	2.5731072E7	0.0	2.0	9.56403712E8	48.5980339050293	0.0	0.0	1.062293504E9	1.050124288E9	0.0	0.0	0.07400000095367432	0.054499998688697815	0.04975000023841858	0.9919999837875366	0.7548567652702332	0.0	244.0	371.0	0.0	0.0	0.0	0.0	0.0	0.0	null	null	null	null	null	null	null	null	337.0	333.0	336.0	336.0	336.0	336.0	337.0	337.0	333.0	334.0	338.0	
Sun Jun 04 20:07:00 UTC 2017	0.0	1.048293376E9	2724.91357421875	0.0	2.5731072E7	0.0	2.0	9.56403712E8	30.91852378845215	0.0	0.0	1.062293504E9	1.050124288E9	0.0	null	0.07699999958276749	0.052000001072883606	0.04749999940395355	0.9922500252723694	0.7548298239707947	0.0	244.0	371.0	0.0	0.0	0.0	0.0	0.0	0.0	null	null	null	null	null	null	null	null	335.0	334.0	339.0	336.0	336.0	336.0	338.0	331.0	337.0	335.0	334.0	
Sun Jun 04 20:06:00 UTC 2017	0.0	1.048293376E9	2530.40478515625	0.0	2.5731072E7	0.0	2.0	9.56280832E8	30.91852378845215	0.0	1.0	1.062293504E9	1.050124288E9	0.0	0.0	0.07850000262260437	0.05225000157952309	0.04924999922513962	0.9917500019073486	0.7571015357971191	0.0	244.0	371.0	0.0	0.0	0.0	0.0	0.0	0.0	null	null	null	null	null	null	null	null	334.0	332.0	332.0	335.0	334.0	334.0	334.0	336.0	334.0	334.0	335.0	
Sun Jun 04 20:05:00 UTC 2017	0.0	1.047281664E9	2530.40478515625	0.0	2.5731072E7	0.0	2.0	9.56280832E8	30.91852378845215	0.0	0.0	1.061281792E9	1.050124288E9	0.0	0.0	0.0729999989271164	0.04625000059604645	0.04800000041723251	0.9919999837875366	0.7570966482162476	0.0	244.0	371.0	0.0	0.0	0.0	0.0	0.0	0.0	null	null	null	null	null	null	null	null	337.0	334.0	334.0	332.0	335.0	330.0	338.0	334.0	331.0	335.0	336.0	
Sun Jun 04 20:04:00 UTC 2017	0.0	1.048293376E9	2530.40478515625	0.0	2.5731072E7	0.0	4.0	9.5619072E8	46.17057418823242	0.0	0.0	1.062293504E9	1.050124288E9	0.0	0.0	0.07524999976158142	0.05299999937415123	0.04574999958276749	0.9919999837875366	0.7547833323478699	0.0	244.0	371.0	0.0	0.0	0.0	0.0	0.0	0.0	null	null	null	null	null	null	null	null	334.0	334.0	336.0	334.0	337.0	335.0	335.0	336.0	337.0	335.0	334.0	
Sun Jun 04 20:03:00 UTC 2017	0.0	1.047281664E9	2530.40478515625	0.0	2.5731072E7	0.0	2.0	9.5619072E8	43.6036376953125	0.0	0.0	1.062293504E9	1.050124288E9	0.0	0.0	0.0702499970793724	0.05299999937415123	0.0507499985396862	0.9919999837875366	0.7548748254776001	0.0	244.0	371.0	0.0	0.0	0.0	0.0	0.0	0.0	null	null	null	null	null	null	null	null	336.0	337.0	334.0	335.0	335.0	336.0	338.0	336.0	335.0	334.0	338.0	
Sun Jun 04 20:02:00 UTC 2017	0.0	1.048293376E9	2530.40478515625	0.0	2.5731072E7	0.0	2.0	9.5619072E8	43.6036376953125	0.0	0.0	1.061281792E9	1.050124288E9	0.0	0.0	0.07850000262260437	0.051500000059604645	0.04724999889731407	0.9919999837875366	0.7548733949661255	0.0	244.0	371.0	0.0	0.0	0.0	0.0	0.0	0.0	null	null	null	null	null	null	null	null	336.0	333.0	339.0	337.0	335.0	332.0	340.0	333.0	337.0	335.0	337.0	
Sun Jun 04 20:01:00 UTC 2017	0.0	1.047281664E9	2530.40478515625	0.0	2.5731072E7	0.0	2.0	9.55977728E8	43.6036376953125	2.0	0.0	1.061281792E9	1.050124288E9	0.0	0.0	0.10649999976158142	0.05375000089406967	0.04975000023841858	0.9919999837875366	0.7548131942749023	0.0	244.0	371.0	0.0	0.0	0.0	0.0	0.0	0.0	null	null	null	null	null	null	null	null	333.0	337.0	337.0	336.0	337.0	334.0	330.0	336.0	333.0	337.0	334.0	
Sun Jun 04 20:00:00 UTC 2017	0.0	1.048293376E9	2530.40478515625	0.0	2.5731072E7	0.0	2.0	9.5606784E8	43.6036376953125	1.0	1.0	1.062293504E9	1.050124288E9	0.0	0.0	0.07374999672174454	0.048250000923871994	0.04650000110268593	0.9917500019073486	0.7547990083694458	0.0	244.0	371.0	0.0	0.0	0.0	0.0	0.0	0.0	null	null	null	null	null	null	null	null	333.0	338.0	331.0	335.0	336.0	339.0	336.0	333.0	336.0	336.0	333.0	
Sun Jun 04 19:59:00 UTC 2017	0.0	1.047281664E9	2530.40478515625	0.0	2.5731072E7	0.0	2.0	9.55977728E8	43.6036376953125	1.0	1.0	1.062293504E9	1.050124288E9	0.0	0.0	0.07500000298023224	0.05324999988079071	0.04650000110268593	0.9919999837875366	0.7547931671142578	0.0	244.0	371.0	0.0	0.0	0.0	0.0	0.0	0.0	null	null	null	null	null	null	null	null	336.0	333.0	339.0	335.0	336.0	334.0	330.0	335.0	335.0	335.0	337.0	
Sun Jun 04 19:58:00 UTC 2017	0.0	1.047281664E9	2881.812744140625	0.0	2.5731072E7	0.0	2.0	9.55977728E8	43.6036376953125	1.0	0.0	1.062293504E9	1.050124288E9	0.0	0.0	0.07000000029802322	0.054999999701976776	0.051500000059604645	0.9919999837875366	0.7547770142555237	0.0	244.0	371.0	0.0	0.0	0.0	0.0	0.0	0.0	null	null	null	null	null	null	null	null	331.0	334.0	338.0	337.0	333.0	336.0	336.0	336.0	336.0	335.0	336.0	
Sun Jun 04 19:57:00 UTC 2017	0.0	1.048293376E9	2881.812744140625	0.0	2.5731072E7	0.0	6.0	9.55977728E8	46.75187683105469	1.0	1.0	1.061281792E9	1.050124288E9	0.0	0.0	0.08124999701976776	0.048250000923871994	0.045249998569488525	0.9919999837875366	0.754752516746521	0.0	244.0	371.0	0.0	0.0	0.0	0.0	0.0	0.0	null	null	null	null	null	null	null	null	337.0	337.0	331.0	335.0	338.0	334.0	335.0	332.0	335.0	335.0	334.0	
Sun Jun 04 19:56:00 UTC 2017	0.0	1.047281664E9	2881.812744140625	0.0	2.5731072E7	0.0	6.0	9.55768832E8	46.75187683105469	0.0	0.0	1.061281792E9	1.050124288E9	0.0	0.0	0.06875000149011612	0.05649999901652336	0.054749999195337296	0.9919999837875366	0.754737377166748	0.0	244.0	371.0	0.0	0.0	0.0	0.0	0.0	0.0	null	null	null	null	null	null	null	null	331.0	337.0	337.0	335.0	334.0	335.0	335.0	334.0	337.0	334.0	335.0	
Sun Jun 04 19:55:00 UTC 2017	0.0	1.047281664E9	2622.61865234375	0.0	2.5731072E7	0.0	3.0	9.55858944E8	46.75187683105469	0.0	0.0	1.062293504E9	1.050124288E9	0.0	0.0	0.07925000041723251	0.05249999836087227	0.04675000160932541	0.9917500019073486	0.754652202129364	0.0	244.0	371.0	0.0	0.0	0.0	0.0	0.0	0.0	null	null	null	null	null	null	null	null	336.0	337.0	333.0	333.0	338.0	334.0	334.0	337.0	335.0	337.0	336.0	
Sun Jun 04 19:54:00 UTC 2017	0.0	1.047281664E9	3142.713623046875	0.0	2.5731072E7	0.0	5.0	9.55768832E8	46.854827880859375	0.0	1.0	1.062293504E9	1.050124288E9	0.0	0.0	0.0637499988079071	0.04749999940395355	0.04500000178813934	0.9922500252723694	0.7546361088752747	0.0	244.0	371.0	0.0	0.0	0.0	0.0	0.0	0.0	null	null	null	null	null	null	null	null	335.0	335.0	338.0	335.0	332.0	337.0	335.0	333.0	336.0	334.0	337.0	
Sun Jun 04 19:53:00 UTC 2017	0.0	1.047281664E9	2764.953125	0.0	2.5731072E7	0.0	3.0	9.55768832E8	46.854827880859375	2.0	2.0	1.062293504E9	1.050124288E9	0.0	0.0	0.07599999755620956	0.05824999883770943	0.04675000160932541	0.9919999837875366	0.7546062469482422	0.0	244.0	371.0	0.0	0.0	0.0	0.0	0.0	0.0	null	null	null	null	null	null	null	null	336.0	334.0	331.0	334.0	335.0	333.0	340.0	336.0	334.0	337.0	333.0	
Sun Jun 04 19:52:00 UTC 2017	0.0	1.047281664E9	2568.18408203125	0.0	2.5731072E7	0.0	3.0	9.55768832E8	46.854827880859375	0.0	1.0	1.061281792E9	1.050124288E9	0.0	0.0	0.0807500034570694	0.050999999046325684	0.05225000157952309	0.9919999837875366	0.7545856833457947	0.0	244.0	371.0	0.0	0.0	0.0	0.0	0.0	0.0	null	null	null	null	null	null	null	null	336.0	337.0	339.0	337.0	337.0	334.0	334.0	334.0	335.0	337.0	335.0	
Sun Jun 04 19:51:00 UTC 2017	0.0	1.047281664E9	2682.113037109375	0.0	2.5731072E7	0.0	3.0	9.5555584E8	46.854827880859375	0.0	0.0	1.061281792E9	1.050124288E9	0.0	0.0	0.09425000101327896	0.05375000089406967	0.04450000077486038	0.9922500252723694	0.7545680999755859	0.0	244.0	371.0	0.0	0.0	0.0	0.0	0.0	0.0	null	null	null	null	null	null	null	null	340.0	335.0	335.0	337.0	336.0	339.0	335.0	337.0	338.0	335.0	336.0	
Sun Jun 04 19:50:00 UTC 2017	0.0	1.048293376E9	2682.113037109375	0.0	2.5731072E7	0.0	2.0	9.55645952E8	46.854827880859375	0.0	0.0	1.062293504E9	1.050124288E9	0.0	0.0	0.0702499970793724	0.0494999997317791	0.05375000089406967	0.9919999837875366	0.754548966884613	0.0	244.0	371.0	0.0	0.0	0.0	0.0	0.0	0.0	null	null	null	null	null	null	null	null	331.0	337.0	336.0	334.0	336.0	336.0	335.0	332.0	337.0	337.0	334.0	
Sun Jun 04 19:49:00 UTC 2017	0.0	1.047281664E9	2682.113037109375	0.0	2.5731072E7	0.0	2.0	9.5555584E8	46.854827880859375	0.0	0.0	1.061281792E9	1.050124288E9	0.0	0.0	0.07724999636411667	0.051249999552965164	0.048250000923871994	0.9917500019073486	0.7545088529586792	0.0	244.0	371.0	0.0	0.0	0.0	0.0	0.0	0.0	null	null	null	null	null	null	null	null	340.0	334.0	334.0	335.0	338.0	336.0	336.0	341.0	334.0	333.0	335.0	
Sun Jun 04 19:48:00 UTC 2017	0.0	1.047281664E9	2708.64306640625	0.0	2.5731072E7	0.0	2.0	9.5555584E8	36.90974044799805	0.0	0.0	1.062293504E9	1.050124288E9	0.0	0.0	0.0754999965429306	0.051750000566244125	0.051249999552965164	0.9917500019073486	0.7545328736305237	0.0	244.0	371.0	0.0	0.0	0.0	0.0	0.0	0.0	null	null	null	null	null	null	null	null	334.0	334.0	339.0	332.0	336.0	332.0	336.0	336.0	333.0	332.0	338.0	
Sun Jun 04 19:47:00 UTC 2017	0.0	1.048293376E9	2708.64306640625	0.0	2.5731072E7	0.0	5.0	9.5555584E8	36.90974044799805	2.0	2.0	1.061281792E9	1.050124288E9	0.0	0.0	0.07275000214576721	0.05225000157952309	0.04500000178813934	0.9919999837875366	0.7545211315155029	0.0	244.0	371.0	0.0	0.0	0.0	0.0	0.0	0.0	null	null	null	null	null	null	null	null	336.0	333.0	336.0	336.0	337.0	335.0	334.0	334.0	337.0	336.0	337.0	
Sun Jun 04 19:46:00 UTC 2017	0.0	1.047281664E9	2708.64306640625	0.0	2.5731072E7	0.0	4.0	9.55342848E8	46.53337860107422	0.0	1.0	1.062293504E9	1.050124288E9	0.0	0.0	0.08100000023841858	0.05299999937415123	0.048250000923871994	0.9922500252723694	0.7545201182365417	0.0	244.0	371.0	0.0	0.0	0.0	0.0	0.0	0.0	null	null	null	null	null	null	null	null	339.0	335.0	335.0	336.0	336.0	339.0	335.0	338.0	331.0	331.0	333.0	
Sun Jun 04 19:45:00 UTC 2017	0.0	1.048293376E9	2708.64306640625	0.0	2.5731072E7	0.0	6.0	9.5543296E8	57.360107421875	2.0	1.0	1.061281792E9	1.050124288E9	0.0	0.0	0.0742499977350235	0.05350000038743019	0.04600000008940697	0.9917500019073486	0.754493236541748	0.0	244.0	371.0	0.0	0.0	0.0	0.0	0.0	0.0	null	null	null	null	null	null	null	null	335.0	336.0	332.0	337.0	334.0	331.0	333.0	340.0	335.0	336.0	335.0	
Sun Jun 04 19:44:00 UTC 2017	0.0	1.047281664E9	2708.64306640625	0.0	2.5731072E7	0.0	5.0	9.55342848E8	49.60298538208008	0.0	0.0	1.062293504E9	1.050124288E9	0.0	0.0	0.07275000214576721	0.05299999937415123	0.048500001430511475	0.9919999837875366	0.7544770836830139	0.0	244.0	371.0	0.0	0.0	0.0	0.0	0.0	0.0	null	null	null	null	null	null	null	null	338.0	335.0	336.0	338.0	332.0	338.0	335.0	338.0	337.0	331.0	341.0	
Sun Jun 04 19:43:00 UTC 2017	0.0	1.048293376E9	2708.64306640625	0.0	2.5731072E7	0.0	2.0	9.55342848E8	37.54632568359375	0.0	0.0	1.062293504E9	1.050124288E9	0.0	0.0	0.08375000208616257	0.04699999839067459	0.05025000125169754	0.9919999837875366	0.7567653656005859	0.0	244.0	371.0	0.0	0.0	0.0	0.0	0.0	0.0	null	null	null	null	null	null	null	null	340.0	333.0	338.0	333.0	336.0	336.0	334.0	333.0	331.0	339.0	336.0	
Sun Jun 04 19:42:00 UTC 2017	0.0	1.047281664E9	2708.64306640625	0.0	2.5731072E7	0.0	3.0	9.55342848E8	37.54632568359375	0.0	0.0	1.061281792E9	1.050124288E9	0.0	0.0	0.06549999862909317	0.05350000038743019	0.04774999991059303	0.9917500019073486	0.7544853687286377	0.0	244.0	371.0	0.0	0.0	0.0	0.0	0.0	0.0	null	null	null	null	null	null	null	null	337.0	333.0	332.0	338.0	339.0	337.0	334.0	337.0	340.0	330.0	339.0	
Sun Jun 04 19:41:00 UTC 2017	0.0	1.047281664E9	2399.148193359375	0.0	2.5731072E7	0.0	2.0	9.55133952E8	38.95403289794922	0.0	0.0	1.062293504E9	1.050124288E9	0.0	0.0	0.10849999636411667	0.04349999874830246	0.04600000008940697	0.9917500019073486	0.7544800043106079	0.0	244.0	371.0	0.0	0.0	0.0	0.0	0.0	0.0	null	null	null	null	null	null	null	null	333.0	336.0	337.0	335.0	332.0	335.0	336.0	336.0	332.0	339.0	333.0	
Sun Jun 04 19:40:00 UTC 2017	0.0	1.047281664E9	3126.25830078125	0.0	2.5731072E7	0.0	3.0	9.55224064E8	38.95403289794922	0.0	0.0	1.062293504E9	1.050124288E9	0.0	0.0	0.07575000077486038	0.051249999552965164	0.04749999940395355	0.9922500252723694	0.755237877368927	0.0	244.0	371.0	0.0	0.0	0.0	0.0	0.0	0.0	null	null	null	null	null	null	null	null	337.0	334.0	331.0	338.0	336.0	336.0	339.0	336.0	336.0	330.0	337.0	
Sun Jun 04 19:39:00 UTC 2017	0.0	1.047281664E9	3062.365966796875	0.0	2.5731072E7	0.0	2.0	9.55133952E8	38.95403289794922	0.0	0.0	1.062293504E9	1.050124288E9	0.0	0.0	0.07874999940395355	0.054249998182058334	0.048500001430511475	0.9919999837875366	0.7544633746147156	0.0	244.0	371.0	0.0	0.0	0.0	0.0	0.0	0.0	null	null	null	null	null	null	null	null	337.0	334.0	335.0	332.0	339.0	331.0	332.0	335.0	333.0	337.0	332.0	
Sun Jun 04 19:38:00 UTC 2017	0.0	1.047281664E9	3286.215087890625	0.0	2.5731072E7	0.0	2.0	9.55133952E8	48.83795928955078	0.0	0.0	1.062293504E9	1.050124288E9	0.0	0.0	0.07175000011920929	0.0494999997317791	0.04699999839067459	0.9919999837875366	0.7566225528717041	0.0	244.0	371.0	0.0	0.0	0.0	0.0	0.0	0.0	null	null	null	null	null	null	null	null	341.0	336.0	334.0	339.0	332.0	336.0	339.0	337.0	333.0	333.0	336.0	
Sun Jun 04 19:37:00 UTC 2017	0.0	1.048293376E9	3286.215087890625	0.0	2.5731072E7	0.0	2.0	9.55133952E8	55.68026351928711	0.0	0.0	1.062293504E9	1.050124288E9	0.0	0.0	0.07225000113248825	0.04774999991059303	0.04699999839067459	0.9917500019073486	0.7543655037879944	0.0	244.0	371.0	0.0	0.0	0.0	0.0	0.0	0.0	null	null	null	null	null	null	null	null	335.0	332.0	333.0	338.0	340.0	331.0	331.0	336.0	337.0	336.0	338.0	
Sun Jun 04 19:36:00 UTC 2017	0.0	1.047281664E9	3286.215087890625	0.0	2.5731072E7	0.0	4.0	9.5492096E8	44.30220413208008	0.0	0.0	1.061281792E9	1.050124288E9	0.0	0.0	0.07275000214576721	0.052000001072883606	0.0494999997317791	0.9919999837875366	0.754364550113678	0.0	244.0	371.0	0.0	0.0	0.0	0.0	0.0	0.0	null	null	null	null	null	null	null	null	336.0	337.0	333.0	334.0	334.0	337.0	338.0	333.0	333.0	335.0	336.0	
Sun Jun 04 19:35:00 UTC 2017	0.0	1.047281664E9	2434.627685546875	0.0	2.5731072E7	0.0	4.0	9.55011072E8	63.614017486572266	0.0	0.0	1.061281792E9	1.050124288E9	0.0	0.0	0.08524999767541885	0.05375000089406967	0.0507499985396862	0.9919999837875366	0.7566337585449219	0.0	244.0	371.0	0.0	0.0	0.0	0.0	0.0	0.0	null	null	null	null	null	null	null	null	332.0	334.0	334.0	336.0	339.0	336.0	333.0	338.0	336.0	337.0	339.0	
Sun Jun 04 19:34:00 UTC 2017	0.0	1.047281664E9	2556.667236328125	0.0	2.5731072E7	0.0	4.0	9.5492096E8	63.614017486572266	0.0	0.0	1.061281792E9	1.050124288E9	0.0	null	0.06975000351667404	0.04724999889731407	0.04475000128149986	0.9919999837875366	0.7566298842430115	0.0	244.0	371.0	0.0	0.0	0.0	0.0	0.0	0.0	null	null	null	null	null	null	null	null	337.0	335.0	339.0	335.0	333.0	335.0	334.0	337.0	335.0	335.0	337.0	
Sun Jun 04 19:33:00 UTC 2017	0.0	1.048293376E9	2556.667236328125	0.0	2.5731072E7	0.0	2.0	9.5492096E8	47.15516662597656	0.0	0.0	1.062293504E9	1.050124288E9	0.0	null	0.0742499977350235	0.048250000923871994	0.048250000923871994	0.9919999837875366	0.7543156147003174	0.0	244.0	371.0	0.0	0.0	0.0	0.0	0.0	0.0	null	null	null	null	null	null	null	null	337.0	334.0	332.0	333.0	336.0	334.0	335.0	334.0	334.0	336.0	337.0	
Sun Jun 04 19:32:00 UTC 2017	0.0	1.047281664E9	2556.667236328125	0.0	2.5731072E7	0.0	3.0	9.5492096E8	44.075111389160156	0.0	0.0	1.062293504E9	1.050124288E9	0.0	0.0	0.07524999976158142	0.054249998182058334	0.048250000923871994	0.9919999837875366	0.7542744874954224	0.0	244.0	371.0	0.0	0.0	0.0	0.0	0.0	0.0	null	null	null	null	null	null	null	null	334.0	334.0	336.0	338.0	333.0	336.0	337.0	334.0	336.0	334.0	336.0	
Sun Jun 04 19:31:00 UTC 2017	0.0	1.048293376E9	2556.667236328125	0.0	2.5731072E7	0.0	2.0	9.54707968E8	57.99559020996094	1.0	1.0	1.061281792E9	1.050124288E9	0.0	0.0	0.09375	0.048250000923871994	0.04675000160932541	0.9917500019073486	0.7542686462402344	0.0	244.0	371.0	0.0	0.0	0.0	0.0	0.0	0.0	null	null	null	null	null	null	null	null	337.0	334.0	334.0	333.0	334.0	333.0	335.0	338.0	335.0	337.0	335.0	
Sun Jun 04 19:30:00 UTC 2017	0.0	1.047281664E9	2556.667236328125	0.0	2.5731072E7	0.0	2.0	9.5479808E8	43.20534133911133	0.0	0.0	1.061281792E9	1.050124288E9	0.0	0.0	0.07225000113248825	0.0560000017285347	0.0507499985396862	0.9919999837875366	0.7542358636856079	0.0	244.0	371.0	0.0	0.0	0.0	0.0	0.0	0.0	null	null	null	null	null	null	null	null	333.0	332.0	336.0	334.0	335.0	339.0	334.0	332.0	333.0	334.0	333.0	
Sun Jun 04 19:29:00 UTC 2017	0.0	1.047281664E9	2380.106689453125	0.0	2.5731072E7	0.0	2.0	9.54707968E8	40.29461669921875	0.0	0.0	1.061281792E9	1.050124288E9	0.0	0.0	0.08124999701976776	0.04699999839067459	0.04500000178813934	0.9919999837875366	0.7542294859886169	0.0	244.0	371.0	0.0	0.0	0.0	0.0	0.0	0.0	null	null	null	null	null	null	null	null	334.0	336.0	335.0	336.0	338.0	336.0	333.0	335.0	336.0	336.0	339.0	
Sun Jun 04 19:28:00 UTC 2017	0.0	1.048293376E9	2380.106689453125	0.0	2.5731072E7	0.0	2.0	9.54707968E8	32.080894470214844	0.0	0.0	1.061281792E9	1.050124288E9	0.0	0.0	0.07349999994039536	0.051500000059604645	0.04975000023841858	0.9919999837875366	0.7542138695716858	0.0	244.0	371.0	0.0	0.0	0.0	0.0	0.0	0.0	null	null	null	null	null	null	null	null	336.0	335.0	337.0	336.0	336.0	333.0	338.0	339.0	337.0	334.0	331.0	
Sun Jun 04 19:27:00 UTC 2017	0.0	1.048293376E9	2427.75732421875	0.0	2.5731072E7	0.0	3.0	9.54707968E8	50.38050842285156	0.0	0.0	1.062293504E9	1.050124288E9	0.0	0.0	0.0754999965429306	0.05000000074505806	0.04975000023841858	0.9917500019073486	0.7561474442481995	0.0	244.0	371.0	0.0	0.0	0.0	0.0	0.0	0.0	null	null	null	null	null	null	null	null	335.0	334.0	334.0	335.0	332.0	336.0	334.0	334.0	334.0	337.0	336.0	
Sun Jun 04 19:26:00 UTC 2017	0.0	1.047281664E9	2427.75732421875	0.0	2.5731072E7	0.0	4.0	9.5449088E8	50.38050842285156	0.0	0.0	1.062293504E9	1.050124288E9	0.0	0.0	0.0689999982714653	0.04975000023841858	0.045249998569488525	0.9919999837875366	0.7541800737380981	0.0	244.0	371.0	0.0	0.0	0.0	0.0	0.0	0.0	null	null	null	null	null	null	null	null	335.0	337.0	337.0	334.0	338.0	335.0	336.0	335.0	333.0	336.0	338.0	
Sun Jun 04 19:25:00 UTC 2017	0.0	1.047281664E9	2909.19873046875	0.0	2.5731072E7	0.0	3.0	9.54580992E8	50.38050842285156	0.0	0.0	1.061281792E9	1.050124288E9	0.0	0.0	0.08399999886751175	0.05324999988079071	0.051750000566244125	0.9917500019073486	0.7548723816871643	0.0	244.0	371.0	0.0	0.0	0.0	0.0	0.0	0.0	null	null	null	null	null	null	null	null	334.0	334.0	330.0	332.0	334.0	335.0	337.0	337.0	333.0	335.0	334.0	
Sun Jun 04 19:24:00 UTC 2017	1.0	1.048293376E9	2909.19873046875	0.0	2.5731072E7	0.0	2.0	9.5449088E8	30.984132766723633	0.0	0.0	1.061281792E9	1.050124288E9	0.0	null	0.07575000077486038	0.05274999886751175	0.04399999976158142	0.9917500019073486	0.7564165592193604	0.0	244.0	371.0	0.0	0.0	0.0	0.0	0.0	0.0	null	null	null	null	null	null	null	null	333.0	336.0	338.0	339.0	333.0	335.0	335.0	332.0	335.0	336.0	338.0	
Sun Jun 04 19:23:00 UTC 2017	0.0	1.048293376E9	2557.79345703125	0.0	2.5731072E7	0.0	3.0	9.5449088E8	30.984132766723633	0.0	0.0	1.061281792E9	1.050124288E9	0.0	0.0	0.07175000011920929	0.04749999940395355	0.05050000175833702	0.9919999837875366	0.7553274035453796	0.0	244.0	371.0	0.0	0.0	0.0	0.0	0.0	0.0	null	null	null	null	null	null	null	null	336.0	334.0	335.0	333.0	337.0	334.0	337.0	337.0	332.0	334.0	336.0	
Sun Jun 04 19:22:00 UTC 2017	0.0	1.047281664E9	2557.79345703125	0.0	2.5731072E7	0.0	3.0	9.5449088E8	41.46562576293945	0.0	0.0	1.061281792E9	1.050124288E9	0.0	0.0	0.07524999976158142	0.04975000023841858	0.04899999871850014	0.9919999837875366	0.7541345953941345	0.0	244.0	371.0	0.0	0.0	0.0	0.0	0.0	0.0	null	null	null	null	null	null	null	null	333.0	336.0	336.0	335.0	334.0	339.0	335.0	335.0	340.0	337.0	335.0	
Sun Jun 04 19:21:00 UTC 2017	0.0	1.048293376E9	2557.79345703125	0.0	2.5731072E7	0.0	5.0	9.54372096E8	41.46562576293945	0.0	0.0	1.062293504E9	1.050124288E9	0.0	0.0	0.09149999916553497	0.048500001430511475	0.04650000110268593	0.9917500019073486	0.7541164755821228	0.0	244.0	371.0	0.0	0.0	0.0	0.0	0.0	0.0	null	null	null	null	null	null	null	null	336.0	334.0	334.0	333.0	336.0	331.0	335.0	333.0	334.0	333.0	333.0	
Sun Jun 04 19:20:00 UTC 2017	0.0	1.047281664E9	2557.79345703125	0.0	2.5731072E7	0.0	3.0	9.54372096E8	41.46562576293945	0.0	0.0	1.061281792E9	1.050124288E9	0.0	0.0	0.0807500034570694	0.054499998688697815	0.045499999076128006	0.9915000200271606	0.754114031791687	0.0	244.0	371.0	0.0	0.0	0.0	0.0	0.0	0.0	null	null	null	null	null	null	null	null	335.0	331.0	333.0	337.0	339.0	337.0	335.0	333.0	339.0	336.0	333.0	
Sun Jun 04 19:19:00 UTC 2017	0.0	1.048293376E9	2557.79345703125	0.0	2.5731072E7	0.0	2.0	9.54281984E8	38.6637077331543	0.0	0.0	1.062293504E9	1.050124288E9	0.0	0.0	0.08275000005960464	0.04874999821186066	0.04699999839067459	0.9919999837875366	0.7563592791557312	0.0	244.0	371.0	0.0	0.0	0.0	0.0	0.0	0.0	null	null	null	null	null	null	null	null	332.0	339.0	339.0	334.0	335.0	334.0	336.0	337.0	335.0	336.0	331.0	
Sun Jun 04 19:18:00 UTC 2017	0.0	1.047281664E9	2557.79345703125	0.0	2.5731072E7	0.0	2.0	9.54281984E8	38.6637077331543	0.0	0.0	1.062293504E9	1.050124288E9	0.0	0.0	0.07199999690055847	0.05350000038743019	0.048500001430511475	0.9919999837875366	0.7553161978721619	0.0	244.0	371.0	0.0	0.0	0.0	0.0	0.0	0.0	null	null	null	null	null	null	null	null	337.0	333.0	336.0	338.0	338.0	338.0	336.0	337.0	334.0	334.0	340.0	
Sun Jun 04 19:17:00 UTC 2017	0.0	1.047281664E9	2817.27294921875	0.0	2.5731072E7	0.0	2.0	9.54281984E8	38.6637077331543	0.0	0.0	1.062293504E9	1.050124288E9	0.0	0.0	0.07074999809265137	0.04800000041723251	0.04924999922513962	0.9917500019073486	0.7540494203567505	0.0	244.0	371.0	0.0	0.0	0.0	0.0	0.0	0.0	null	null	null	null	null	null	null	null	331.0	336.0	335.0	334.0	336.0	332.0	336.0	336.0	338.0	335.0	338.0	
Sun Jun 04 19:16:00 UTC 2017	0.0	1.047281664E9	2851.91064453125	0.0	2.5731072E7	0.0	2.0	9.54159104E8	39.08355712890625	0.0	1.0	1.062293504E9	1.050124288E9	0.0	null	0.08275000005960464	0.05249999836087227	0.04749999940395355	0.9919999837875366	0.7563490271568298	0.0	244.0	371.0	0.0	0.0	0.0	0.0	0.0	0.0	null	null	null	null	null	null	null	null	335.0	333.0	333.0	333.0	335.0	338.0	336.0	333.0	334.0	335.0	333.0	
Sun Jun 04 19:15:00 UTC 2017	0.0	1.048293376E9	2851.91064453125	0.0	2.5731072E7	0.0	2.0	9.54159104E8	39.08355712890625	0.0	1.0	1.061281792E9	1.050124288E9	0.0	null	0.07199999690055847	0.050999999046325684	0.04699999839067459	0.9917500019073486	0.7541125416755676	0.0	244.0	371.0	0.0	0.0	0.0	0.0	0.0	0.0	null	null	null	null	null	null	null	null	335.0	334.0	339.0	334.0	336.0	334.0	334.0	338.0	332.0	336.0	335.0	
Sun Jun 04 19:14:00 UTC 2017	0.0	1.047281664E9	2851.91064453125	0.0	2.5731072E7	0.0	3.0	9.54068992E8	41.46229934692383	0.0	0.0	1.061281792E9	1.050124288E9	0.0	0.0	0.07275000214576721	0.05299999937415123	0.05225000157952309	0.9917500019073486	0.7563514709472656	0.0	244.0	371.0	0.0	0.0	0.0	0.0	0.0	0.0	null	null	null	null	null	null	null	null	335.0	339.0	334.0	335.0	335.0	335.0	334.0	334.0	335.0	331.0	341.0	
Sun Jun 04 19:13:00 UTC 2017	0.0	1.047281664E9	2366.461669921875	0.0	2.5731072E7	0.0	3.0	9.54068992E8	41.46229934692383	0.0	0.0	1.062293504E9	1.050124288E9	0.0	0.0	0.07450000196695328	0.045499999076128006	0.04625000059604645	0.9917500019073486	0.7540616989135742	0.0	244.0	371.0	0.0	0.0	0.0	0.0	0.0	0.0	null	null	null	null	null	null	null	null	333.0	335.0	337.0	333.0	334.0	336.0	335.0	334.0	336.0	335.0	338.0	
Sun Jun 04 19:12:00 UTC 2017	0.0	1.047281664E9	2617.260498046875	0.0	2.5731072E7	0.0	4.0	9.54068992E8	41.46229934692383	0.0	0.0	1.061281792E9	1.050124288E9	0.0	0.0	0.06825000047683716	0.0560000017285347	0.04749999940395355	0.9917500019073486	0.7540450692176819	0.0	244.0	371.0	0.0	0.0	0.0	0.0	0.0	0.0	null	null	null	null	null	null	null	null	335.0	334.0	332.0	336.0	340.0	333.0	337.0	336.0	338.0	339.0	335.0	
Sun Jun 04 19:11:00 UTC 2017	0.0	1.048293376E9	2617.260498046875	0.0	2.5731072E7	0.0	5.0	9.53856E8	44.20630645751953	1.0	1.0	1.062293504E9	1.050124288E9	0.0	0.0	0.10100000351667404	0.05000000074505806	0.04924999922513962	0.9917500019073486	0.7563167214393616	0.0	244.0	371.0	0.0	0.0	0.0	0.0	0.0	0.0	null	null	null	null	null	null	null	null	337.0	336.0	334.0	337.0	334.0	337.0	333.0	337.0	334.0	334.0	334.0	
Sun Jun 04 19:10:00 UTC 2017	0.0	1.048293376E9	2327.598876953125	0.0	2.5731072E7	0.0	3.0	9.54208256E8	41.692501068115234	1.0	1.0	1.062293504E9	1.050124288E9	0.0	0.0	0.08100000023841858	0.05525000020861626	0.04574999958276749	0.9917500019073486	0.7540254592895508	0.0	244.0	371.0	0.0	0.0	0.0	0.0	0.0	0.0	null	null	null	null	null	null	null	null	336.0	332.0	335.0	334.0	338.0	334.0	336.0	334.0	332.0	334.0	330.0	
Sun Jun 04 19:09:00 UTC 2017	0.0	1.047281664E9	2327.598876953125	0.0	2.5731072E7	0.0	5.0	9.53839616E8	44.07255554199219	0.0	0.0	1.061281792E9	1.050124288E9	0.0	0.0	0.07649999856948853	0.05025000125169754	0.04800000041723251	0.9922500252723694	0.7539946436882019	0.0	244.0	371.0	0.0	0.0	0.0	0.0	0.0	0.0	null	null	null	null	null	null	null	null	335.0	336.0	335.0	336.0	333.0	336.0	334.0	334.0	336.0	337.0	337.0	
Sun Jun 04 19:08:00 UTC 2017	0.0	1.047281664E9	2876.3623046875	0.0	2.5731072E7	0.0	2.0	9.53839616E8	44.07255554199219	0.0	0.0	1.062293504E9	1.050124288E9	0.0	0.0	0.07124999910593033	0.04625000059604645	0.04774999991059303	0.9915000200271606	0.7539144158363342	0.0	244.0	371.0	0.0	0.0	0.0	0.0	0.0	0.0	null	null	null	null	null	null	null	null	333.0	335.0	337.0	335.0	335.0	335.0	336.0	334.0	340.0	332.0	339.0	
Sun Jun 04 19:07:00 UTC 2017	0.0	1.048293376E9	2876.3623046875	0.0	2.5731072E7	0.0	2.0	9.53839616E8	44.07255554199219	0.0	0.0	1.062293504E9	1.050124288E9	0.0	0.0	0.07800000160932541	0.054749999195337296	0.052000001072883606	0.9917500019073486	0.7561689615249634	0.0	244.0	371.0	0.0	0.0	0.0	0.0	0.0	0.0	null	null	null	null	null	null	null	null	335.0	335.0	337.0	335.0	333.0	338.0	335.0	336.0	334.0	334.0	333.0	
Sun Jun 04 19:06:00 UTC 2017	0.0	1.048293376E9	2635.78515625	0.0	2.5731072E7	0.0	2.0	9.53626624E8	44.07255554199219	0.0	0.0	1.062293504E9	1.050124288E9	0.0	0.0	0.07349999994039536	0.04625000059604645	0.04699999839067459	0.9922500252723694	0.7538072466850281	0.0	244.0	371.0	0.0	0.0	0.0	0.0	0.0	0.0	null	null	null	null	null	null	null	null	335.0	335.0	333.0	337.0	333.0	331.0	337.0	334.0	336.0	338.0	339.0	
Sun Jun 04 19:05:00 UTC 2017	0.0	1.048293376E9	2802.22265625	0.0	2.5731072E7	0.0	3.0	9.53716736E8	44.07255554199219	2.0	1.0	1.061281792E9	1.050124288E9	0.0	0.0	0.07124999910593033	0.05649999901652336	0.05000000074505806	0.9922500252723694	0.7548914551734924	0.0	244.0	371.0	0.0	0.0	0.0	0.0	0.0	0.0	null	null	null	null	null	null	null	null	334.0	337.0	334.0	335.0	340.0	335.0	332.0	339.0	336.0	334.0	330.0	
Sun Jun 04 19:04:00 UTC 2017	0.0	1.048293376E9	2682.50830078125	0.0	2.5731072E7	0.0	6.0	9.53626624E8	62.564796447753906	0.0	0.0	1.061281792E9	1.050124288E9	0.0	0.0	0.07699999958276749	0.054249998182058334	0.04625000059604645	0.9919999837875366	0.7547354102134705	0.0	244.0	371.0	0.0	0.0	0.0	0.0	0.0	0.0	null	null	null	null	null	null	null	null	336.0	335.0	336.0	335.0	336.0	337.0	336.0	332.0	335.0	338.0	337.0	
Sun Jun 04 19:03:00 UTC 2017	0.0	1.047281664E9	2682.50830078125	0.0	2.5731072E7	0.0	5.0	9.53626624E8	62.564796447753906	0.0	0.0	1.062293504E9	1.050124288E9	0.0	0.0	0.06975000351667404	0.0430000014603138	0.052000001072883606	0.9919999837875366	0.7538517713546753	0.0	244.0	371.0	0.0	0.0	0.0	0.0	0.0	0.0	null	null	null	null	null	null	null	null	336.0	336.0	336.0	336.0	332.0	336.0	337.0	336.0	332.0	332.0	334.0	
Sun Jun 04 19:02:00 UTC 2017	0.0	1.047281664E9	3151.328369140625	0.0	2.5731072E7	0.0	3.0	9.53626624E8	62.564796447753906	0.0	0.0	1.061281792E9	1.050124288E9	0.0	0.0	0.07699999958276749	0.054499998688697815	0.04349999874830246	0.9917500019073486	0.7538346648216248	0.0	244.0	371.0	0.0	0.0	0.0	0.0	0.0	0.0	null	null	null	null	null	null	null	null	334.0	335.0	337.0	334.0	336.0	335.0	334.0	337.0	337.0	337.0	337.0	
Sun Jun 04 19:01:00 UTC 2017	0.0	1.047281664E9	2765.1513671875	0.0	2.5731072E7	0.0	2.0	9.5350784E8	40.92410659790039	0.0	0.0	1.061281792E9	1.050124288E9	0.0	0.0	0.09224999696016312	0.04699999839067459	0.04650000110268593	0.9919999837875366	0.7538336515426636	0.0	244.0	371.0	0.0	0.0	0.0	0.0	0.0	0.0	null	null	null	null	null	null	null	null	338.0	333.0	334.0	337.0	333.0	335.0	337.0	334.0	333.0	338.0	333.0	
Sun Jun 04 19:00:00 UTC 2017	0.0	1.047281664E9	2254.81396484375	0.0	2.5731072E7	0.0	3.0	9.5350784E8	42.495025634765625	0.0	0.0	1.062293504E9	1.050124288E9	0.0	0.0	0.09025000035762787	0.05249999836087227	0.05000000074505806	0.9919999837875366	0.7537959814071655	0.0	244.0	371.0	0.0	0.0	0.0	0.0	0.0	0.0	null	null	null	null	null	null	null	null	332.0	333.0	335.0	338.0	337.0	337.0	333.0	338.0	335.0	334.0	335.0	
Sun Jun 04 18:59:00 UTC 2017	0.0	1.048293376E9	2254.81396484375	0.0	2.5731072E7	0.0	4.0	9.53417728E8	46.55901336669922	0.0	0.0	1.061281792E9	1.050124288E9	0.0	0.0	0.06825000047683716	0.054499998688697815	0.04675000160932541	0.9919999837875366	0.753778874874115	0.0	244.0	371.0	0.0	0.0	0.0	0.0	0.0	0.0	null	null	null	null	null	null	null	null	335.0	335.0	336.0	332.0	338.0	337.0	336.0	331.0	333.0	333.0	335.0	
Sun Jun 04 18:58:00 UTC 2017	0.0	1.048293376E9	2761.385498046875	0.0	2.5731072E7	0.0	2.0	9.53417728E8	46.55901336669922	0.0	0.0	1.061281792E9	1.050124288E9	0.0	0.0	0.07649999856948853	0.04975000023841858	0.04749999940395355	0.9917500019073486	0.7537568807601929	0.0	244.0	371.0	0.0	0.0	0.0	0.0	0.0	0.0	null	null	null	null	null	null	null	null	334.0	336.0	336.0	335.0	334.0	334.0	335.0	336.0	334.0	335.0	336.0	
Sun Jun 04 18:57:00 UTC 2017	0.0	1.047281664E9	2761.385498046875	0.0	2.5731072E7	0.0	2.0	9.53417728E8	44.820621490478516	0.0	0.0	1.062293504E9	1.050124288E9	0.0	0.0	0.07050000131130219	0.04500000178813934	0.052000001072883606	0.9919999837875366	0.7537372708320618	0.0	244.0	371.0	0.0	0.0	0.0	0.0	0.0	0.0	null	null	null	null	null	null	null	null	336.0	334.0	338.0	339.0	337.0	335.0	337.0	334.0	335.0	337.0	334.0	
Sun Jun 04 18:56:00 UTC 2017	0.0	1.047281664E9	2834.202392578125	0.0	2.5731072E7	0.0	2.0	9.53294848E8	44.820621490478516	0.0	0.0	1.062293504E9	1.050124288E9	0.0	0.0	0.07850000262260437	0.05274999886751175	0.04475000128149986	0.9922500252723694	0.7536991238594055	0.0	244.0	371.0	0.0	0.0	0.0	0.0	0.0	0.0	null	null	null	null	null	null	null	null	336.0	338.0	335.0	334.0	337.0	337.0	332.0	333.0	337.0	332.0	336.0	
Sun Jun 04 18:55:00 UTC 2017	0.0	1.048293376E9	2834.202392578125	0.0	2.5731072E7	0.0	4.0	9.53294848E8	44.820621490478516	0.0	0.0	1.062293504E9	1.050124288E9	0.0	0.0	0.07575000077486038	0.05050000175833702	0.051249999552965164	0.9925000071525574	0.7536951899528503	0.0	244.0	371.0	0.0	0.0	0.0	0.0	0.0	0.0	null	null	null	null	null	null	null	null	339.0	336.0	332.0	336.0	333.0	334.0	334.0	340.0	335.0	335.0	337.0	
Sun Jun 04 18:54:00 UTC 2017	0.0	1.048293376E9	2590.135498046875	0.0	2.5731072E7	0.0	4.0	9.53204736E8	44.820621490478516	0.0	0.0	1.062293504E9	1.050124288E9	0.0	0.0	0.07474999874830246	0.04924999922513962	0.048250000923871994	0.9922500252723694	0.7536922693252563	0.0	244.0	371.0	0.0	0.0	0.0	0.0	0.0	0.0	null	null	null	null	null	null	null	null	334.0	335.0	336.0	334.0	337.0	337.0	338.0	336.0	332.0	337.0	336.0	
Sun Jun 04 18:53:00 UTC 2017	0.0	1.048293376E9	2940.71337890625	0.0	2.5731072E7	0.0	5.0	9.53204736E8	44.820621490478516	0.0	0.0	1.062293504E9	1.050124288E9	0.0	0.0	0.08150000125169754	0.051750000566244125	0.04349999874830246	0.9922500252723694	0.7536771297454834	0.0	244.0	371.0	0.0	0.0	0.0	0.0	0.0	0.0	null	null	null	null	null	null	null	null	335.0	332.0	332.0	336.0	337.0	337.0	330.0	333.0	336.0	335.0	336.0	
Sun Jun 04 18:52:00 UTC 2017	0.0	1.048293376E9	3093.351806640625	0.0	2.5731072E7	0.0	4.0	9.53204736E8	31.185596466064453	1.0	0.0	1.061281792E9	1.050124288E9	0.0	0.0	0.0742499977350235	0.05974999815225601	0.051500000059604645	0.9919999837875366	0.7536599636077881	0.0	244.0	371.0	0.0	0.0	0.0	0.0	0.0	0.0	null	null	null	null	null	null	null	null	333.0	337.0	339.0	336.0	333.0	335.0	338.0	336.0	337.0	337.0	334.0	
Sun Jun 04 18:51:00 UTC 2017	0.0	1.047281664E9	3093.351806640625	0.0	2.5731072E7	0.0	5.0	9.52991744E8	49.362518310546875	0.0	0.0	1.061281792E9	1.050124288E9	0.0	0.0	0.09049999713897705	0.051750000566244125	0.05000000074505806	0.9919999837875366	0.7558793425559998	0.0	244.0	371.0	0.0	0.0	0.0	0.0	0.0	0.0	null	null	null	null	null	null	null	null	337.0	336.0	336.0	335.0	336.0	335.0	334.0	337.0	330.0	334.0	339.0	
Sun Jun 04 18:50:00 UTC 2017	0.0	1.047281664E9	2832.379638671875	0.0	2.5731072E7	0.0	3.0	9.53081856E8	32.69107437133789	0.0	0.0	1.062293504E9	1.050124288E9	0.0	0.0	0.07400000095367432	0.045249998569488525	0.048250000923871994	0.9919999837875366	0.7536233067512512	0.0	244.0	371.0	0.0	0.0	0.0	0.0	0.0	0.0	null	null	null	null	null	null	null	null	334.0	333.0	332.0	334.0	335.0	335.0	333.0	338.0	337.0	336.0	332.0	
Sun Jun 04 18:49:00 UTC 2017	0.0	1.048293376E9	2832.379638671875	0.0	2.5731072E7	0.0	2.0	9.52991744E8	44.246036529541016	0.0	0.0	1.061281792E9	1.050124288E9	0.0	0.0	0.07750000059604645	0.051249999552965164	0.04349999874830246	0.9919999837875366	0.7535205483436584	0.0	244.0	371.0	0.0	0.0	0.0	0.0	0.0	0.0	null	null	null	null	null	null	null	null	337.0	335.0	335.0	336.0	335.0	335.0	335.0	335.0	335.0	334.0	336.0	
Sun Jun 04 18:48:00 UTC 2017	1.0	1.047281664E9	2832.379638671875	0.0	2.5731072E7	0.0	2.0	9.52991744E8	44.246036529541016	0.0	1.0	1.061281792E9	1.050124288E9	0.0	null	0.0807500034570694	0.05249999836087227	0.05324999988079071	0.9919999837875366	0.7535934448242188	0.0	244.0	371.0	0.0	0.0	0.0	0.0	0.0	0.0	null	null	null	null	null	null	null	null	335.0	335.0	337.0	335.0	334.0	337.0	331.0	336.0	334.0	338.0	340.0	
Sun Jun 04 18:47:00 UTC 2017	1.0	1.047281664E9	2517.027099609375	0.0	2.5731072E7	0.0	3.0	9.52991744E8	36.943214416503906	1.0	2.0	1.062293504E9	1.050124288E9	0.0	null	0.06949999928474426	0.05624999850988388	0.0442500002682209	0.9922500252723694	0.7535768151283264	0.0	244.0	371.0	0.0	0.0	0.0	0.0	0.0	0.0	null	null	null	null	null	null	null	null	334.0	336.0	334.0	333.0	335.0	338.0	337.0	335.0	336.0	337.0	333.0	
Sun Jun 04 18:46:00 UTC 2017	0.0	1.047281664E9	3009.625732421875	0.0	2.5731072E7	0.0	3.0	9.52782848E8	42.48617172241211	0.0	0.0	1.061281792E9	1.050124288E9	0.0	null	0.07975000143051147	0.0507499985396862	0.04749999940395355	0.9919999837875366	0.7558064460754395	0.0	244.0	371.0	0.0	0.0	0.0	0.0	0.0	0.0	null	null	null	null	null	null	null	null	335.0	334.0	335.0	339.0	333.0	337.0	335.0	336.0	335.0	336.0	336.0	
Sun Jun 04 18:45:00 UTC 2017	0.0	1.047281664E9	2410.193115234375	0.0	2.5731072E7	0.0	2.0	9.5287296E8	42.48617172241211	0.0	0.0	1.061281792E9	1.050124288E9	0.0	null	0.06750000268220901	0.0442500002682209	0.05050000175833702	0.9919999837875366	0.7535356879234314	0.0	244.0	371.0	0.0	0.0	0.0	0.0	0.0	0.0	null	null	null	null	null	null	null	null	334.0	334.0	332.0	332.0	339.0	333.0	335.0	337.0	336.0	335.0	333.0	
Sun Jun 04 18:44:00 UTC 2017	0.0	1.048293376E9	2410.193115234375	0.0	2.5731072E7	0.0	2.0	9.52782848E8	35.60891342163086	0.0	0.0	1.061281792E9	1.050124288E9	0.0	0.0	0.08025000244379044	0.05400000140070915	0.04899999871850014	0.9922500252723694	0.7535181045532227	0.0	244.0	371.0	0.0	0.0	0.0	0.0	0.0	0.0	null	null	null	null	null	null	null	null	335.0	336.0	337.0	335.0	336.0	336.0	335.0	335.0	337.0	335.0	337.0	
Sun Jun 04 18:43:00 UTC 2017	0.0	1.047281664E9	2410.193115234375	0.0	2.5731072E7	0.0	4.0	9.52782848E8	35.60891342163086	0.0	0.0	1.062293504E9	1.050124288E9	0.0	0.0	0.07800000160932541	0.054249998182058334	0.042750000953674316	0.9922500252723694	0.7535024285316467	0.0	244.0	371.0	0.0	0.0	0.0	0.0	0.0	0.0	null	null	null	null	null	null	null	null	335.0	335.0	335.0	335.0	338.0	341.0	336.0	334.0	334.0	340.0	332.0	
Sun Jun 04 18:42:00 UTC 2017	0.0	1.047281664E9	3173.1826171875	0.0	2.5731072E7	0.0	3.0	9.52782848E8	35.60891342163086	0.0	0.0	1.062293504E9	1.050124288E9	0.0	0.0	0.07225000113248825	0.04675000160932541	0.052000001072883606	0.9922500252723694	0.7534838318824768	0.0	244.0	371.0	0.0	0.0	0.0	0.0	0.0	0.0	null	null	null	null	null	null	null	null	332.0	338.0	336.0	339.0	336.0	336.0	334.0	336.0	334.0	334.0	336.0	
Sun Jun 04 18:41:00 UTC 2017	0.0	1.048293376E9	3173.1826171875	0.0	2.5731072E7	0.0	3.0	9.52659968E8	51.15555191040039	0.0	0.0	1.061281792E9	1.050124288E9	0.0	0.0	0.09875000268220901	0.05400000140070915	0.05025000125169754	0.9922500252723694	0.7534359097480774	0.0	244.0	371.0	0.0	0.0	0.0	0.0	0.0	0.0	null	null	null	null	null	null	null	null	340.0	334.0	334.0	332.0	335.0	335.0	337.0	335.0	334.0	338.0	336.0	
Sun Jun 04 18:40:00 UTC 2017	0.0	1.047281664E9	3173.1826171875	0.0	2.5731072E7	0.0	5.0	9.52659968E8	51.15555191040039	0.0	0.0	1.061281792E9	1.050124288E9	0.0	0.0	0.06575000286102295	0.04899999871850014	0.045249998569488525	0.9922500252723694	0.7529642581939697	0.0	244.0	371.0	0.0	0.0	0.0	0.0	0.0	0.0	null	null	null	null	null	null	null	null	334.0	336.0	333.0	337.0	336.0	334.0	334.0	332.0	335.0	335.0	335.0	
Sun Jun 04 18:39:00 UTC 2017	0.0	1.047281664E9	2383.585205078125	0.0	2.5731072E7	0.0	3.0	9.52569856E8	51.15555191040039	0.0	0.0	1.062293504E9	1.050124288E9	0.0	0.0	0.07474999874830246	0.04800000041723251	0.048500001430511475	0.9919999837875366	0.752949595451355	0.0	244.0	371.0	0.0	0.0	0.0	0.0	0.0	0.0	null	null	null	null	null	null	null	null	334.0	335.0	336.0	334.0	335.0	336.0	335.0	335.0	335.0	334.0	337.0	
Sun Jun 04 18:38:00 UTC 2017	0.0	1.047281664E9	2584.779052734375	0.0	2.5731072E7	0.0	2.0	9.52569856E8	59.51146697998047	0.0	0.0	1.061281792E9	1.050124288E9	0.0	0.0	0.08150000125169754	0.05299999937415123	0.04924999922513962	0.9919999837875366	0.7529109120368958	0.0	244.0	371.0	0.0	0.0	0.0	0.0	0.0	0.0	null	null	null	null	null	null	null	null	335.0	334.0	337.0	335.0	339.0	338.0	338.0	341.0	335.0	337.0	333.0	
Sun Jun 04 18:37:00 UTC 2017	0.0	1.048293376E9	2584.779052734375	0.0	2.5731072E7	0.0	3.0	9.52569856E8	59.51146697998047	0.0	0.0	1.061281792E9	1.050124288E9	0.0	0.0	0.06875000149011612	0.04800000041723251	0.04774999991059303	0.9919999837875366	0.7529045343399048	0.0	244.0	371.0	0.0	0.0	0.0	0.0	0.0	0.0	null	null	null	null	null	null	null	null	335.0	336.0	333.0	336.0	335.0	332.0	332.0	335.0	334.0	336.0	334.0	
Sun Jun 04 18:36:00 UTC 2017	0.0	1.047281664E9	2584.779052734375	0.0	2.5731072E7	0.0	2.0	9.52352768E8	59.51146697998047	0.0	0.0	1.062293504E9	1.050124288E9	0.0	0.0	0.07724999636411667	0.05324999988079071	0.04399999976158142	0.9919999837875366	0.75290846824646	0.0	244.0	371.0	0.0	0.0	0.0	0.0	0.0	0.0	null	null	null	null	null	null	null	null	337.0	337.0	341.0	333.0	336.0	338.0	336.0	333.0	334.0	334.0	340.0	
Sun Jun 04 18:35:00 UTC 2017	0.0	1.047281664E9	2807.042236328125	0.0	2.5731072E7	0.0	4.0	9.5244288E8	65.75973510742188	0.0	0.0	1.061281792E9	1.050124288E9	0.0	0.0	0.07275000214576721	0.04374999925494194	0.048250000923871994	0.9919999837875366	0.7528908848762512	0.0	244.0	371.0	0.0	0.0	0.0	0.0	0.0	0.0	null	null	null	null	null	null	null	null	332.0	331.0	333.0	336.0	335.0	336.0	335.0	338.0	334.0	334.0	333.0	
Sun Jun 04 18:34:00 UTC 2017	0.0	1.048293376E9	2807.042236328125	0.0	2.5731072E7	0.0	2.0	9.52352768E8	54.092430114746094	0.0	0.0	1.062293504E9	1.050124288E9	0.0	0.0	0.08049999922513962	0.057999998331069946	0.04899999871850014	0.9917500019073486	0.7528737187385559	0.0	244.0	371.0	0.0	0.0	0.0	0.0	0.0	0.0	null	null	null	null	null	null	null	null	339.0	335.0	338.0	337.0	336.0	333.0	335.0	333.0	336.0	336.0	335.0	
Sun Jun 04 18:33:00 UTC 2017	0.0	1.047281664E9	2807.042236328125	0.0	2.5731072E7	0.0	2.0	9.52352768E8	31.35877227783203	0.0	0.0	1.062293504E9	1.050124288E9	0.0	0.0	0.06575000286102295	0.04675000160932541	0.048500001430511475	0.9919999837875366	0.7528468370437622	0.0	244.0	371.0	0.0	0.0	0.0	0.0	0.0	0.0	null	null	null	null	null	null	null	null	334.0	338.0	331.0	334.0	338.0	336.0	336.0	338.0	338.0	336.0	335.0	
Sun Jun 04 18:32:00 UTC 2017	0.0	1.047281664E9	2665.4248046875	0.0	2.5731072E7	0.0	2.0	9.52352768E8	31.35877227783203	0.0	0.0	1.062293504E9	1.050124288E9	0.0	0.0	0.08474999666213989	0.04650000110268593	0.042750000953674316	0.9919999837875366	0.7550426721572876	0.0	244.0	371.0	0.0	0.0	0.0	0.0	0.0	0.0	null	null	null	null	null	null	null	null	335.0	333.0	336.0	336.0	335.0	335.0	335.0	333.0	335.0	338.0	336.0	
Sun Jun 04 18:31:00 UTC 2017	0.0	1.048293376E9	2665.4248046875	0.0	2.5731072E7	0.0	2.0	9.52143872E8	31.35877227783203	0.0	0.0	1.062293504E9	1.050124288E9	0.0	0.0	0.09049999713897705	0.05624999850988388	0.04774999991059303	0.9922500252723694	0.7548317909240723	0.0	244.0	371.0	0.0	0.0	0.0	0.0	0.0	0.0	null	null	null	null	null	null	null	null	340.0	337.0	335.0	336.0	336.0	335.0	336.0	337.0	334.0	332.0	334.0	
Sun Jun 04 18:30:00 UTC 2017	0.0	1.047281664E9	2665.4248046875	0.0	2.5731072E7	0.0	2.0	9.52242176E8	31.35877227783203	0.0	0.0	1.062293504E9	1.050124288E9	0.0	null	0.07349999994039536	0.04650000110268593	0.0494999997317791	0.9922500252723694	0.7527964115142822	0.0	244.0	371.0	0.0	0.0	0.0	0.0	0.0	0.0	null	null	null	null	null	null	null	null	331.0	334.0	335.0	335.0	333.0	335.0	334.0	335.0	335.0	339.0	338.0	
Sun Jun 04 18:29:00 UTC 2017	0.0	1.047281664E9	2719.03662109375	0.0	2.5731072E7	0.0	3.0	9.52152064E8	31.35877227783203	0.0	0.0	1.062293504E9	1.050124288E9	0.0	null	0.07925000041723251	0.05000000074505806	0.04450000077486038	0.9919999837875366	0.752758264541626	0.0	244.0	371.0	0.0	0.0	0.0	0.0	0.0	0.0	null	null	null	null	null	null	null	null	337.0	334.0	334.0	336.0	339.0	335.0	339.0	337.0	338.0	334.0	334.0	
Sun Jun 04 18:28:00 UTC 2017	0.0	1.047281664E9	3378.5244140625	0.0	2.5731072E7	0.0	4.0	9.52152064E8	51.423030853271484	0.0	0.0	1.062293504E9	1.050124288E9	0.0	0.0	0.08049999922513962	0.052000001072883606	0.0507499985396862	0.9922500252723694	0.7528287172317505	0.0	244.0	371.0	0.0	0.0	0.0	0.0	0.0	0.0	null	null	null	null	null	null	null	null	338.0	334.0	335.0	335.0	335.0	335.0	331.0	333.0	334.0	335.0	337.0	
Sun Jun 04 18:27:00 UTC 2017	0.0	1.047281664E9	2477.334228515625	0.0	2.5731072E7	0.0	3.0	9.52152064E8	51.423030853271484	0.0	0.0	1.061281792E9	1.050124288E9	0.0	0.0	0.06650000065565109	0.051500000059604645	0.04399999976158142	0.9922500252723694	0.7547882199287415	0.0	244.0	371.0	0.0	0.0	0.0	0.0	0.0	0.0	null	null	null	null	null	null	null	null	333.0	335.0	338.0	337.0	335.0	336.0	335.0	337.0	334.0	338.0	336.0	
Sun Jun 04 18:26:00 UTC 2017	0.0	1.047281664E9	2635.494140625	0.0	2.5731072E7	0.0	3.0	9.52029184E8	51.423030853271484	0.0	0.0	1.061281792E9	1.050124288E9	0.0	null	0.0820000022649765	0.05575000122189522	0.04800000041723251	0.9919999837875366	0.7527954578399658	0.0	244.0	371.0	0.0	0.0	0.0	0.0	0.0	0.0	null	null	null	null	null	null	null	null	335.0	334.0	334.0	334.0	332.0	334.0	333.0	336.0	333.0	331.0	332.0	
Sun Jun 04 18:25:00 UTC 2017	0.0	1.048293376E9	2635.494140625	0.0	2.5731072E7	0.0	2.0	9.52029184E8	51.423030853271484	0.0	0.0	1.062293504E9	1.050124288E9	0.0	null	0.06475000083446503	0.0442500002682209	0.04699999839067459	0.9919999837875366	0.7527939677238464	0.0	244.0	371.0	0.0	0.0	0.0	0.0	0.0	0.0	null	null	null	null	null	null	null	null	336.0	334.0	337.0	333.0	336.0	333.0	335.0	331.0	334.0	335.0	334.0	
Sun Jun 04 18:24:00 UTC 2017	0.0	1.047281664E9	2635.494140625	0.0	2.5731072E7	0.0	4.0	9.51939072E8	39.753475189208984	0.0	0.0	1.061281792E9	1.050124288E9	0.0	null	0.08025000244379044	0.054499998688697815	0.0494999997317791	0.9922500252723694	0.7527709603309631	0.0	244.0	371.0	0.0	0.0	0.0	0.0	0.0	0.0	null	null	null	null	null	null	null	null	337.0	333.0	330.0	336.0	335.0	333.0	338.0	334.0	337.0	335.0	335.0	
Sun Jun 04 18:23:00 UTC 2017	0.0	1.048293376E9	2635.494140625	0.0	2.5731072E7	0.0	4.0	9.51939072E8	39.753475189208984	0.0	0.0	1.062293504E9	1.050124288E9	0.0	null	0.07500000298023224	0.050999999046325684	0.048250000923871994	0.9919999837875366	0.7550446391105652	0.0	244.0	371.0	0.0	0.0	0.0	0.0	0.0	0.0	null	null	null	null	null	null	null	null	333.0	337.0	335.0	335.0	334.0	336.0	333.0	337.0	330.0	336.0	338.0	
Sun Jun 04 18:22:00 UTC 2017	0.0	1.047281664E9	2635.494140625	0.0	2.5731072E7	0.0	3.0	9.51939072E8	38.47922134399414	0.0	0.0	1.061281792E9	1.050124288E9	0.0	null	0.07575000077486038	0.04899999871850014	0.04600000008940697	0.9922500252723694	0.752748966217041	0.0	244.0	371.0	0.0	0.0	0.0	0.0	0.0	0.0	null	null	null	null	null	null	null	null	336.0	337.0	336.0	336.0	339.0	332.0	336.0	336.0	338.0	337.0	333.0	
Sun Jun 04 18:21:00 UTC 2017	0.0	1.047281664E9	2425.17529296875	0.0	2.5731072E7	0.0	3.0	9.5172608E8	54.886653900146484	0.0	0.0	1.062293504E9	1.050124288E9	0.0	null	0.10050000250339508	0.05274999886751175	0.05249999836087227	0.9922500252723694	0.7527318596839905	0.0	244.0	371.0	0.0	0.0	0.0	0.0	0.0	0.0	null	null	null	null	null	null	null	null	337.0	335.0	335.0	334.0	336.0	336.0	337.0	336.0	333.0	336.0	338.0	
Sun Jun 04 18:20:00 UTC 2017	0.0	1.048293376E9	2425.17529296875	0.0	2.5731072E7	0.0	3.0	9.51816192E8	54.886653900146484	0.0	0.0	1.061281792E9	1.050124288E9	0.0	null	0.07225000113248825	0.050999999046325684	0.045499999076128006	0.9922500252723694	0.7527288794517517	0.0	244.0	371.0	0.0	0.0	0.0	0.0	0.0	0.0	null	null	null	null	null	null	null	null	334.0	337.0	333.0	335.0	334.0	335.0	335.0	333.0	335.0	333.0	334.0	
Sun Jun 04 18:19:00 UTC 2017	0.0	1.047281664E9	2425.17529296875	0.0	2.5731072E7	0.0	2.0	9.5172608E8	54.886653900146484	0.0	0.0	1.061281792E9	1.050124288E9	0.0	0.0	0.07374999672174454	0.04749999940395355	0.04625000059604645	0.9922500252723694	0.7527146935462952	0.0	244.0	371.0	0.0	0.0	0.0	0.0	0.0	0.0	null	null	null	null	null	null	null	null	337.0	334.0	338.0	335.0	333.0	335.0	336.0	338.0	337.0	337.0	336.0	
Sun Jun 04 18:18:00 UTC 2017	0.0	1.048293376E9	2425.17529296875	0.0	2.5731072E7	0.0	2.0	9.5172608E8	54.886653900146484	0.0	0.0	1.062293504E9	1.050124288E9	0.0	0.0	0.07724999636411667	0.04675000160932541	0.051750000566244125	0.9922500252723694	0.7526662945747375	0.0	244.0	371.0	0.0	0.0	0.0	0.0	0.0	0.0	null	null	null	null	null	null	null	null	333.0	336.0	334.0	335.0	337.0	337.0	335.0	334.0	334.0	336.0	333.0	
Sun Jun 04 18:17:00 UTC 2017	0.0	1.048293376E9	2338.78857421875	0.0	2.5731072E7	0.0	2.0	9.5172608E8	54.886653900146484	0.0	0.0	1.061281792E9	1.050124288E9	0.0	0.0	0.07000000029802322	0.054999999701976776	0.04625000059604645	0.9919999837875366	0.7526628375053406	0.0	244.0	371.0	0.0	0.0	0.0	0.0	0.0	0.0	null	null	null	null	null	null	null	null	335.0	334.0	334.0	335.0	335.0	337.0	334.0	336.0	336.0	336.0	339.0	
Sun Jun 04 18:16:00 UTC 2017	0.0	1.047281664E9	2338.78857421875	0.0	2.5731072E7	0.0	5.0	9.51513088E8	54.886653900146484	0.0	0.0	1.061281792E9	1.050124288E9	0.0	0.0	0.0794999971985817	0.04800000041723251	0.04749999940395355	0.9922500252723694	0.7526452541351318	0.0	244.0	371.0	0.0	0.0	0.0	0.0	0.0	0.0	null	null	null	null	null	null	null	null	335.0	334.0	337.0	334.0	333.0	337.0	336.0	337.0	334.0	338.0	336.0	
Sun Jun 04 18:15:00 UTC 2017	0.0	1.048293376E9	2338.78857421875	0.0	2.5731072E7	0.0	2.0	9.516032E8	54.886653900146484	0.0	0.0	1.061281792E9	1.050124288E9	0.0	null	0.08049999922513962	0.0560000017285347	0.04650000110268593	0.9919999837875366	0.7549208402633667	0.0	244.0	371.0	0.0	0.0	0.0	0.0	0.0	0.0	null	null	null	null	null	null	null	null	336.0	333.0	336.0	333.0	333.0	333.0	338.0	335.0	334.0	334.0	335.0	
Sun Jun 04 18:14:00 UTC 2017	0.0	1.048293376E9	2918.76416015625	0.0	2.5731072E7	0.0	2.0	9.51513088E8	54.886653900146484	0.0	0.0	1.062293504E9	1.050124288E9	0.0	null	0.06949999928474426	0.05000000074505806	0.05249999836087227	0.9922500252723694	0.7526305913925171	0.0	244.0	371.0	0.0	0.0	0.0	0.0	0.0	0.0	null	null	null	null	null	null	null	null	334.0	333.0	336.0	339.0	335.0	341.0	337.0	335.0	333.0	334.0	336.0	
Sun Jun 04 18:13:00 UTC 2017	0.0	1.048293376E9	2699.8896484375	0.0	2.5731072E7	0.0	2.0	9.51513088E8	54.886653900146484	0.0	0.0	1.062293504E9	1.050124288E9	0.0	null	0.07774999737739563	0.051750000566244125	0.04374999925494194	0.9922500252723694	0.753863513469696	0.0	244.0	371.0	0.0	0.0	0.0	0.0	0.0	0.0	null	null	null	null	null	null	null	null	334.0	338.0	333.0	332.0	334.0	336.0	337.0	338.0	337.0	339.0	333.0	
Sun Jun 04 18:12:00 UTC 2017	0.0	1.048293376E9	2521.610107421875	0.0	2.5731072E7	0.0	3.0	9.51513088E8	52.158164978027344	0.0	0.0	1.062293504E9	1.050124288E9	0.0	0.0	0.0767500028014183	0.04399999976158142	0.051500000059604645	0.9919999837875366	0.7525757551193237	0.0	244.0	371.0	0.0	0.0	0.0	0.0	0.0	0.0	null	null	null	null	null	null	null	null	341.0	337.0	338.0	334.0	336.0	335.0	335.0	337.0	337.0	335.0	335.0	
Sun Jun 04 18:11:00 UTC 2017	0.0	1.048293376E9	2735.012451171875	0.0	2.5731072E7	0.0	2.0	9.51304192E8	52.158164978027344	0.0	0.0	1.062293504E9	1.050124288E9	0.0	0.0	0.09200000017881393	0.05674999952316284	0.04899999871850014	0.9925000071525574	0.7525444626808167	0.0	244.0	371.0	0.0	0.0	0.0	0.0	0.0	0.0	null	null	null	null	null	null	null	null	336.0	334.0	337.0	337.0	337.0	332.0	334.0	334.0	337.0	334.0	340.0	
Sun Jun 04 18:10:00 UTC 2017	0.0	1.047281664E9	2735.012451171875	0.0	2.5731072E7	0.0	3.0	9.51656448E8	54.83235168457031	0.0	0.0	1.062293504E9	1.050124288E9	0.0	null	0.08474999666213989	0.04975000023841858	0.04574999958276749	0.9922500252723694	0.7525258660316467	0.0	244.0	371.0	0.0	0.0	0.0	0.0	0.0	0.0	null	null	null	null	null	null	null	null	337.0	336.0	335.0	337.0	334.0	341.0	335.0	336.0	330.0	340.0	332.0	
Sun Jun 04 18:09:00 UTC 2017	0.0	1.047281664E9	3075.186767578125	0.0	2.5731072E7	0.0	3.0	9.51144448E8	54.83235168457031	0.0	0.0	1.062293504E9	1.050124288E9	0.0	0.0	0.07325000315904617	0.051249999552965164	0.05000000074505806	0.9922500252723694	0.754120409488678	0.0	244.0	371.0	0.0	0.0	0.0	0.0	0.0	0.0	null	null	null	null	null	null	null	null	338.0	335.0	333.0	334.0	333.0	337.0	332.0	333.0	337.0	332.0	333.0	
Sun Jun 04 18:08:00 UTC 2017	0.0	1.048293376E9	3075.186767578125	0.0	2.5731072E7	0.0	2.0	9.51144448E8	53.442996978759766	0.0	0.0	1.061281792E9	1.050124288E9	0.0	0.0	0.07474999874830246	0.04800000041723251	0.04699999839067459	0.9922500252723694	0.7525194883346558	0.0	244.0	371.0	0.0	0.0	0.0	0.0	0.0	0.0	null	null	null	null	null	null	null	null	335.0	336.0	335.0	335.0	335.0	334.0	334.0	338.0	332.0	337.0	336.0	
Sun Jun 04 18:07:00 UTC 2017	0.0	1.048293376E9	2594.098876953125	0.0	2.5731072E7	0.0	3.0	9.51144448E8	53.442996978759766	0.0	0.0	1.062293504E9	1.050124288E9	0.0	0.0	0.06650000065565109	0.05000000074505806	0.0430000014603138	0.9919999837875366	0.7547740340232849	0.0	244.0	371.0	0.0	0.0	0.0	0.0	0.0	0.0	null	null	null	null	null	null	null	null	333.0	333.0	336.0	336.0	334.0	334.0	337.0	335.0	337.0	335.0	337.0	
Sun Jun 04 18:06:00 UTC 2017	0.0	1.047281664E9	2594.098876953125	0.0	2.5731072E7	0.0	2.0	9.51021568E8	45.94464111328125	0.0	0.0	1.062293504E9	1.050124288E9	0.0	0.0	0.07450000196695328	0.054249998182058334	0.0494999997317791	0.9915000200271606	0.7547461986541748	0.0	244.0	371.0	0.0	0.0	0.0	0.0	0.0	0.0	null	null	null	null	null	null	null	null	336.0	337.0	337.0	334.0	342.0	334.0	335.0	330.0	335.0	339.0	336.0	
Sun Jun 04 18:05:00 UTC 2017	0.0	1.048293376E9	2594.098876953125	0.0	2.5731072E7	0.0	2.0	9.51021568E8	47.80792236328125	0.0	0.0	1.061281792E9	1.050124288E9	0.0	0.0	0.08474999666213989	0.05249999836087227	0.04874999821186066	0.9919999837875366	0.7547730803489685	0.0	244.0	371.0	0.0	0.0	0.0	0.0	0.0	0.0	null	null	null	null	null	null	null	null	334.0	331.0	335.0	334.0	333.0	334.0	336.0	339.0	336.0	334.0	341.0	
Sun Jun 04 18:04:00 UTC 2017	0.0	1.047281664E9	2594.098876953125	0.0	2.5731072E7	0.0	2.0	9.50931456E8	47.80792236328125	0.0	0.0	1.062293504E9	1.050124288E9	0.0	0.0	0.06949999928474426	0.0507499985396862	0.04800000041723251	0.9922500252723694	0.7523947358131409	0.0	244.0	371.0	0.0	0.0	0.0	0.0	0.0	0.0	null	null	null	null	null	null	null	null	335.0	338.0	337.0	332.0	338.0	339.0	333.0	332.0	331.0	339.0	335.0	
Sun Jun 04 18:03:00 UTC 2017	0.0	1.047281664E9	1661.3857421875	0.0	2.5731072E7	0.0	2.0	9.50931456E8	47.80792236328125	1.0	1.0	1.061281792E9	1.050124288E9	0.0	0.0	0.07625000178813934	0.048250000923871994	0.04650000110268593	0.9919999837875366	0.7523805499076843	0.0	244.0	371.0	0.0	0.0	0.0	0.0	0.0	0.0	null	null	null	null	null	null	null	null	337.0	334.0	333.0	336.0	333.0	337.0	335.0	337.0	338.0	334.0	336.0	
Sun Jun 04 18:02:00 UTC 2017	0.0	1.048293376E9	1661.3857421875	0.0	2.5731072E7	0.0	2.0	9.50931456E8	47.80792236328125	3.0	2.0	1.062293504E9	1.050124288E9	0.0	0.0	0.07625000178813934	0.05624999850988388	0.04774999991059303	0.9922500252723694	0.7523874044418335	0.0	244.0	371.0	0.0	0.0	0.0	0.0	0.0	0.0	null	null	null	null	null	null	null	null	336.0	339.0	336.0	337.0	334.0	334.0	333.0	336.0	337.0	337.0	336.0	
Sun Jun 04 18:01:00 UTC 2017	0.0	1.047281664E9	1661.3857421875	0.0	2.5731072E7	0.0	2.0	9.50808576E8	47.80792236328125	0.0	0.0	1.061281792E9	1.050124288E9	0.0	0.0	0.10525000095367432	0.048250000923871994	0.04600000008940697	0.9919999837875366	0.7545250058174133	0.0	244.0	371.0	0.0	0.0	0.0	0.0	0.0	0.0	null	null	null	null	null	null	null	null	335.0	335.0	332.0	338.0	334.0	336.0	335.0	339.0	334.0	335.0	338.0	
Sun Jun 04 18:00:00 UTC 2017	0.0	1.048293376E9	1661.3857421875	0.0	2.5731072E7	0.0	2.0	9.50808576E8	47.80792236328125	0.0	0.0	1.062293504E9	1.050124288E9	0.0	0.0	0.0742499977350235	0.057500001043081284	0.048500001430511475	0.9919999837875366	0.7523526549339294	0.0	244.0	371.0	0.0	0.0	0.0	0.0	0.0	0.0	null	null	null	null	null	null	null	null	330.0	336.0	336.0	332.0	337.0	332.0	335.0	333.0	335.0	334.0	334.0	
Sun Jun 04 17:59:00 UTC 2017	0.0	1.047281664E9	1661.3857421875	0.0	2.5731072E7	0.0	2.0	9.50718464E8	51.309024810791016	0.0	0.0	1.061281792E9	1.050124288E9	0.0	0.0	0.07150000333786011	0.0442500002682209	0.04924999922513962	0.9922500252723694	0.7522547841072083	0.0	244.0	371.0	0.0	0.0	0.0	0.0	0.0	0.0	null	null	null	null	null	null	null	null	335.0	332.0	339.0	336.0	341.0	331.0	336.0	338.0	338.0	336.0	337.0	
Sun Jun 04 17:58:00 UTC 2017	0.0	1.047281664E9	3417.940185546875	0.0	2.5731072E7	0.0	2.0	9.50718464E8	51.309024810791016	0.0	0.0	1.061281792E9	1.050124288E9	0.0	null	0.07175000011920929	0.052000001072883606	0.04324999824166298	0.9922500252723694	0.7523413896560669	0.0	244.0	371.0	0.0	0.0	0.0	0.0	0.0	0.0	null	null	null	null	null	null	null	null	334.0	335.0	335.0	337.0	334.0	337.0	335.0	336.0	336.0	338.0	339.0	
Sun Jun 04 17:57:00 UTC 2017	0.0	1.047281664E9	2288.689453125	0.0	2.5731072E7	0.0	4.0	9.50718464E8	51.309024810791016	0.0	0.0	1.062293504E9	1.050124288E9	0.0	null	0.07874999940395355	0.05400000140070915	0.05299999937415123	0.9919999837875366	0.7546082139015198	0.0	244.0	371.0	0.0	0.0	0.0	0.0	0.0	0.0	null	null	null	null	null	null	null	null	335.0	338.0	337.0	336.0	338.0	333.0	335.0	333.0	335.0	333.0	333.0	
Sun Jun 04 17:56:00 UTC 2017	0.0	1.047281664E9	2600.610107421875	0.0	2.5731072E7	0.0	3.0	9.50509568E8	62.941871643066406	0.0	0.0	1.061281792E9	1.050124288E9	0.0	null	0.07349999994039536	0.04800000041723251	0.04450000077486038	0.9919999837875366	0.7523052096366882	0.0	244.0	371.0	0.0	0.0	0.0	0.0	0.0	0.0	null	null	null	null	null	null	null	null	340.0	334.0	333.0	335.0	332.0	337.0	334.0	335.0	335.0	336.0	337.0	
Sun Jun 04 17:55:00 UTC 2017	0.0	1.047281664E9	2884.8623046875	0.0	2.5731072E7	0.0	2.0	9.5059968E8	62.941871643066406	0.0	0.0	1.061281792E9	1.050124288E9	0.0	null	0.07175000011920929	0.052000001072883606	0.04749999940395355	0.9919999837875366	0.7522973418235779	0.0	244.0	371.0	0.0	0.0	0.0	0.0	0.0	0.0	null	null	null	null	null	null	null	null	333.0	335.0	334.0	333.0	337.0	336.0	337.0	333.0	334.0	334.0	335.0	
Sun Jun 04 17:54:00 UTC 2017	0.0	1.047281664E9	2256.427978515625	0.0	2.5731072E7	0.0	2.0	9.50509568E8	62.941871643066406	0.0	0.0	1.062293504E9	1.050124288E9	0.0	null	0.07524999976158142	0.04924999922513962	0.0494999997317791	0.9922500252723694	0.7522802352905273	0.0	244.0	371.0	0.0	0.0	0.0	0.0	0.0	0.0	null	null	null	null	null	null	null	null	332.0	334.0	335.0	337.0	337.0	334.0	330.0	336.0	339.0	337.0	334.0	
Sun Jun 04 17:53:00 UTC 2017	0.0	1.048293376E9	2256.427978515625	0.0	2.5731072E7	0.0	3.0	9.50509568E8	33.216827392578125	0.0	0.0	1.061281792E9	1.050124288E9	0.0	null	0.07450000196695328	0.04899999871850014	0.04475000128149986	0.9925000071525574	0.7522650957107544	0.0	244.0	371.0	0.0	0.0	0.0	0.0	0.0	0.0	null	null	null	null	null	null	null	null	338.0	333.0	337.0	336.0	333.0	334.0	337.0	334.0	338.0	335.0	334.0	
Sun Jun 04 17:52:00 UTC 2017	0.0	1.048293376E9	3471.005859375	0.0	2.5731072E7	0.0	3.0	9.50509568E8	54.68075942993164	0.0	0.0	1.061281792E9	1.050124288E9	0.0	0.0	0.07450000196695328	0.05925000086426735	0.04924999922513962	0.9919999837875366	0.7522621154785156	0.0	244.0	371.0	0.0	0.0	0.0	0.0	0.0	0.0	null	null	null	null	null	null	null	null	333.0	334.0	337.0	334.0	337.0	337.0	334.0	336.0	335.0	338.0	337.0	
Sun Jun 04 17:51:00 UTC 2017	0.0	1.048293376E9	2282.55419921875	0.0	2.5731072E7	0.0	2.0	9.50296576E8	54.68075942993164	0.0	0.0	1.061281792E9	1.050124288E9	0.0	0.0	0.10300000011920929	0.0442500002682209	0.05025000125169754	0.9919999837875366	0.7523242831230164	0.0	244.0	371.0	0.0	0.0	0.0	0.0	0.0	0.0	null	null	null	null	null	null	null	null	336.0	335.0	334.0	336.0	335.0	331.0	334.0	335.0	333.0	334.0	337.0	
Sun Jun 04 17:50:00 UTC 2017	0.0	1.047281664E9	2282.55419921875	0.0	2.5731072E7	0.0	2.0	9.50386688E8	36.639122009277344	0.0	0.0	1.062293504E9	1.050124288E9	0.0	0.0	0.06975000351667404	0.05050000175833702	0.0430000014603138	0.9922500252723694	0.7522498965263367	0.0	244.0	371.0	0.0	0.0	0.0	0.0	0.0	0.0	null	null	null	null	null	null	null	null	335.0	336.0	334.0	331.0	333.0	333.0	335.0	337.0	337.0	334.0	333.0	
Sun Jun 04 17:49:00 UTC 2017	0.0	1.047281664E9	2802.40380859375	0.0	2.5731072E7	0.0	2.0	9.50296576E8	41.680442810058594	0.0	0.0	1.061281792E9	1.050124288E9	0.0	0.0	0.0820000022649765	0.05375000089406967	0.051750000566244125	0.9917500019073486	0.7521941065788269	0.0	244.0	371.0	0.0	0.0	0.0	0.0	0.0	0.0	null	null	null	null	null	null	null	null	337.0	336.0	338.0	338.0	338.0	339.0	337.0	332.0	331.0	335.0	338.0	
Sun Jun 04 17:48:00 UTC 2017	0.0	1.048293376E9	2802.40380859375	0.0	2.5731072E7	0.0	2.0	9.50296576E8	46.315948486328125	0.0	0.0	1.061281792E9	1.050124288E9	0.0	0.0	0.07750000059604645	0.04650000110268593	0.04800000041723251	0.9922500252723694	0.7545475363731384	0.0	244.0	371.0	0.0	0.0	0.0	0.0	0.0	0.0	null	null	null	null	null	null	null	null	333.0	339.0	333.0	333.0	337.0	335.0	331.0	337.0	335.0	335.0	331.0	
Sun Jun 04 17:47:00 UTC 2017	0.0	1.048293376E9	2577.554931640625	0.0	2.5731072E7	0.0	3.0	9.50296576E8	46.315948486328125	0.0	0.0	1.062293504E9	1.050124288E9	0.0	0.0	0.07000000029802322	0.04874999821186066	0.04475000128149986	0.9922500252723694	0.7545274496078491	0.0	244.0	371.0	0.0	0.0	0.0	0.0	0.0	0.0	null	null	null	null	null	null	null	null	336.0	335.0	338.0	336.0	336.0	335.0	335.0	336.0	337.0	335.0	337.0	
Sun Jun 04 17:46:00 UTC 2017	0.0	1.047281664E9	2577.554931640625	0.0	2.5731072E7	0.0	2.0	9.50079488E8	46.315948486328125	0.0	0.0	1.062293504E9	1.050124288E9	0.0	0.0	0.07500000298023224	0.05324999988079071	0.04699999839067459	0.9922500252723694	0.7522450089454651	0.0	244.0	371.0	0.0	0.0	0.0	0.0	0.0	0.0	null	null	null	null	null	null	null	null	336.0	338.0	336.0	334.0	335.0	336.0	338.0	335.0	336.0	336.0	338.0	
Sun Jun 04 17:45:00 UTC 2017	0.0	1.047281664E9	3192.17822265625	0.0	2.5731072E7	0.0	2.0	9.501696E8	45.844844818115234	0.0	0.0	1.061281792E9	1.050124288E9	0.0	0.0	0.07400000095367432	0.05050000175833702	0.0494999997317791	0.9922500252723694	0.7522312998771667	0.0	244.0	371.0	0.0	0.0	0.0	0.0	0.0	0.0	null	null	null	null	null	null	null	null	333.0	332.0	335.0	333.0	333.0	336.0	331.0	335.0	337.0	334.0	330.0	
Sun Jun 04 17:44:00 UTC 2017	0.0	1.047281664E9	2209.7626953125	0.0	2.5731072E7	0.0	5.0	9.50079488E8	45.844844818115234	0.0	0.0	1.062293504E9	1.050116096E9	0.0	0.0	0.07374999672174454	0.04724999889731407	0.04724999889731407	0.9919999837875366	0.7544848918914795	0.0	244.0	371.0	0.0	0.0	0.0	0.0	0.0	0.0	null	null	null	null	null	null	null	null	337.0	338.0	336.0	337.0	338.0	333.0	338.0	335.0	334.0	337.0	335.0	
Sun Jun 04 17:43:00 UTC 2017	0.0	1.047281664E9	2658.391357421875	0.0	2.5731072E7	0.0	2.0	9.50079488E8	45.844844818115234	0.0	1.0	1.061281792E9	1.050116096E9	0.0	0.0	0.08649999648332596	0.05350000038743019	0.051500000059604645	0.9919999837875366	0.7544667720794678	0.0	244.0	371.0	0.0	0.0	0.0	0.0	0.0	0.0	null	null	null	null	null	null	null	null	333.0	335.0	336.0	336.0	335.0	334.0	335.0	333.0	336.0	334.0	337.0	
Sun Jun 04 17:42:00 UTC 2017	0.0	1.047281664E9	3447.860595703125	0.0	2.5731072E7	0.0	2.0	9.50079488E8	33.94794845581055	0.0	0.0	1.061281792E9	1.050116096E9	0.0	0.0	0.07450000196695328	0.04800000041723251	0.042500000447034836	0.9919999837875366	0.7521628141403198	0.0	244.0	371.0	0.0	0.0	0.0	0.0	0.0	0.0	null	null	null	null	null	null	null	null	334.0	335.0	336.0	336.0	332.0	338.0	333.0	339.0	335.0	335.0	333.0	
Sun Jun 04 17:41:00 UTC 2017	0.0	1.047281664E9	1891.5478515625	0.0	2.5731072E7	0.0	2.0	9.49870592E8	33.94794845581055	0.0	0.0	1.061281792E9	1.050116096E9	0.0	null	0.08924999833106995	0.05350000038743019	0.04975000023841858	0.9919999837875366	0.7521417737007141	0.0	244.0	371.0	0.0	0.0	0.0	0.0	0.0	0.0	null	null	null	null	null	null	null	null	336.0	336.0	334.0	333.0	337.0	337.0	338.0	335.0	337.0	336.0	336.0	
Sun Jun 04 17:40:00 UTC 2017	0.0	1.048293376E9	1891.5478515625	0.0	2.5731072E7	0.0	4.0	9.49960704E8	33.94794845581055	0.0	0.0	1.062293504E9	1.050116096E9	0.0	null	0.07900000363588333	0.054249998182058334	0.04675000160932541	0.9919999837875366	0.7521207332611084	0.0	244.0	371.0	0.0	0.0	0.0	0.0	0.0	0.0	null	null	null	null	null	null	null	null	336.0	335.0	334.0	338.0	336.0	332.0	335.0	336.0	334.0	334.0	333.0	
Sun Jun 04 17:39:00 UTC 2017	0.0	1.048293376E9	2796.08544921875	0.0	2.5731072E7	0.0	4.0	9.49870592E8	33.94794845581055	0.0	0.0	1.062293504E9	1.050116096E9	0.0	0.0	0.07524999976158142	0.05000000074505806	0.04800000041723251	0.9919999837875366	0.7520845532417297	0.0	244.0	371.0	0.0	0.0	0.0	0.0	0.0	0.0	null	null	null	null	null	null	null	null	335.0	336.0	335.0	335.0	335.0	335.0	336.0	334.0	332.0	336.0	339.0	
Sun Jun 04 17:38:00 UTC 2017	0.0	1.048293376E9	3069.40625	0.0	2.5731072E7	0.0	2.0	9.49870592E8	33.94794845581055	1.0	1.0	1.062293504E9	1.050116096E9	0.0	0.0	0.0754999965429306	0.05050000175833702	0.04500000178813934	0.9919999837875366	0.7520742416381836	0.0	244.0	371.0	0.0	0.0	0.0	0.0	0.0	0.0	null	null	null	null	null	null	null	null	335.0	336.0	338.0	334.0	336.0	337.0	334.0	338.0	335.0	334.0	334.0	
Sun Jun 04 17:37:00 UTC 2017	0.0	1.047281664E9	3069.40625	0.0	2.5731072E7	0.0	2.0	9.49870592E8	33.94794845581055	1.0	1.0	1.062293504E9	1.050116096E9	0.0	0.0	0.07575000077486038	0.05950000137090683	0.048500001430511475	0.9922500252723694	0.752072811126709	0.0	244.0	371.0	0.0	0.0	0.0	0.0	0.0	0.0	null	null	null	null	null	null	null	null	336.0	337.0	335.0	339.0	334.0	334.0	334.0	336.0	340.0	339.0	333.0	
Sun Jun 04 17:36:00 UTC 2017	0.0	1.048293376E9	3069.40625	0.0	2.5731072E7	0.0	3.0	9.496576E8	33.94794845581055	0.0	0.0	1.062293504E9	1.050116096E9	0.0	0.0	0.07225000113248825	0.0507499985396862	0.05225000157952309	0.9922500252723694	0.7543498873710632	0.0	244.0	371.0	0.0	0.0	0.0	0.0	0.0	0.0	null	null	null	null	null	null	null	null	334.0	335.0	336.0	332.0	341.0	336.0	331.0	334.0	336.0	332.0	337.0	
Sun Jun 04 17:35:00 UTC 2017	0.0	1.047281664E9	3069.40625	0.0	2.5731072E7	0.0	2.0	9.49747712E8	49.7347297668457	0.0	0.0	1.061281792E9	1.050116096E9	0.0	0.0	0.07800000160932541	0.04899999871850014	0.04399999976158142	0.9919999837875366	0.7520483136177063	0.0	244.0	371.0	0.0	0.0	0.0	0.0	0.0	0.0	null	null	null	null	null	null	null	null	338.0	335.0	334.0	336.0	335.0	335.0	337.0	335.0	335.0	335.0	333.0	
Sun Jun 04 17:34:00 UTC 2017	0.0	1.047281664E9	2740.59326171875	0.0	2.5731072E7	0.0	2.0	9.496576E8	39.533599853515625	0.0	0.0	1.062293504E9	1.050116096E9	0.0	0.0	0.07500000298023224	0.04975000023841858	0.04899999871850014	0.9919999837875366	0.7520449161529541	0.0	244.0	371.0	0.0	0.0	0.0	0.0	0.0	0.0	null	null	null	null	null	null	null	null	336.0	333.0	332.0	332.0	333.0	335.0	334.0	337.0	336.0	337.0	338.0	
Sun Jun 04 17:33:00 UTC 2017	0.0	1.048293376E9	2740.59326171875	0.0	2.5731072E7	0.0	5.0	9.496576E8	39.533599853515625	0.0	0.0	1.062293504E9	1.050116096E9	0.0	0.0	0.07500000298023224	0.05324999988079071	0.04625000059604645	0.9915000200271606	0.7520747780799866	0.0	244.0	371.0	0.0	0.0	0.0	0.0	0.0	0.0	null	null	null	null	null	null	null	null	334.0	336.0	336.0	337.0	339.0	333.0	331.0	332.0	332.0	332.0	331.0	
Sun Jun 04 17:32:00 UTC 2017	0.0	1.048293376E9	2512.23828125	0.0	2.5731072E7	0.0	3.0	9.496576E8	39.533599853515625	0.0	0.0	1.061281792E9	1.050116096E9	0.0	0.0	0.07400000095367432	0.04899999871850014	0.04899999871850014	0.9919999837875366	0.7519211173057556	0.0	244.0	371.0	0.0	0.0	0.0	0.0	0.0	0.0	null	null	null	null	null	null	null	null	339.0	334.0	335.0	335.0	335.0	336.0	339.0	336.0	334.0	337.0	339.0	
Sun Jun 04 17:31:00 UTC 2017	0.0	1.048293376E9	2432.6630859375	0.0	2.5731072E7	0.0	2.0	9.49444608E8	39.533599853515625	0.0	0.0	1.061281792E9	1.050116096E9	0.0	null	0.08974999934434891	0.05025000125169754	0.050999999046325684	0.9915000200271606	0.7533957958221436	0.0	244.0	371.0	0.0	0.0	0.0	0.0	0.0	0.0	null	null	null	null	null	null	null	null	333.0	338.0	336.0	334.0	335.0	333.0	332.0	335.0	336.0	340.0	335.0	
Sun Jun 04 17:30:00 UTC 2017	1.0	1.048293376E9	2966.331298828125	0.0	2.5731072E7	0.0	2.0	9.4953472E8	48.789764404296875	0.0	0.0	1.061281792E9	1.050116096E9	0.0	null	0.07599999755620956	0.04774999991059303	0.04625000059604645	0.9919999837875366	0.7529168128967285	0.0	244.0	371.0	0.0	0.0	0.0	0.0	0.0	0.0	null	null	null	null	null	null	null	null	334.0	332.0	334.0	336.0	335.0	337.0	339.0	335.0	334.0	334.0	334.0	
Sun Jun 04 17:29:00 UTC 2017	0.0	1.048293376E9	2744.577392578125	0.0	2.5731072E7	0.0	2.0	9.49444608E8	48.789764404296875	0.0	0.0	1.061281792E9	1.050116096E9	0.0	0.0	0.07374999672174454	0.05299999937415123	0.045499999076128006	0.9919999837875366	0.7519343495368958	0.0	244.0	371.0	0.0	0.0	0.0	0.0	0.0	0.0	null	null	null	null	null	null	null	null	336.0	334.0	335.0	336.0	335.0	332.0	334.0	337.0	335.0	336.0	339.0	
Sun Jun 04 17:28:00 UTC 2017	0.0	1.047281664E9	2744.577392578125	0.0	2.5731072E7	0.0	4.0	9.49444608E8	48.789764404296875	0.0	0.0	1.062293504E9	1.050116096E9	0.0	0.0	0.0767500028014183	0.051750000566244125	0.04874999821186066	0.9919999837875366	0.7519299387931824	0.0	244.0	371.0	0.0	0.0	0.0	0.0	0.0	0.0	null	null	null	null	null	null	null	null	338.0	338.0	338.0	334.0	331.0	335.0	336.0	335.0	333.0	335.0	335.0	
Sun Jun 04 17:27:00 UTC 2017	0.0	1.047281664E9	2504.389892578125	0.0	2.5731072E7	0.0	5.0	9.49444608E8	58.72233200073242	0.0	0.0	1.061281792E9	1.050116096E9	0.0	0.0	0.07124999910593033	0.051750000566244125	0.0494999997317791	0.9917500019073486	0.7518834471702576	0.0	244.0	371.0	0.0	0.0	0.0	0.0	0.0	0.0	null	null	null	null	null	null	null	null	333.0	335.0	330.0	336.0	340.0	335.0	334.0	336.0	337.0	331.0	335.0	
Sun Jun 04 17:26:00 UTC 2017	0.0	1.047281664E9	3135.226318359375	0.0	2.5731072E7	0.0	4.0	9.49235712E8	58.72233200073242	1.0	2.0	1.061281792E9	1.050116096E9	0.0	null	0.07975000143051147	0.054499998688697815	0.04650000110268593	0.9917500019073486	0.7518677711486816	0.0	244.0	371.0	0.0	0.0	0.0	0.0	0.0	0.0	null	null	null	null	null	null	null	null	335.0	335.0	337.0	335.0	332.0	337.0	330.0	334.0	338.0	335.0	331.0	
Sun Jun 04 17:25:00 UTC 2017	0.0	1.047281664E9	2331.50830078125	0.0	2.5731072E7	0.0	5.0	9.49321728E8	58.72233200073242	2.0	2.0	1.062293504E9	1.050116096E9	0.0	null	0.07800000160932541	0.0560000017285347	0.048250000923871994	0.9919999837875366	0.754155158996582	0.0	244.0	371.0	0.0	0.0	0.0	0.0	0.0	0.0	null	null	null	null	null	null	null	null	335.0	337.0	333.0	331.0	337.0	330.0	332.0	335.0	334.0	335.0	335.0	
Sun Jun 04 17:24:00 UTC 2017	0.0	1.048293376E9	2331.50830078125	0.0	2.5731072E7	0.0	4.0	9.49231616E8	36.84120178222656	0.0	0.0	1.062293504E9	1.050116096E9	0.0	0.0	0.08174999803304672	0.04899999871850014	0.04625000059604645	0.9919999837875366	0.7541355490684509	0.0	244.0	371.0	0.0	0.0	0.0	0.0	0.0	0.0	null	null	null	null	null	null	null	null	334.0	338.0	336.0	335.0	335.0	336.0	334.0	336.0	334.0	335.0	334.0	
Sun Jun 04 17:23:00 UTC 2017	0.0	1.048293376E9	3587.8486328125	0.0	2.5731072E7	0.0	3.0	9.49231616E8	36.84120178222656	0.0	0.0	1.061281792E9	1.050116096E9	0.0	0.0	0.07124999910593033	0.054499998688697815	0.04774999991059303	0.9922500252723694	0.7517733573913574	0.0	244.0	371.0	0.0	0.0	0.0	0.0	0.0	0.0	null	null	null	null	null	null	null	null	336.0	332.0	336.0	336.0	334.0	337.0	335.0	337.0	334.0	336.0	338.0	
Sun Jun 04 17:22:00 UTC 2017	0.0	1.048293376E9	2575.659423828125	0.0	2.5731072E7	0.0	2.0	9.49231616E8	64.38182830810547	2.0	2.0	1.062293504E9	1.050116096E9	0.0	0.0	0.07100000232458115	0.054249998182058334	0.05025000125169754	0.9919999837875366	0.7517963647842407	0.0	244.0	371.0	0.0	0.0	0.0	0.0	0.0	0.0	null	null	null	null	null	null	null	null	337.0	335.0	335.0	340.0	337.0	337.0	336.0	333.0	335.0	338.0	338.0	
Sun Jun 04 17:21:00 UTC 2017	0.0	1.048293376E9	2322.112060546875	0.0	2.5731072E7	0.0	2.0	9.4902272E8	39.60794448852539	0.0	0.0	1.062293504E9	1.050116096E9	0.0	0.0	0.0989999994635582	0.048500001430511475	0.04749999940395355	0.9922500252723694	0.7540636658668518	0.0	244.0	371.0	0.0	0.0	0.0	0.0	0.0	0.0	null	null	null	null	null	null	null	null	336.0	338.0	338.0	335.0	333.0	335.0	333.0	336.0	335.0	335.0	334.0	
Sun Jun 04 17:20:00 UTC 2017	0.0	1.047281664E9	2322.112060546875	0.0	2.5731072E7	0.0	2.0	9.49112832E8	39.60794448852539	0.0	0.0	1.061281792E9	1.050116096E9	0.0	0.0	0.08224999904632568	0.04774999991059303	0.04450000077486038	0.9919999837875366	0.7540944814682007	0.0	244.0	371.0	0.0	0.0	0.0	0.0	0.0	0.0	null	null	null	null	null	null	null	null	332.0	335.0	336.0	332.0	335.0	335.0	334.0	336.0	335.0	334.0	335.0	
Sun Jun 04 17:19:00 UTC 2017	0.0	1.047281664E9	2815.692138671875	0.0	2.5731072E7	0.0	4.0	9.4902272E8	49.165958404541016	0.0	0.0	1.061281792E9	1.050116096E9	0.0	null	0.07249999791383743	0.05249999836087227	0.05249999836087227	0.9919999837875366	0.7518066167831421	0.0	244.0	371.0	0.0	0.0	0.0	0.0	0.0	0.0	null	null	null	null	null	null	null	null	335.0	336.0	333.0	337.0	335.0	334.0	335.0	335.0	339.0	336.0	335.0	
Sun Jun 04 17:18:00 UTC 2017	0.0	1.047281664E9	3050.58935546875	0.0	2.5731072E7	0.0	2.0	9.4902272E8	49.165958404541016	0.0	0.0	1.061281792E9	1.050116096E9	0.0	null	0.07349999994039536	0.05299999937415123	0.0442500002682209	0.9922500252723694	0.7540597319602966	0.0	244.0	371.0	0.0	0.0	0.0	0.0	0.0	0.0	null	null	null	null	null	null	null	null	339.0	331.0	336.0	336.0	337.0	335.0	334.0	335.0	335.0	334.0	337.0	
Sun Jun 04 17:17:00 UTC 2017	0.0	1.048293376E9	3050.58935546875	0.0	2.5731072E7	0.0	3.0	9.4902272E8	49.165958404541016	0.0	0.0	1.061281792E9	1.050116096E9	0.0	null	0.07275000214576721	0.04500000178813934	0.04800000041723251	0.9919999837875366	0.7534716129302979	0.0	244.0	371.0	0.0	0.0	0.0	0.0	0.0	0.0	null	null	null	null	null	null	null	null	336.0	336.0	334.0	333.0	336.0	336.0	335.0	334.0	334.0	335.0	337.0	
Sun Jun 04 17:16:00 UTC 2017	0.0	1.048293376E9	2913.28271484375	0.0	2.5731072E7	0.0	2.0	9.48809728E8	49.165958404541016	0.0	0.0	1.061281792E9	1.050116096E9	0.0	0.0	0.07349999994039536	0.0560000017285347	0.0430000014603138	0.9919999837875366	0.7517175674438477	0.0	244.0	371.0	0.0	0.0	0.0	0.0	0.0	0.0	null	null	null	null	null	null	null	null	332.0	335.0	337.0	336.0	334.0	335.0	336.0	334.0	333.0	335.0	333.0	
Sun Jun 04 17:15:00 UTC 2017	0.0	1.047281664E9	2913.28271484375	0.0	2.5731072E7	0.0	2.0	9.4889984E8	49.165958404541016	0.0	0.0	1.061281792E9	1.050116096E9	0.0	0.0	0.06700000166893005	0.04724999889731407	0.05249999836087227	0.9922500252723694	0.7517033815383911	0.0	244.0	371.0	0.0	0.0	0.0	0.0	0.0	0.0	null	null	null	null	null	null	null	null	335.0	335.0	336.0	332.0	338.0	336.0	336.0	336.0	337.0	338.0	338.0	
Sun Jun 04 17:14:00 UTC 2017	0.0	1.048293376E9	2913.28271484375	0.0	2.5731072E7	0.0	2.0	9.48809728E8	49.165958404541016	0.0	0.0	1.061281792E9	1.050116096E9	0.0	null	0.07575000077486038	0.04574999958276749	0.04625000059604645	0.9919999837875366	0.7516803741455078	0.0	244.0	371.0	0.0	0.0	0.0	0.0	0.0	0.0	null	null	null	null	null	null	null	null	336.0	334.0	335.0	336.0	333.0	338.0	336.0	334.0	330.0	333.0	332.0	
Sun Jun 04 17:13:00 UTC 2017	0.0	1.047281664E9	2913.28271484375	0.0	2.5731072E7	0.0	2.0	9.48809728E8	42.77358627319336	0.0	0.0	1.061281792E9	1.050116096E9	0.0	0.0	0.07724999636411667	0.0507499985396862	0.04600000008940697	0.9917500019073486	0.7517126798629761	0.0	244.0	371.0	0.0	0.0	0.0	0.0	0.0	0.0	null	null	null	null	null	null	null	null	336.0	334.0	335.0	335.0	334.0	333.0	334.0	337.0	336.0	335.0	338.0	
Sun Jun 04 17:12:00 UTC 2017	0.0	1.047281664E9	2490.884521484375	0.0	2.5731072E7	0.0	5.0	9.48809728E8	42.77358627319336	0.0	0.0	1.062293504E9	1.050116096E9	0.0	0.0	0.07824999839067459	0.0507499985396862	0.05025000125169754	0.9919999837875366	0.7516916394233704	0.0	244.0	371.0	0.0	0.0	0.0	0.0	0.0	0.0	null	null	null	null	null	null	null	null	338.0	338.0	336.0	334.0	335.0	336.0	336.0	332.0	335.0	337.0	332.0	
Sun Jun 04 17:11:00 UTC 2017	0.0	1.047281664E9	2531.060302734375	0.0	2.5731072E7	0.0	7.0	9.48596736E8	50.80703353881836	0.0	0.0	1.061281792E9	1.050116096E9	0.0	0.0	0.0949999988079071	0.05525000020861626	0.05050000175833702	0.9919999837875366	0.7516745328903198	0.0	244.0	371.0	0.0	0.0	0.0	0.0	0.0	0.0	null	null	null	null	null	null	null	null	329.0	337.0	331.0	335.0	338.0	333.0	334.0	339.0	337.0	336.0	337.0	
Sun Jun 04 17:10:00 UTC 2017	0.0	1.048293376E9	2531.060302734375	0.0	2.5731072E7	0.0	4.0	9.48948992E8	38.06849670410156	0.0	0.0	1.061281792E9	1.050116096E9	0.0	0.0	0.07724999636411667	0.04774999991059303	0.04749999940395355	0.9919999837875366	0.7516579031944275	0.0	244.0	371.0	0.0	0.0	0.0	0.0	0.0	0.0	null	null	null	null	null	null	null	null	335.0	333.0	337.0	334.0	334.0	337.0	338.0	335.0	334.0	332.0	334.0	
Sun Jun 04 17:09:00 UTC 2017	0.0	1.048293376E9	2809.255126953125	0.0	2.5731072E7	0.0	2.0	9.48649984E8	38.06849670410156	0.0	0.0	1.062293504E9	1.050116096E9	0.0	0.0	0.06750000268220901	0.050999999046325684	0.0430000014603138	0.9919999837875366	0.7516510486602783	0.0	244.0	371.0	0.0	0.0	0.0	0.0	0.0	0.0	null	null	null	null	null	null	null	null	334.0	335.0	332.0	336.0	335.0	331.0	334.0	333.0	337.0	340.0	336.0	
Sun Jun 04 17:08:00 UTC 2017	0.0	1.048293376E9	2988.347412109375	0.0	2.5731072E7	0.0	2.0	9.48649984E8	38.06849670410156	0.0	0.0	1.061281792E9	1.050116096E9	0.0	0.0	0.07599999755620956	0.051750000566244125	0.052000001072883606	0.9922500252723694	0.751640796661377	0.0	244.0	371.0	0.0	0.0	0.0	0.0	0.0	0.0	null	null	null	null	null	null	null	null	337.0	333.0	338.0	335.0	336.0	339.0	334.0	336.0	334.0	332.0	336.0	
Sun Jun 04 17:07:00 UTC 2017	0.0	1.048293376E9	2441.991943359375	0.0	2.5731072E7	0.0	2.0	9.48649984E8	38.06849670410156	0.0	0.0	1.062293504E9	1.050116096E9	0.0	0.0	0.0794999971985817	0.05274999886751175	0.04650000110268593	0.9919999837875366	0.75163733959198	0.0	244.0	371.0	0.0	0.0	0.0	0.0	0.0	0.0	null	null	null	null	null	null	null	null	336.0	338.0	335.0	334.0	330.0	334.0	338.0	337.0	334.0	339.0	330.0	
Sun Jun 04 17:06:00 UTC 2017	0.0	1.048293376E9	2668.352783203125	0.0	2.5731072E7	0.0	2.0	9.48441088E8	45.384315490722656	0.0	0.0	1.062293504E9	1.050116096E9	0.0	0.0	0.06800000369548798	0.04600000008940697	0.04650000110268593	0.9919999837875366	0.7516129016876221	0.0	244.0	371.0	0.0	0.0	0.0	0.0	0.0	0.0	null	null	null	null	null	null	null	null	337.0	335.0	341.0	336.0	339.0	337.0	338.0	332.0	333.0	336.0	339.0	
Sun Jun 04 17:05:00 UTC 2017	0.0	1.047281664E9	2668.352783203125	0.0	2.5731072E7	0.0	2.0	9.48527104E8	50.13191223144531	0.0	0.0	1.062293504E9	1.050116096E9	0.0	0.0	0.0767500028014183	0.05050000175833702	0.052000001072883606	0.9919999837875366	0.7515967488288879	0.0	244.0	371.0	0.0	0.0	0.0	0.0	0.0	0.0	null	null	null	null	null	null	null	null	336.0	332.0	336.0	335.0	331.0	333.0	334.0	336.0	334.0	332.0	334.0	
Sun Jun 04 17:04:00 UTC 2017	0.0	1.048293376E9	2668.352783203125	0.0	2.5731072E7	0.0	2.0	9.48436992E8	50.13191223144531	0.0	0.0	1.062293504E9	1.050116096E9	0.0	0.0	0.08299999684095383	0.05700000002980232	0.04475000128149986	0.9917500019073486	0.7515791058540344	0.0	244.0	371.0	0.0	0.0	0.0	0.0	0.0	0.0	null	null	null	null	null	null	null	null	334.0	335.0	333.0	335.0	340.0	334.0	335.0	335.0	333.0	340.0	336.0	
Sun Jun 04 17:03:00 UTC 2017	0.0	1.047281664E9	2668.352783203125	0.0	2.5731072E7	0.0	2.0	9.48436992E8	42.64927673339844	0.0	0.0	1.061281792E9	1.050116096E9	0.0	0.0	0.06650000065565109	0.04899999871850014	0.05000000074505806	0.9919999837875366	0.75154048204422	0.0	244.0	371.0	0.0	0.0	0.0	0.0	0.0	0.0	null	null	null	null	null	null	null	null	338.0	337.0	336.0	337.0	336.0	335.0	337.0	333.0	337.0	334.0	332.0	
Sun Jun 04 17:02:00 UTC 2017	0.0	1.048293376E9	2668.352783203125	0.0	2.5731072E7	0.0	4.0	9.48436992E8	58.818145751953125	0.0	0.0	1.062293504E9	1.050116096E9	0.0	0.0	0.0807500034570694	0.04699999839067459	0.04874999821186066	0.9919999837875366	0.75152188539505	0.0	244.0	371.0	0.0	0.0	0.0	0.0	0.0	0.0	null	null	null	null	null	null	null	null	334.0	335.0	337.0	334.0	333.0	339.0	334.0	335.0	335.0	335.0	341.0	
Sun Jun 04 17:01:00 UTC 2017	0.0	1.047281664E9	2668.352783203125	0.0	2.5731072E7	0.0	5.0	9.48318208E8	58.818145751953125	0.0	0.0	1.061281792E9	1.050116096E9	0.0	0.0	0.09049999713897705	0.05324999988079071	0.04800000041723251	0.9917500019073486	0.7515062093734741	0.0	244.0	371.0	0.0	0.0	0.0	0.0	0.0	0.0	null	null	null	null	null	null	null	null	338.0	335.0	334.0	334.0	331.0	333.0	336.0	335.0	335.0	334.0	331.0	
Sun Jun 04 17:00:00 UTC 2017	0.0	1.048293376E9	2668.352783203125	0.0	2.5731072E7	0.0	4.0	9.48318208E8	58.818145751953125	0.0	0.0	1.062293504E9	1.050116096E9	0.0	0.0	0.07800000160932541	0.04800000041723251	0.0494999997317791	0.9917500019073486	0.7515013217926025	0.0	244.0	371.0	0.0	0.0	0.0	0.0	0.0	0.0	null	null	null	null	null	null	null	null	336.0	332.0	336.0	335.0	337.0	334.0	333.0	334.0	333.0	334.0	338.0	
Sun Jun 04 16:59:00 UTC 2017	0.0	1.048293376E9	3065.090087890625	0.0	2.5731072E7	0.0	2.0	9.48228096E8	58.818145751953125	0.0	0.0	1.061281792E9	1.050116096E9	0.0	0.0	0.07175000011920929	0.054499998688697815	0.048500001430511475	0.9915000200271606	0.7514827251434326	0.0	244.0	371.0	0.0	0.0	0.0	0.0	0.0	0.0	null	null	null	null	null	null	null	null	334.0	337.0	335.0	332.0	332.0	332.0	333.0	334.0	337.0	336.0	336.0	
Sun Jun 04 16:58:00 UTC 2017	0.0	1.047281664E9	3065.090087890625	0.0	2.5731072E7	0.0	2.0	9.48228096E8	50.83817672729492	0.0	0.0	1.061281792E9	1.050116096E9	0.0	0.0	0.08025000244379044	0.04800000041723251	0.04574999958276749	0.9917500019073486	0.7514626979827881	0.0	244.0	371.0	0.0	0.0	0.0	0.0	0.0	0.0	null	null	null	null	null	null	null	null	334.0	333.0	335.0	338.0	335.0	338.0	338.0	339.0	336.0	331.0	334.0	
Sun Jun 04 16:57:00 UTC 2017	0.0	1.047281664E9	2705.033447265625	0.0	2.5731072E7	0.0	2.0	9.48228096E8	50.83817672729492	0.0	0.0	1.061281792E9	1.050116096E9	0.0	0.0	0.07900000363588333	0.05249999836087227	0.04650000110268593	0.9919999837875366	0.7514626979827881	0.0	244.0	371.0	0.0	0.0	0.0	0.0	0.0	0.0	null	null	null	null	null	null	null	null	337.0	340.0	331.0	337.0	334.0	332.0	337.0	335.0	335.0	337.0	336.0	
Sun Jun 04 16:56:00 UTC 2017	0.0	1.047281664E9	2417.00732421875	0.0	2.5731072E7	0.0	4.0	9.4810112E8	52.49408721923828	0.0	0.0	1.061281792E9	1.050116096E9	0.0	0.0	0.06650000065565109	0.051500000059604645	0.0442500002682209	0.9917500019073486	0.7514445781707764	0.0	244.0	371.0	0.0	0.0	0.0	0.0	0.0	0.0	null	null	null	null	null	null	null	null	333.0	332.0	339.0	331.0	338.0	337.0	336.0	335.0	333.0	334.0	333.0	
Sun Jun 04 16:55:00 UTC 2017	0.0	1.047281664E9	2864.533203125	0.0	2.5731072E7	0.0	4.0	9.4810112E8	52.49408721923828	0.0	0.0	1.061281792E9	1.050116096E9	0.0	0.0	0.07724999636411667	0.051500000059604645	0.04975000023841858	0.9919999837875366	0.7537181973457336	0.0	244.0	371.0	0.0	0.0	0.0	0.0	0.0	0.0	null	null	null	null	null	null	null	null	332.0	338.0	334.0	334.0	331.0	333.0	334.0	331.0	336.0	336.0	337.0	
Sun Jun 04 16:54:00 UTC 2017	0.0	1.047281664E9	2644.191162109375	0.0	2.5731072E7	0.0	3.0	9.48011008E8	41.07896423339844	0.0	0.0	1.061281792E9	1.050116096E9	0.0	null	0.08224999904632568	0.04650000110268593	0.04774999991059303	0.9919999837875366	0.7514323592185974	0.0	244.0	371.0	0.0	0.0	0.0	0.0	0.0	0.0	null	null	null	null	null	null	null	null	335.0	337.0	336.0	334.0	334.0	336.0	333.0	335.0	334.0	333.0	334.0	
Sun Jun 04 16:53:00 UTC 2017	0.0	1.048293376E9	2644.191162109375	0.0	2.5731072E7	0.0	4.0	9.48011008E8	38.47744369506836	1.0	1.0	1.062293504E9	1.050116096E9	0.0	null	0.07100000232458115	0.05375000089406967	0.05050000175833702	0.9915000200271606	0.7513589262962341	0.0	244.0	371.0	0.0	0.0	0.0	0.0	0.0	0.0	null	null	null	null	null	null	null	null	339.0	334.0	334.0	335.0	336.0	336.0	337.0	336.0	335.0	339.0	335.0	
Sun Jun 04 16:52:00 UTC 2017	0.0	1.047281664E9	2644.191162109375	0.0	2.5731072E7	0.0	3.0	9.48011008E8	56.742408752441406	2.0	2.0	1.061281792E9	1.050116096E9	0.0	null	0.07524999976158142	0.05050000175833702	0.04800000041723251	0.9915000200271606	0.7532666325569153	0.0	244.0	371.0	0.0	0.0	0.0	0.0	0.0	0.0	null	null	null	null	null	null	null	null	330.0	335.0	335.0	333.0	332.0	333.0	332.0	334.0	338.0	334.0	337.0	
Sun Jun 04 16:51:00 UTC 2017	1.0	1.047281664E9	2433.157470703125	0.0	2.5731072E7	0.0	4.0	9.47798016E8	56.742408752441406	0.0	0.0	1.062293504E9	1.050116096E9	0.0	null	0.10000000149011612	0.0507499985396862	0.04475000128149986	0.9915000200271606	0.7513594627380371	0.0	244.0	371.0	0.0	0.0	0.0	0.0	0.0	0.0	null	null	null	null	null	null	null	null	338.0	336.0	334.0	337.0	334.0	334.0	335.0	333.0	334.0	332.0	332.0	
Sun Jun 04 16:50:00 UTC 2017	0.0	1.047281664E9	2751.216796875	0.0	2.5731072E7	0.0	2.0	9.47888128E8	56.742408752441406	0.0	0.0	1.061281792E9	1.050116096E9	0.0	null	0.06875000149011612	0.05400000140070915	0.05249999836087227	0.9912499785423279	0.7513643503189087	0.0	244.0	371.0	0.0	0.0	0.0	0.0	0.0	0.0	null	null	null	null	null	null	null	null	331.0	336.0	337.0	330.0	333.0	333.0	332.0	334.0	331.0	335.0	337.0	
Sun Jun 04 16:49:00 UTC 2017	0.0	1.047281664E9	2710.117919921875	0.0	2.5731072E7	0.0	2.0	9.47798016E8	56.742408752441406	0.0	0.0	1.062293504E9	1.050116096E9	0.0	null	0.07275000214576721	0.05225000157952309	0.04374999925494194	0.9897500276565552	0.7536340355873108	0.0	244.0	371.0	0.0	0.0	0.0	0.0	0.0	0.0	null	null	null	null	null	null	null	null	335.0	332.0	337.0	336.0	332.0	334.0	334.0	332.0	329.0	334.0	332.0	
Sun Jun 04 16:48:00 UTC 2017	1.0	1.047281664E9	2790.849365234375	0.0	2.5731072E7	0.0	2.0	9.47798016E8	32.68463134765625	0.0	0.0	1.062293504E9	1.050116096E9	0.0	0.0	0.08399999886751175	0.0494999997317791	0.05050000175833702	0.9909999966621399	0.7513501644134521	0.0	244.0	371.0	0.0	0.0	0.0	0.0	0.0	0.0	null	null	null	null	null	null	null	null	334.0	333.0	333.0	331.0	335.0	332.0	334.0	333.0	334.0	336.0	333.0	
Sun Jun 04 16:47:00 UTC 2017	1.0	1.047281664E9	2942.724853515625	0.0	2.5731072E7	0.0	2.0	9.47798016E8	32.68463134765625	0.0	1.0	1.061281792E9	1.050116096E9	0.0	0.0	0.07150000333786011	0.0494999997317791	0.04475000128149986	0.9869999885559082	0.7513261437416077	0.0	244.0	371.0	0.0	0.0	0.0	0.0	0.0	0.0	null	null	null	null	null	null	null	null	332.0	335.0	332.0	335.0	331.0	332.0	331.0	334.0	335.0	332.0	329.0	
Sun Jun 04 16:46:00 UTC 2017	1.0	1.047281664E9	3002.220947265625	0.0	2.5731072E7	0.0	2.0	9.4758912E8	41.222023010253906	0.0	0.0	1.061281792E9	1.050116096E9	0.0	0.0	0.07374999672174454	0.05324999988079071	0.05550000071525574	0.9915000200271606	0.7536888718605042	0.0	244.0	371.0	0.0	0.0	0.0	0.0	0.0	0.0	null	null	null	null	null	null	null	null	334.0	334.0	337.0	332.0	338.0	332.0	333.0	335.0	334.0	332.0	336.0	
Sun Jun 04 16:45:00 UTC 2017	0.0	1.048293376E9	3002.220947265625	0.0	2.5731072E7	0.0	2.0	9.47859456E8	50.647647857666016	0.0	0.0	1.061281792E9	1.050116096E9	0.0	null	0.07175000011920929	0.05249999836087227	0.041749998927116394	0.9915000200271606	0.7514323592185974	0.0	244.0	371.0	0.0	0.0	0.0	0.0	0.0	0.0	null	null	null	null	null	null	null	null	336.0	332.0	334.0	335.0	332.0	334.0	335.0	336.0	333.0	336.0	331.0	
Sun Jun 04 16:44:00 UTC 2017	0.0	1.047281664E9	3002.220947265625	0.0	2.5731072E7	0.0	2.0	9.4758912E8	50.647647857666016	0.0	0.0	1.062293504E9	1.050116096E9	0.0	null	0.07500000298023224	0.04399999976158142	0.05025000125169754	0.9912499785423279	0.7514122724533081	0.0	244.0	371.0	0.0	0.0	0.0	0.0	0.0	0.0	null	null	null	null	null	null	null	null	332.0	333.0	331.0	333.0	333.0	334.0	332.0	334.0	333.0	330.0	335.0	
Sun Jun 04 16:43:00 UTC 2017	1.0	1.048293376E9	3002.220947265625	0.0	2.5731072E7	0.0	6.0	9.4758912E8	50.647647857666016	0.0	0.0	1.062293504E9	1.050116096E9	0.0	0.0	0.07374999672174454	0.05400000140070915	0.04600000008940697	0.9882500171661377	0.751396119594574	0.0	244.0	371.0	0.0	0.0	0.0	0.0	0.0	0.0	null	null	null	null	null	null	null	null	335.0	333.0	332.0	337.0	338.0	331.0	334.0	329.0	334.0	337.0	331.0	
Sun Jun 04 16:42:00 UTC 2017	1.0	1.047281664E9	3002.220947265625	0.0	2.5731072E7	0.0	3.0	9.4758912E8	50.647647857666016	0.0	0.0	1.062293504E9	1.050116096E9	0.0	0.0	0.07925000041723251	0.04975000023841858	0.05000000074505806	0.9915000200271606	0.7513794898986816	0.0	244.0	371.0	0.0	0.0	0.0	0.0	0.0	0.0	null	null	null	null	null	null	null	null	332.0	338.0	333.0	333.0	331.0	336.0	334.0	337.0	334.0	333.0	334.0	
Sun Jun 04 16:41:00 UTC 2017	0.0	1.048293376E9	3002.220947265625	0.0	2.5731072E7	0.0	2.0	9.47376128E8	50.647647857666016	0.0	0.0	1.062293504E9	1.050116096E9	0.0	0.0	0.09950000047683716	0.0507499985396862	0.051249999552965164	0.9915000200271606	0.7536683082580566	0.0	244.0	371.0	0.0	0.0	0.0	0.0	0.0	0.0	null	null	null	null	null	null	null	null	334.0	334.0	334.0	337.0	338.0	335.0	337.0	334.0	333.0	336.0	333.0	
Sun Jun 04 16:40:00 UTC 2017	0.0	1.047281664E9	3002.220947265625	0.0	2.5731072E7	0.0	2.0	9.4746624E8	50.647647857666016	0.0	0.0	1.062293504E9	1.050116096E9	0.0	0.0	0.07500000298023224	0.050999999046325684	0.04349999874830246	0.9915000200271606	0.7535552978515625	0.0	244.0	371.0	0.0	0.0	0.0	0.0	0.0	0.0	null	null	null	null	null	null	null	null	335.0	333.0	338.0	334.0	335.0	336.0	333.0	337.0	333.0	334.0	336.0	
Sun Jun 04 16:39:00 UTC 2017	0.0	1.047281664E9	2894.32666015625	0.0	2.5731072E7	0.0	2.0	9.47376128E8	39.99346160888672	0.0	0.0	1.062293504E9	1.050116096E9	0.0	0.0	0.0832500010728836	0.04774999991059303	0.04749999940395355	0.9917500019073486	0.7512043118476868	0.0	244.0	371.0	0.0	0.0	0.0	0.0	0.0	0.0	null	null	null	null	null	null	null	null	333.0	335.0	329.0	331.0	330.0	334.0	334.0	334.0	335.0	334.0	336.0	
Sun Jun 04 16:38:00 UTC 2017	0.0	1.048293376E9	2894.32666015625	0.0	2.5731072E7	0.0	3.0	9.47376128E8	39.99346160888672	0.0	0.0	1.061281792E9	1.050116096E9	0.0	0.0	0.07349999994039536	0.0507499985396862	0.04975000023841858	0.9915000200271606	0.7512038350105286	0.0	244.0	371.0	0.0	0.0	0.0	0.0	0.0	0.0	null	null	null	null	null	null	null	null	335.0	335.0	336.0	337.0	335.0	335.0	337.0	334.0	337.0	333.0	333.0	
Sun Jun 04 16:37:00 UTC 2017	1.0	1.047281664E9	2894.32666015625	0.0	2.5731072E7	0.0	2.0	9.47376128E8	39.99346160888672	0.0	0.0	1.062293504E9	1.050116096E9	0.0	0.0	0.07175000011920929	0.054499998688697815	0.05000000074505806	0.9917500019073486	0.751198947429657	0.0	244.0	371.0	0.0	0.0	0.0	0.0	0.0	0.0	null	null	null	null	null	null	null	null	337.0	334.0	332.0	332.0	336.0	332.0	337.0	336.0	333.0	334.0	332.0	
Sun Jun 04 16:36:00 UTC 2017	0.0	1.047281664E9	2305.510009765625	0.0	2.5731072E7	0.0	2.0	9.47163136E8	39.99346160888672	0.0	0.0	1.061281792E9	1.050116096E9	0.0	0.0	0.07124999910593033	0.04749999940395355	0.04349999874830246	0.9917500019073486	0.7512556910514832	0.0	244.0	371.0	0.0	0.0	0.0	0.0	0.0	0.0	null	null	null	null	null	null	null	null	335.0	335.0	332.0	337.0	336.0	333.0	335.0	334.0	333.0	331.0	337.0	
Sun Jun 04 16:35:00 UTC 2017	0.0	1.047281664E9	2542.166015625	0.0	2.5731072E7	0.0	4.0	9.47253248E8	39.99346160888672	0.0	0.0	1.061281792E9	1.050116096E9	0.0	0.0	0.07275000214576721	0.05299999937415123	0.05274999886751175	0.9917500019073486	0.7511891722679138	0.0	244.0	371.0	0.0	0.0	0.0	0.0	0.0	0.0	null	null	null	null	null	null	null	null	336.0	333.0	334.0	334.0	333.0	337.0	332.0	334.0	335.0	337.0	332.0	
Sun Jun 04 16:34:00 UTC 2017	0.0	1.047281664E9	3160.476806640625	0.0	2.5731072E7	0.0	5.0	9.47163136E8	63.345054626464844	0.0	0.0	1.062293504E9	1.050116096E9	0.0	0.0	0.07824999839067459	0.04975000023841858	0.04699999839067459	0.9917500019073486	0.7525205016136169	0.0	244.0	371.0	0.0	0.0	0.0	0.0	0.0	0.0	null	null	null	null	null	null	null	null	333.0	338.0	337.0	336.0	335.0	334.0	338.0	331.0	334.0	333.0	334.0	
Sun Jun 04 16:33:00 UTC 2017	0.0	1.047281664E9	2808.622314453125	0.0	2.5731072E7	0.0	2.0	9.47163136E8	63.345054626464844	0.0	0.0	1.061281792E9	1.050116096E9	0.0	0.0	0.07874999940395355	0.04899999871850014	0.05050000175833702	0.9917500019073486	0.7512341737747192	0.0	244.0	371.0	0.0	0.0	0.0	0.0	0.0	0.0	null	null	null	null	null	null	null	null	336.0	333.0	334.0	334.0	333.0	333.0	335.0	336.0	336.0	335.0	335.0	
Sun Jun 04 16:32:00 UTC 2017	0.0	1.047281664E9	2922.327392578125	0.0	2.5731072E7	0.0	2.0	9.47163136E8	49.20656967163086	0.0	0.0	1.061281792E9	1.050116096E9	0.0	0.0	0.06825000047683716	0.054749999195337296	0.04500000178813934	0.9917500019073486	0.7512292861938477	0.0	244.0	371.0	0.0	0.0	0.0	0.0	0.0	0.0	null	null	null	null	null	null	null	null	334.0	335.0	335.0	331.0	337.0	334.0	338.0	335.0	333.0	336.0	338.0	
Sun Jun 04 16:31:00 UTC 2017	0.0	1.047281664E9	3025.8564453125	0.0	2.5731072E7	0.0	4.0	9.4695424E8	49.20656967163086	0.0	0.0	1.061281792E9	1.050116096E9	0.0	0.0	0.1132500022649765	0.04399999976158142	0.04774999991059303	0.9912499785423279	0.7534985542297363	0.0	244.0	371.0	0.0	0.0	0.0	0.0	0.0	0.0	null	null	null	null	null	null	null	null	331.0	329.0	335.0	337.0	333.0	336.0	332.0	331.0	335.0	331.0	332.0	
Sun Jun 04 16:30:00 UTC 2017	0.0	1.048293376E9	3025.8564453125	0.0	2.5731072E7	0.0	4.0	9.47044352E8	70.14749908447266	0.0	0.0	1.061281792E9	1.050116096E9	0.0	0.0	0.07100000232458115	0.057750001549720764	0.048500001430511475	0.9892500042915344	0.7511901259422302	0.0	244.0	371.0	0.0	0.0	0.0	0.0	0.0	0.0	null	null	null	null	null	null	null	null	335.0	335.0	332.0	331.0	330.0	335.0	330.0	334.0	337.0	335.0	334.0	
Sun Jun 04 16:29:00 UTC 2017	0.0	1.047281664E9	3025.8564453125	0.0	2.5731072E7	0.0	3.0	9.4695424E8	70.14749908447266	0.0	0.0	1.061281792E9	1.050116096E9	0.0	0.0	0.07649999856948853	0.050999999046325684	0.048500001430511475	0.9819999933242798	0.7511593103408813	0.0	244.0	371.0	0.0	0.0	0.0	0.0	0.0	0.0	null	null	null	null	null	null	null	null	332.0	330.0	330.0	328.0	328.0	328.0	332.0	330.0	327.0	330.0	330.0	
Sun Jun 04 16:28:00 UTC 2017	0.0	1.047281664E9	2824.56396484375	0.0	2.5731072E7	0.0	2.0	9.4695424E8	70.14749908447266	0.0	0.0	1.062293504E9	1.050116096E9	0.0	0.0	0.07975000143051147	0.04574999958276749	0.04699999839067459	0.9890000224113464	0.7511573433876038	0.0	244.0	371.0	0.0	0.0	0.0	0.0	0.0	0.0	null	null	null	null	null	null	null	null	335.0	336.0	333.0	335.0	333.0	332.0	336.0	332.0	332.0	329.0	332.0	
Sun Jun 04 16:27:00 UTC 2017	0.0	1.048293376E9	2824.56396484375	0.0	2.5731072E7	0.0	3.0	9.4695424E8	40.40603256225586	0.0	0.0	1.061281792E9	1.050116096E9	0.0	0.0	0.07374999672174454	0.05000000074505806	0.04500000178813934	0.9917500019073486	0.7530278563499451	0.0	244.0	371.0	0.0	0.0	0.0	0.0	0.0	0.0	null	null	null	null	null	null	null	null	333.0	335.0	333.0	336.0	335.0	337.0	333.0	336.0	337.0	336.0	337.0	
Sun Jun 04 16:26:00 UTC 2017	0.0	1.047281664E9	2824.56396484375	0.0	2.5731072E7	0.0	3.0	9.46741248E8	40.40603256225586	0.0	0.0	1.061281792E9	1.050116096E9	0.0	0.0	0.07150000333786011	0.054749999195337296	0.04899999871850014	0.9912499785423279	0.7510057091712952	0.0	244.0	371.0	0.0	0.0	0.0	0.0	0.0	0.0	null	null	null	null	null	null	null	null	335.0	335.0	332.0	333.0	332.0	334.0	338.0	335.0	334.0	332.0	332.0	
Sun Jun 04 16:25:00 UTC 2017	0.0	1.048293376E9	2824.56396484375	0.0	2.5731072E7	0.0	3.0	9.4683136E8	49.18360900878906	0.0	0.0	1.062293504E9	1.050116096E9	0.0	0.0	0.08174999803304672	0.04574999958276749	0.04774999991059303	0.9917500019073486	0.7520414590835571	0.0	244.0	371.0	0.0	0.0	0.0	0.0	0.0	0.0	null	null	null	null	null	null	null	null	333.0	331.0	338.0	334.0	338.0	329.0	333.0	332.0	334.0	338.0	334.0	
Sun Jun 04 16:24:00 UTC 2017	0.0	1.047281664E9	2824.56396484375	0.0	2.5731072E7	0.0	4.0	9.46741248E8	32.02387619018555	0.0	0.0	1.062293504E9	1.050116096E9	0.0	null	0.06599999964237213	0.04625000059604645	0.05050000175833702	0.9917500019073486	0.7519412040710449	0.0	244.0	371.0	0.0	0.0	0.0	0.0	0.0	0.0	null	null	null	null	null	null	null	null	337.0	335.0	335.0	334.0	335.0	337.0	333.0	335.0	335.0	331.0	333.0	
Sun Jun 04 16:23:00 UTC 2017	0.0	1.048293376E9	2824.56396484375	0.0	2.5731072E7	0.0	6.0	9.46741248E8	32.02387619018555	0.0	0.0	1.061281792E9	1.050116096E9	0.0	null	0.08174999803304672	0.054499998688697815	0.04650000110268593	0.9919999837875366	0.7519715428352356	0.0	244.0	371.0	0.0	0.0	0.0	0.0	0.0	0.0	null	null	null	null	null	null	null	null	333.0	339.0	337.0	335.0	334.0	337.0	335.0	332.0	334.0	339.0	338.0	
Sun Jun 04 16:22:00 UTC 2017	0.0	1.048293376E9	2835.31787109375	0.0	2.5731072E7	0.0	5.0	9.46741248E8	32.02387619018555	0.0	0.0	1.061281792E9	1.050116096E9	0.0	0.0	0.06825000047683716	0.04975000023841858	0.05050000175833702	0.9922500252723694	0.7520043253898621	0.0	244.0	371.0	0.0	0.0	0.0	0.0	0.0	0.0	null	null	null	null	null	null	null	null	335.0	334.0	334.0	334.0	334.0	332.0	334.0	338.0	336.0	337.0	336.0	
Sun Jun 04 16:21:00 UTC 2017	0.0	1.048293376E9	2156.74169921875	0.0	2.5731072E7	0.0	3.0	9.46528256E8	32.02387619018555	0.0	0.0	1.062293504E9	1.050116096E9	0.0	0.0	0.10324999690055847	0.04975000023841858	0.04699999839067459	0.9919999837875366	0.7542730569839478	0.0	244.0	371.0	0.0	0.0	0.0	0.0	0.0	0.0	null	null	null	null	null	null	null	null	338.0	333.0	337.0	335.0	333.0	336.0	337.0	334.0	335.0	335.0	332.0	
Sun Jun 04 16:20:00 UTC 2017	0.0	1.048293376E9	2818.52978515625	0.0	2.5731072E7	0.0	3.0	9.46618368E8	32.02387619018555	0.0	0.0	1.061281792E9	1.050116096E9	0.0	0.0	0.07500000298023224	0.05025000125169754	0.04699999839067459	0.9919999837875366	0.7519827485084534	0.0	244.0	371.0	0.0	0.0	0.0	0.0	0.0	0.0	null	null	null	null	null	null	null	null	336.0	337.0	336.0	337.0	339.0	333.0	336.0	334.0	333.0	336.0	337.0	
Sun Jun 04 16:19:00 UTC 2017	0.0	1.048293376E9	2976.178466796875	0.0	2.5731072E7	0.0	3.0	9.46528256E8	32.02387619018555	0.0	0.0	1.061281792E9	1.050116096E9	0.0	null	0.08275000005960464	0.051500000059604645	0.04699999839067459	0.9917500019073486	0.7542461156845093	0.0	244.0	371.0	0.0	0.0	0.0	0.0	0.0	0.0	null	null	null	null	null	null	null	null	333.0	333.0	332.0	334.0	334.0	336.0	336.0	332.0	332.0	333.0	331.0	
Sun Jun 04 16:18:00 UTC 2017	0.0	1.047281664E9	2976.178466796875	0.0	2.5731072E7	0.0	6.0	9.46528256E8	60.62102127075195	0.0	0.0	1.062293504E9	1.050116096E9	0.0	null	0.06300000101327896	0.04975000023841858	0.04924999922513962	0.9919999837875366	0.751960277557373	0.0	244.0	371.0	0.0	0.0	0.0	0.0	0.0	0.0	null	null	null	null	null	null	null	null	334.0	335.0	336.0	334.0	339.0	335.0	333.0	339.0	335.0	336.0	338.0	
Sun Jun 04 16:17:00 UTC 2017	0.0	1.047281664E9	2632.491455078125	0.0	2.5731072E7	0.0	5.0	9.46528256E8	37.557159423828125	0.0	0.0	1.062293504E9	1.050116096E9	0.0	null	0.08150000125169754	0.04874999821186066	0.04975000023841858	0.9919999837875366	0.7540313601493835	0.0	244.0	371.0	0.0	0.0	0.0	0.0	0.0	0.0	null	null	null	null	null	null	null	null	334.0	336.0	338.0	339.0	333.0	335.0	338.0	333.0	332.0	335.0	334.0	
Sun Jun 04 16:16:00 UTC 2017	0.0	1.047281664E9	2802.050048828125	0.0	2.5731072E7	0.0	2.0	9.4631936E8	42.96200942993164	0.0	0.0	1.062293504E9	1.050116096E9	0.0	0.0	0.07249999791383743	0.04699999839067459	0.045249998569488525	0.9919999837875366	0.7542280554771423	0.0	244.0	371.0	0.0	0.0	0.0	0.0	0.0	0.0	null	null	null	null	null	null	null	null	336.0	333.0	330.0	332.0	336.0	337.0	331.0	336.0	335.0	333.0	335.0	
Sun Jun 04 16:15:00 UTC 2017	0.0	1.048293376E9	2802.050048828125	0.0	2.5731072E7	0.0	2.0	9.46405376E8	51.032371520996094	0.0	0.0	1.061281792E9	1.050116096E9	0.0	0.0	0.07774999737739563	0.054999999701976776	0.048500001430511475	0.9917500019073486	0.7519270181655884	0.0	244.0	371.0	0.0	0.0	0.0	0.0	0.0	0.0	null	null	null	null	null	null	null	null	339.0	335.0	335.0	336.0	337.0	335.0	335.0	336.0	335.0	333.0	335.0	
Sun Jun 04 16:14:00 UTC 2017	0.0	1.047281664E9	2802.050048828125	0.0	2.5731072E7	0.0	2.0	9.46315264E8	51.032371520996094	1.0	1.0	1.061281792E9	1.050116096E9	0.0	0.0	0.0807500034570694	0.04699999839067459	0.04774999991059303	0.9919999837875366	0.7541933059692383	0.0	244.0	371.0	0.0	0.0	0.0	0.0	0.0	0.0	null	null	null	null	null	null	null	null	336.0	338.0	334.0	335.0	333.0	333.0	339.0	333.0	336.0	335.0	335.0	
Sun Jun 04 16:13:00 UTC 2017	0.0	1.048293376E9	2802.050048828125	0.0	2.5731072E7	0.0	2.0	9.46315264E8	49.81011962890625	0.0	0.0	1.061281792E9	1.050116096E9	0.0	0.0	0.07249999791383743	0.05575000122189522	0.05000000074505806	0.9919999837875366	0.7541600465774536	0.0	244.0	371.0	0.0	0.0	0.0	0.0	0.0	0.0	null	null	null	null	null	null	null	null	335.0	333.0	337.0	336.0	335.0	338.0	332.0	337.0	334.0	335.0	333.0	
Sun Jun 04 16:12:00 UTC 2017	0.0	1.048293376E9	2432.7568359375	0.0	2.5731072E7	0.0	4.0	9.46315264E8	65.78144073486328	0.0	0.0	1.061281792E9	1.050116096E9	0.0	0.0	0.06849999725818634	0.048500001430511475	0.04774999991059303	0.9919999837875366	0.7518633604049683	0.0	244.0	371.0	0.0	0.0	0.0	0.0	0.0	0.0	null	null	null	null	null	null	null	null	337.0	334.0	337.0	337.0	337.0	334.0	335.0	334.0	340.0	335.0	331.0	
Sun Jun 04 16:11:00 UTC 2017	0.0	1.048293376E9	2688.420166015625	0.0	2.5731072E7	0.0	2.0	9.46458624E8	48.13121795654297	0.0	0.0	1.062293504E9	1.050116096E9	0.0	0.0	0.10925000160932541	0.05025000125169754	0.045249998569488525	0.9917500019073486	0.7541350722312927	0.0	244.0	371.0	0.0	0.0	0.0	0.0	0.0	0.0	null	null	null	null	null	null	null	null	334.0	335.0	331.0	335.0	335.0	337.0	337.0	337.0	331.0	335.0	337.0	
Sun Jun 04 16:10:00 UTC 2017	0.0	1.047281664E9	2688.420166015625	0.0	2.5731072E7	0.0	3.0	9.46458624E8	45.5197639465332	0.0	0.0	1.061281792E9	1.050116096E9	0.0	0.0	0.07050000131130219	0.054249998182058334	0.050999999046325684	0.9917500019073486	0.751825213432312	0.0	244.0	371.0	0.0	0.0	0.0	0.0	0.0	0.0	null	null	null	null	null	null	null	null	335.0	336.0	333.0	336.0	332.0	337.0	330.0	334.0	334.0	335.0	336.0	
Sun Jun 04 16:09:00 UTC 2017	0.0	1.048293376E9	2688.420166015625	0.0	2.5731072E7	0.0	3.0	9.4609408E8	45.5197639465332	2.0	1.0	1.061281792E9	1.050116096E9	0.0	0.0	0.07750000059604645	0.05400000140070915	0.04574999958276749	0.9919999837875366	0.7527465224266052	0.0	244.0	371.0	0.0	0.0	0.0	0.0	0.0	0.0	null	null	null	null	null	null	null	null	337.0	335.0	334.0	335.0	331.0	334.0	337.0	331.0	336.0	336.0	335.0	
Sun Jun 04 16:08:00 UTC 2017	0.0	1.048293376E9	2640.08740234375	0.0	2.5731072E7	0.0	2.0	9.4609408E8	45.5197639465332	0.0	0.0	1.061281792E9	1.050116096E9	0.0	null	0.07225000113248825	0.051750000566244125	0.04675000160932541	0.9919999837875366	0.7517870664596558	0.0	244.0	371.0	0.0	0.0	0.0	0.0	0.0	0.0	null	null	null	null	null	null	null	null	334.0	334.0	335.0	336.0	338.0	337.0	337.0	334.0	335.0	336.0	336.0	
Sun Jun 04 16:07:00 UTC 2017	0.0	1.047281664E9	2640.08740234375	0.0	2.5731072E7	0.0	2.0	9.4609408E8	45.5197639465332	2.0	2.0	1.062293504E9	1.050116096E9	0.0	null	0.08150000125169754	0.05324999988079071	0.04675000160932541	0.9919999837875366	0.7517850995063782	0.0	244.0	371.0	0.0	0.0	0.0	0.0	0.0	0.0	null	null	null	null	null	null	null	null	334.0	332.0	333.0	335.0	331.0	337.0	335.0	337.0	331.0	334.0	338.0	
Sun Jun 04 16:06:00 UTC 2017	0.0	1.047281664E9	2374.7568359375	0.0	2.5731072E7	0.0	2.0	9.45876992E8	31.848648071289062	0.0	0.0	1.062293504E9	1.050116096E9	0.0	0.0	0.07474999874830246	0.05025000125169754	0.04899999871850014	0.9919999837875366	0.7517850995063782	0.0	244.0	371.0	0.0	0.0	0.0	0.0	0.0	0.0	null	null	null	null	null	null	null	null	338.0	336.0	335.0	335.0	334.0	332.0	336.0	337.0	336.0	338.0	333.0	
Sun Jun 04 16:05:00 UTC 2017	0.0	1.047281664E9	2124.439208984375	0.0	2.5731072E7	0.0	4.0	9.45967104E8	40.45806884765625	0.0	0.0	1.061281792E9	1.050116096E9	0.0	0.0	0.06975000351667404	0.05350000038743019	0.04450000077486038	0.9919999837875366	0.751768946647644	0.0	244.0	371.0	0.0	0.0	0.0	0.0	0.0	0.0	null	null	null	null	null	null	null	null	333.0	333.0	335.0	335.0	336.0	335.0	335.0	335.0	336.0	333.0	335.0	
Sun Jun 04 16:04:00 UTC 2017	0.0	1.048293376E9	2124.439208984375	0.0	2.5731072E7	0.0	2.0	9.45876992E8	54.641883850097656	0.0	0.0	1.062293504E9	1.050116096E9	0.0	0.0	0.07750000059604645	0.04675000160932541	0.05050000175833702	0.9919999837875366	0.7517518401145935	0.0	244.0	371.0	0.0	0.0	0.0	0.0	0.0	0.0	null	null	null	null	null	null	null	null	335.0	336.0	334.0	332.0	333.0	335.0	336.0	334.0	333.0	336.0	335.0	
Sun Jun 04 16:03:00 UTC 2017	0.0	1.048293376E9	3137.70947265625	0.0	2.5731072E7	0.0	3.0	9.45876992E8	41.58705520629883	0.0	0.0	1.062293504E9	1.050116096E9	0.0	0.0	0.07699999958276749	0.05525000020861626	0.048250000923871994	0.9919999837875366	0.7517293095588684	0.0	244.0	371.0	0.0	0.0	0.0	0.0	0.0	0.0	null	null	null	null	null	null	null	null	339.0	333.0	335.0	335.0	333.0	338.0	338.0	333.0	334.0	337.0	338.0	
Sun Jun 04 16:02:00 UTC 2017	0.0	1.048293376E9	2426.69970703125	0.0	2.5731072E7	0.0	2.0	9.45876992E8	41.58705520629883	0.0	0.0	1.061281792E9	1.050116096E9	0.0	0.0	0.06499999761581421	0.04650000110268593	0.04374999925494194	0.9917500019073486	0.7517166137695312	0.0	244.0	371.0	0.0	0.0	0.0	0.0	0.0	0.0	null	null	null	null	null	null	null	null	333.0	333.0	335.0	337.0	337.0	334.0	335.0	336.0	335.0	333.0	336.0	
Sun Jun 04 16:01:00 UTC 2017	0.0	1.048293376E9	3681.61328125	0.0	2.5731072E7	0.0	2.0	9.45872896E8	50.636817932128906	0.0	0.0	1.061281792E9	1.050116096E9	0.0	0.0	0.10700000077486038	0.05525000020861626	0.054249998182058334	0.9919999837875366	0.7516960501670837	0.0	244.0	371.0	0.0	0.0	0.0	0.0	0.0	0.0	null	null	null	null	null	null	null	null	333.0	337.0	335.0	333.0	333.0	334.0	335.0	338.0	337.0	337.0	332.0	
Sun Jun 04 16:00:00 UTC 2017	0.0	1.048293376E9	2710.290283203125	0.0	2.5731072E7	0.0	2.0	9.46008064E8	58.14678192138672	0.0	0.0	1.062293504E9	1.050116096E9	0.0	0.0	0.06925000250339508	0.04450000077486038	0.042750000953674316	0.9919999837875366	0.7516926527023315	0.0	244.0	371.0	0.0	0.0	0.0	0.0	0.0	0.0	null	null	null	null	null	null	null	null	337.0	335.0	332.0	335.0	335.0	337.0	333.0	334.0	332.0	333.0	337.0	
Sun Jun 04 15:59:00 UTC 2017	0.0	1.048293376E9	2182.126708984375	0.0	2.5731072E7	0.0	2.0	9.45917952E8	58.14678192138672	0.0	0.0	1.061281792E9	1.050116096E9	0.0	0.0	0.07724999636411667	0.051750000566244125	0.048250000923871994	0.9919999837875366	0.7516794204711914	0.0	244.0	371.0	0.0	0.0	0.0	0.0	0.0	0.0	null	null	null	null	null	null	null	null	334.0	336.0	335.0	334.0	334.0	336.0	338.0	333.0	333.0	335.0	332.0	
Sun Jun 04 15:58:00 UTC 2017	0.0	1.048293376E9	2569.212646484375	0.0	2.5731072E7	0.0	3.0	9.45917952E8	58.14678192138672	0.0	0.0	1.061281792E9	1.050116096E9	0.0	0.0	0.07050000131130219	0.05550000071525574	0.04874999821186066	0.9917500019073486	0.7516588568687439	0.0	244.0	371.0	0.0	0.0	0.0	0.0	0.0	0.0	null	null	null	null	null	null	null	null	334.0	337.0	334.0	333.0	334.0	337.0	333.0	339.0	335.0	336.0	335.0	
Sun Jun 04 15:57:00 UTC 2017	0.0	1.047281664E9	2569.212646484375	0.0	2.5731072E7	0.0	3.0	9.45917952E8	58.14678192138672	0.0	0.0	1.061281792E9	1.050116096E9	0.0	0.0	0.07649999856948853	0.04475000128149986	0.045249998569488525	0.9917500019073486	0.751640796661377	0.0	244.0	371.0	0.0	0.0	0.0	0.0	0.0	0.0	null	null	null	null	null	null	null	null	335.0	334.0	335.0	339.0	335.0	334.0	334.0	336.0	340.0	336.0	336.0	
Sun Jun 04 15:56:00 UTC 2017	0.0	1.047281664E9	2617.40380859375	0.0	2.5731072E7	0.0	7.0	9.45631232E8	58.14678192138672	0.0	0.0	1.061281792E9	1.050116096E9	0.0	0.0	0.08100000023841858	0.057999998331069946	0.05350000038743019	0.9917500019073486	0.7516265511512756	0.0	244.0	371.0	0.0	0.0	0.0	0.0	0.0	0.0	null	null	null	null	null	null	null	null	336.0	337.0	335.0	335.0	335.0	337.0	336.0	334.0	334.0	335.0	335.0	
Sun Jun 04 15:55:00 UTC 2017	0.0	1.048293376E9	2617.40380859375	0.0	2.5731072E7	0.0	2.0	9.45721344E8	58.14678192138672	0.0	0.0	1.061281792E9	1.050116096E9	0.0	0.0	0.07500000298023224	0.04625000059604645	0.04899999871850014	0.9919999837875366	0.7515703439712524	0.0	244.0	371.0	0.0	0.0	0.0	0.0	0.0	0.0	null	null	null	null	null	null	null	null	335.0	336.0	334.0	334.0	332.0	335.0	334.0	335.0	333.0	334.0	335.0	
Sun Jun 04 15:54:00 UTC 2017	0.0	1.048293376E9	2454.91650390625	0.0	2.5731072E7	0.0	2.0	9.45631232E8	44.00802230834961	0.0	0.0	1.061281792E9	1.050116096E9	0.0	0.0	0.0742499977350235	0.05400000140070915	0.04625000059604645	0.9919999837875366	0.7515683770179749	0.0	244.0	371.0	0.0	0.0	0.0	0.0	0.0	0.0	null	null	null	null	null	null	null	null	335.0	335.0	333.0	336.0	336.0	332.0	335.0	332.0	338.0	340.0	335.0	
Sun Jun 04 15:53:00 UTC 2017	0.0	1.047281664E9	2454.91650390625	0.0	2.5731072E7	0.0	2.0	9.45631232E8	44.00802230834961	0.0	0.0	1.061281792E9	1.050116096E9	0.0	0.0	0.07850000262260437	0.04650000110268593	0.0442500002682209	0.9922500252723694	0.7515487670898438	0.0	244.0	371.0	0.0	0.0	0.0	0.0	0.0	0.0	null	null	null	null	null	null	null	null	335.0	337.0	336.0	335.0	337.0	335.0	333.0	338.0	334.0	333.0	335.0	
Sun Jun 04 15:52:00 UTC 2017	0.0	1.047281664E9	3089.769287109375	0.0	2.5731072E7	0.0	3.0	9.45631232E8	41.190677642822266	0.0	0.0	1.061281792E9	1.050116096E9	0.0	0.0	0.07175000011920929	0.051500000059604645	0.0494999997317791	0.9919999837875366	0.7515326142311096	0.0	244.0	371.0	0.0	0.0	0.0	0.0	0.0	0.0	null	null	null	null	null	null	null	null	333.0	336.0	338.0	337.0	333.0	338.0	334.0	334.0	333.0	336.0	338.0	
Sun Jun 04 15:51:00 UTC 2017	0.0	1.047281664E9	2537.117919921875	0.0	2.5731072E7	0.0	3.0	9.4541824E8	41.190677642822266	0.0	0.0	1.061281792E9	1.050116096E9	0.0	0.0	0.09025000035762787	0.05375000089406967	0.04975000023841858	0.9917500019073486	0.7515301704406738	0.0	244.0	371.0	0.0	0.0	0.0	0.0	0.0	0.0	null	null	null	null	null	null	null	null	334.0	336.0	335.0	334.0	337.0	335.0	335.0	337.0	338.0	334.0	334.0	
Sun Jun 04 15:50:00 UTC 2017	0.0	1.048293376E9	2537.117919921875	0.0	2.5731072E7	0.0	3.0	9.45508352E8	46.28822326660156	0.0	0.0	1.062293504E9	1.050116096E9	0.0	0.0	0.07999999821186066	0.050999999046325684	0.04500000178813934	0.9917500019073486	0.7515130639076233	0.0	244.0	371.0	0.0	0.0	0.0	0.0	0.0	0.0	null	null	null	null	null	null	null	null	335.0	331.0	338.0	337.0	333.0	331.0	334.0	332.0	334.0	335.0	335.0	
Sun Jun 04 15:49:00 UTC 2017	0.0	1.047281664E9	2537.117919921875	0.0	2.5731072E7	0.0	2.0	9.4541824E8	46.28822326660156	0.0	1.0	1.061281792E9	1.050116096E9	0.0	0.0	0.0754999965429306	0.04924999922513962	0.04749999940395355	0.9922500252723694	0.7514944672584534	0.0	244.0	371.0	0.0	0.0	0.0	0.0	0.0	0.0	null	null	null	null	null	null	null	null	332.0	336.0	334.0	335.0	335.0	335.0	331.0	338.0	335.0	336.0	336.0	
Sun Jun 04 15:48:00 UTC 2017	0.0	1.047281664E9	3431.361572265625	0.0	2.5731072E7	0.0	2.0	9.4541824E8	46.28822326660156	0.0	0.0	1.062293504E9	1.050116096E9	0.0	0.0	0.0729999989271164	0.05525000020861626	0.04724999889731407	0.9922500252723694	0.7514959573745728	0.0	244.0	371.0	0.0	0.0	0.0	0.0	0.0	0.0	null	null	null	null	null	null	null	null	336.0	335.0	338.0	334.0	338.0	334.0	339.0	336.0	335.0	334.0	338.0	
Sun Jun 04 15:47:00 UTC 2017	0.0	1.047281664E9	2686.22900390625	0.0	2.5731072E7	0.0	3.0	9.4541824E8	46.28822326660156	0.0	0.0	1.062293504E9	1.050116096E9	0.0	0.0	0.07374999672174454	0.04500000178813934	0.04975000023841858	0.9919999837875366	0.7534921765327454	0.0	244.0	371.0	0.0	0.0	0.0	0.0	0.0	0.0	null	null	null	null	null	null	null	null	335.0	339.0	332.0	336.0	331.0	337.0	334.0	332.0	337.0	334.0	333.0	
Sun Jun 04 15:46:00 UTC 2017	0.0	1.048293376E9	2686.22900390625	0.0	2.5731072E7	0.0	2.0	9.45205248E8	40.783329010009766	0.0	0.0	1.062293504E9	1.050116096E9	0.0	0.0	0.0832500010728836	0.05050000175833702	0.04874999821186066	0.9922500252723694	0.7514572739601135	0.0	244.0	371.0	0.0	0.0	0.0	0.0	0.0	0.0	null	null	null	null	null	null	null	null	336.0	332.0	339.0	335.0	336.0	333.0	336.0	336.0	333.0	335.0	336.0	
Sun Jun 04 15:45:00 UTC 2017	0.0	1.047281664E9	2686.22900390625	0.0	2.5731072E7	0.0	3.0	9.4529536E8	40.783329010009766	0.0	0.0	1.061281792E9	1.050116096E9	0.0	0.0	0.07750000059604645	0.051750000566244125	0.05000000074505806	0.9919999837875366	0.7514406442642212	0.0	244.0	371.0	0.0	0.0	0.0	0.0	0.0	0.0	null	null	null	null	null	null	null	null	334.0	336.0	332.0	333.0	335.0	334.0	333.0	335.0	335.0	335.0	338.0	
Sun Jun 04 15:44:00 UTC 2017	0.0	1.047281664E9	2541.787841796875	0.0	2.5731072E7	0.0	4.0	9.45205248E8	40.783329010009766	0.0	0.0	1.062293504E9	1.050116096E9	0.0	0.0	0.06499999761581421	0.054749999195337296	0.04924999922513962	0.9919999837875366	0.7514421343803406	0.0	244.0	371.0	0.0	0.0	0.0	0.0	0.0	0.0	null	null	null	null	null	null	null	null	337.0	335.0	334.0	338.0	330.0	333.0	334.0	337.0	335.0	337.0	334.0	
Sun Jun 04 15:43:00 UTC 2017	0.0	1.048293376E9	2541.787841796875	0.0	2.5731072E7	0.0	2.0	9.45205248E8	55.1912956237793	0.0	0.0	1.061281792E9	1.050116096E9	0.0	0.0	0.07774999737739563	0.04675000160932541	0.051500000059604645	0.9919999837875366	0.7532680630683899	0.0	244.0	371.0	0.0	0.0	0.0	0.0	0.0	0.0	null	null	null	null	null	null	null	null	334.0	334.0	338.0	335.0	336.0	335.0	339.0	337.0	337.0	331.0	338.0	
Sun Jun 04 15:42:00 UTC 2017	0.0	1.047281664E9	2541.787841796875	0.0	2.5731072E7	0.0	2.0	9.45205248E8	55.1912956237793	0.0	0.0	1.062293504E9	1.050116096E9	0.0	0.0	0.07599999755620956	0.05525000020861626	0.04625000059604645	0.9919999837875366	0.7514010071754456	0.0	244.0	371.0	0.0	0.0	0.0	0.0	0.0	0.0	null	null	null	null	null	null	null	null	336.0	335.0	334.0	335.0	333.0	335.0	334.0	335.0	333.0	337.0	334.0	
Sun Jun 04 15:41:00 UTC 2017	0.0	1.048293376E9	2541.787841796875	0.0	2.5731072E7	0.0	6.0	9.44996352E8	49.2562141418457	0.0	0.0	1.061281792E9	1.050116096E9	0.0	0.0	0.09825000166893005	0.05299999937415123	0.04399999976158142	0.9919999837875366	0.7513853907585144	0.0	244.0	371.0	0.0	0.0	0.0	0.0	0.0	0.0	null	null	null	null	null	null	null	null	338.0	336.0	335.0	336.0	335.0	335.0	332.0	337.0	334.0	333.0	335.0	
Sun Jun 04 15:40:00 UTC 2017	0.0	1.047281664E9	2541.787841796875	0.0	2.5731072E7	0.0	4.0	9.45086464E8	36.0302619934082	0.0	0.0	1.061281792E9	1.050116096E9	0.0	null	0.07474999874830246	0.04125000163912773	0.051500000059604645	0.9919999837875366	0.753669798374176	0.0	244.0	371.0	0.0	0.0	0.0	0.0	0.0	0.0	null	null	null	null	null	null	null	null	333.0	335.0	337.0	334.0	333.0	335.0	335.0	331.0	335.0	333.0	335.0	
Sun Jun 04 15:39:00 UTC 2017	0.0	1.047281664E9	2688.672607421875	0.0	2.5731072E7	0.0	2.0	9.44996352E8	36.0302619934082	0.0	0.0	1.061281792E9	1.050116096E9	0.0	0.0	0.07750000059604645	0.051750000566244125	0.04650000110268593	0.9917500019073486	0.7513667941093445	0.0	244.0	371.0	0.0	0.0	0.0	0.0	0.0	0.0	null	null	null	null	null	null	null	null	334.0	335.0	335.0	339.0	338.0	336.0	335.0	336.0	335.0	337.0	335.0	
Sun Jun 04 15:38:00 UTC 2017	0.0	1.047281664E9	2687.953125	0.0	2.5731072E7	0.0	3.0	9.44996352E8	50.587684631347656	0.0	0.0	1.062293504E9	1.050116096E9	0.0	0.0	0.0689999982714653	0.054499998688697815	0.04724999889731407	0.9917500019073486	0.7513648271560669	0.0	244.0	371.0	0.0	0.0	0.0	0.0	0.0	0.0	null	null	null	null	null	null	null	null	338.0	335.0	334.0	333.0	333.0	335.0	332.0	334.0	335.0	334.0	334.0	
Sun Jun 04 15:37:00 UTC 2017	0.0	1.047281664E9	2841.84912109375	0.0	2.5731072E7	0.0	3.0	9.44996352E8	43.35702133178711	0.0	0.0	1.062293504E9	1.050116096E9	0.0	0.0	0.08425000309944153	0.048250000923871994	0.04774999991059303	0.9917500019073486	0.7513447403907776	0.0	244.0	371.0	0.0	0.0	0.0	0.0	0.0	0.0	null	null	null	null	null	null	null	null	333.0	332.0	334.0	337.0	337.0	332.0	336.0	336.0	336.0	335.0	327.0	
Sun Jun 04 15:36:00 UTC 2017	0.0	1.047281664E9	3081.266845703125	0.0	2.5731072E7	0.0	2.0	9.4478336E8	40.897552490234375	0.0	0.0	1.061281792E9	1.050116096E9	0.0	0.0	0.07474999874830246	0.04874999821186066	0.04749999940395355	0.9915000200271606	0.7513716816902161	0.0	244.0	371.0	0.0	0.0	0.0	0.0	0.0	0.0	null	null	null	null	null	null	null	null	336.0	335.0	334.0	329.0	335.0	331.0	331.0	334.0	331.0	335.0	337.0	
Sun Jun 04 15:35:00 UTC 2017	0.0	1.048293376E9	3081.266845703125	0.0	2.5731072E7	0.0	2.0	9.44873472E8	71.82779693603516	0.0	0.0	1.062289408E9	1.050116096E9	0.0	0.0	0.07050000131130219	0.051500000059604645	0.04574999958276749	0.9915000200271606	0.751330554485321	0.0	244.0	371.0	0.0	0.0	0.0	0.0	0.0	0.0	null	null	null	null	null	null	null	null	336.0	333.0	335.0	335.0	334.0	333.0	331.0	334.0	337.0	333.0	334.0	
Sun Jun 04 15:34:00 UTC 2017	0.0	1.047281664E9	3081.266845703125	0.0	2.5731072E7	0.0	2.0	9.4478336E8	71.82779693603516	0.0	0.0	1.061277696E9	1.050116096E9	0.0	0.0	0.08275000005960464	0.051750000566244125	0.04749999940395355	0.9915000200271606	0.7513242363929749	0.0	244.0	371.0	0.0	0.0	0.0	0.0	0.0	0.0	null	null	null	null	null	null	null	null	331.0	334.0	332.0	335.0	335.0	336.0	331.0	331.0	329.0	337.0	331.0	
Sun Jun 04 15:33:00 UTC 2017	0.0	1.047281664E9	2568.8564453125	0.0	2.5731072E7	0.0	2.0	9.4478336E8	71.82779693603516	0.0	0.0	1.061277696E9	1.050116096E9	0.0	0.0	0.07150000333786011	0.05624999850988388	0.04675000160932541	0.9915000200271606	0.7513222694396973	0.0	244.0	371.0	0.0	0.0	0.0	0.0	0.0	0.0	null	null	null	null	null	null	null	null	336.0	333.0	333.0	333.0	336.0	336.0	334.0	333.0	334.0	334.0	336.0	
Sun Jun 04 15:32:00 UTC 2017	0.0	1.047281664E9	2625.1123046875	0.0	2.5731072E7	0.0	3.0	9.4478336E8	71.82779693603516	0.0	0.0	1.061277696E9	1.050116096E9	0.0	0.0	0.07000000029802322	0.04475000128149986	0.04749999940395355	0.9915000200271606	0.7513041496276855	0.0	244.0	371.0	0.0	0.0	0.0	0.0	0.0	0.0	null	null	null	null	null	null	null	null	335.0	331.0	336.0	337.0	334.0	329.0	334.0	333.0	337.0	333.0	332.0	
Sun Jun 04 15:31:00 UTC 2017	0.0	1.047281664E9	2563.66943359375	0.0	2.5731072E7	0.0	3.0	9.44570368E8	33.38621139526367	0.0	0.0	1.061277696E9	1.050116096E9	0.0	0.0	0.10474999994039536	0.054749999195337296	0.04724999889731407	0.9915000200271606	0.7513266801834106	0.0	244.0	371.0	0.0	0.0	0.0	0.0	0.0	0.0	null	null	null	null	null	null	null	null	337.0	337.0	333.0	331.0	335.0	336.0	334.0	334.0	332.0	334.0	335.0	
Sun Jun 04 15:30:00 UTC 2017	0.0	1.048293376E9	2563.66943359375	0.0	2.5731072E7	0.0	5.0	9.4466048E8	33.38621139526367	0.0	0.0	1.062289408E9	1.050116096E9	0.0	0.0	0.0754999965429306	0.045249998569488525	0.05274999886751175	0.9917500019073486	0.7512860298156738	0.0	244.0	371.0	0.0	0.0	0.0	0.0	0.0	0.0	null	null	null	null	null	null	null	null	334.0	330.0	335.0	334.0	332.0	334.0	334.0	336.0	336.0	333.0	333.0	
Sun Jun 04 15:29:00 UTC 2017	0.0	1.047281664E9	2563.66943359375	0.0	2.5731072E7	0.0	4.0	9.44570368E8	33.38621139526367	0.0	0.0	1.062289408E9	1.050116096E9	0.0	null	0.07124999910593033	0.05050000175833702	0.04374999925494194	0.9917500019073486	0.7512689232826233	0.0	244.0	371.0	0.0	0.0	0.0	0.0	0.0	0.0	null	null	null	null	null	null	null	null	334.0	337.0	334.0	335.0	335.0	334.0	332.0	331.0	336.0	335.0	335.0	
Sun Jun 04 15:28:00 UTC 2017	0.0	1.048293376E9	2563.66943359375	0.0	2.5731072E7	0.0	2.0	9.44570368E8	41.51309585571289	0.0	0.0	1.061277696E9	1.050116096E9	0.0	null	0.0677499994635582	0.05274999886751175	0.048500001430511475	0.9917500019073486	0.7512498497962952	0.0	244.0	371.0	0.0	0.0	0.0	0.0	0.0	0.0	null	null	null	null	null	null	null	null	334.0	335.0	338.0	334.0	335.0	334.0	334.0	336.0	332.0	338.0	334.0	
Sun Jun 04 15:27:00 UTC 2017	0.0	1.048293376E9	3691.807373046875	0.0	2.5731072E7	0.0	2.0	9.44570368E8	39.96598434448242	0.0	0.0	1.061277696E9	1.050116096E9	0.0	0.0	0.0807500034570694	0.05400000140070915	0.04600000008940697	0.9915000200271606	0.7512317299842834	0.0	244.0	371.0	0.0	0.0	0.0	0.0	0.0	0.0	null	null	null	null	null	null	null	null	333.0	334.0	335.0	335.0	334.0	333.0	337.0	334.0	334.0	333.0	335.0	
Sun Jun 04 15:26:00 UTC 2017	0.0	1.048293376E9	2436.5361328125	0.0	2.5731072E7	0.0	3.0	9.44357376E8	43.4393196105957	0.0	0.0	1.062289408E9	1.050116096E9	0.0	0.0	0.07225000113248825	0.04574999958276749	0.05025000125169754	0.9915000200271606	0.7512248754501343	0.0	244.0	371.0	0.0	0.0	0.0	0.0	0.0	0.0	null	null	null	null	null	null	null	null	335.0	330.0	332.0	335.0	335.0	336.0	334.0	334.0	333.0	332.0	334.0	
Sun Jun 04 15:25:00 UTC 2017	0.0	1.048293376E9	2425.9697265625	0.0	2.5731072E7	0.0	2.0	9.44447488E8	42.617431640625	0.0	0.0	1.062289408E9	1.050116096E9	0.0	null	0.08449999988079071	0.05249999836087227	0.04574999958276749	0.9915000200271606	0.7533077001571655	0.0	244.0	371.0	0.0	0.0	0.0	0.0	0.0	0.0	null	null	null	null	null	null	null	null	331.0	335.0	337.0	339.0	335.0	336.0	335.0	333.0	334.0	333.0	333.0	
Sun Jun 04 15:24:00 UTC 2017	0.0	1.047281664E9	2425.9697265625	0.0	2.5731072E7	0.0	2.0	9.44357376E8	41.01091384887695	0.0	0.0	1.061277696E9	1.050116096E9	0.0	null	0.06875000149011612	0.048250000923871994	0.05299999937415123	0.9915000200271606	0.7511793971061707	0.0	244.0	371.0	0.0	0.0	0.0	0.0	0.0	0.0	null	null	null	null	null	null	null	null	336.0	333.0	332.0	331.0	333.0	329.0	333.0	332.0	333.0	335.0	334.0	
Sun Jun 04 15:23:00 UTC 2017	0.0	1.047281664E9	2851.042724609375	0.0	2.5731072E7	0.0	3.0	9.44357376E8	41.01091384887695	0.0	0.0	1.062289408E9	1.050116096E9	0.0	null	0.07575000077486038	0.05575000122189522	0.045499999076128006	0.9917500019073486	0.7511740326881409	0.0	244.0	371.0	0.0	0.0	0.0	0.0	0.0	0.0	null	null	null	null	null	null	null	null	336.0	334.0	332.0	332.0	334.0	332.0	333.0	334.0	334.0	333.0	337.0	
Sun Jun 04 15:22:00 UTC 2017	0.0	1.048293376E9	2851.042724609375	0.0	2.5731072E7	0.0	5.0	9.44357376E8	41.43412780761719	0.0	0.0	1.061277696E9	1.050116096E9	0.0	null	0.07249999791383743	0.04749999940395355	0.045249998569488525	0.9894999861717224	0.7511647343635559	0.0	244.0	371.0	0.0	0.0	0.0	0.0	0.0	0.0	null	null	null	null	null	null	null	null	333.0	332.0	336.0	333.0	334.0	330.0	328.0	336.0	334.0	332.0	333.0	
Sun Jun 04 15:21:00 UTC 2017	0.0	1.048293376E9	3162.3896484375	0.0	2.5731072E7	0.0	3.0	9.4414848E8	44.38521194458008	0.0	0.0	1.062289408E9	1.050116096E9	0.0	null	0.09674999862909317	0.05299999937415123	0.0494999997317791	0.9907500147819519	0.7511656880378723	0.0	244.0	371.0	0.0	0.0	0.0	0.0	0.0	0.0	null	null	null	null	null	null	null	null	332.0	335.0	331.0	330.0	335.0	332.0	334.0	333.0	330.0	332.0	332.0	
Sun Jun 04 15:20:00 UTC 2017	1.0	1.047281664E9	3162.3896484375	0.0	2.5731072E7	0.0	3.0	9.44238592E8	44.38521194458008	0.0	0.0	1.062289408E9	1.050116096E9	0.0	0.0	0.06825000047683716	0.04675000160932541	0.0494999997317791	0.9917500019073486	0.7511466145515442	0.0	244.0	371.0	0.0	0.0	0.0	0.0	0.0	0.0	null	null	null	null	null	null	null	null	338.0	334.0	336.0	336.0	332.0	333.0	334.0	334.0	332.0	333.0	338.0	
Sun Jun 04 15:19:00 UTC 2017	0.0	1.047281664E9	2321.96240234375	0.0	2.5731072E7	0.0	3.0	9.4414848E8	37.54538345336914	0.0	0.0	1.061277696E9	1.050116096E9	0.0	0.0	0.08275000005960464	0.04874999821186066	0.04574999958276749	0.9917500019073486	0.7511377930641174	0.0	244.0	371.0	0.0	0.0	0.0	0.0	0.0	0.0	null	null	null	null	null	null	null	null	334.0	338.0	336.0	337.0	336.0	335.0	332.0	339.0	336.0	335.0	333.0	
Sun Jun 04 15:18:00 UTC 2017	0.0	1.047281664E9	2763.197265625	0.0	2.5731072E7	0.0	2.0	9.4414848E8	37.54538345336914	1.0	2.0	1.062289408E9	1.050116096E9	0.0	0.0	0.07625000178813934	0.05974999815225601	0.04800000041723251	0.9917500019073486	0.7511441707611084	0.0	244.0	371.0	0.0	0.0	0.0	0.0	0.0	0.0	null	null	null	null	null	null	null	null	338.0	333.0	332.0	333.0	333.0	333.0	333.0	333.0	334.0	333.0	333.0	
Sun Jun 04 15:17:00 UTC 2017	0.0	1.048293376E9	2763.197265625	0.0	2.5731072E7	0.0	2.0	9.4414848E8	49.87758255004883	0.0	0.0	1.062289408E9	1.050116096E9	0.0	0.0	0.06650000065565109	0.04874999821186066	0.050999999046325684	0.9915000200271606	0.7511245608329773	0.0	244.0	371.0	0.0	0.0	0.0	0.0	0.0	0.0	null	null	null	null	null	null	null	null	334.0	334.0	334.0	335.0	334.0	337.0	338.0	333.0	336.0	334.0	334.0	
Sun Jun 04 15:16:00 UTC 2017	0.0	1.047281664E9	2763.197265625	0.0	2.5731072E7	0.0	2.0	9.43935488E8	49.87758255004883	0.0	0.0	1.062289408E9	1.050116096E9	0.0	0.0	0.07699999958276749	0.04899999871850014	0.04625000059604645	0.9917500019073486	0.7511167526245117	0.0	244.0	371.0	0.0	0.0	0.0	0.0	0.0	0.0	null	null	null	null	null	null	null	null	335.0	336.0	334.0	337.0	336.0	332.0	332.0	335.0	332.0	334.0	338.0	
Sun Jun 04 15:15:00 UTC 2017	0.0	1.047281664E9	2653.784912109375	0.0	2.5731072E7	0.0	5.0	9.440256E8	48.929473876953125	0.0	0.0	1.061277696E9	1.050116096E9	0.0	0.0	0.08574999868869781	0.05000000074505806	0.04975000023841858	0.9917500019073486	0.7531530857086182	0.0	244.0	371.0	0.0	0.0	0.0	0.0	0.0	0.0	null	null	null	null	null	null	null	null	339.0	333.0	336.0	332.0	330.0	336.0	336.0	338.0	333.0	338.0	333.0	
Sun Jun 04 15:14:00 UTC 2017	0.0	1.047281664E9	3357.69189453125	0.0	2.5731072E7	0.0	4.0	9.43935488E8	40.517616271972656	0.0	0.0	1.062289408E9	1.050116096E9	0.0	0.0	0.0677499994635582	0.05649999901652336	0.04774999991059303	0.9917500019073486	0.7510697841644287	0.0	244.0	371.0	0.0	0.0	0.0	0.0	0.0	0.0	null	null	null	null	null	null	null	null	332.0	337.0	338.0	334.0	337.0	332.0	333.0	334.0	333.0	333.0	336.0	
Sun Jun 04 15:13:00 UTC 2017	0.0	1.048293376E9	3357.69189453125	0.0	2.5731072E7	0.0	2.0	9.43935488E8	40.517616271972656	0.0	0.0	1.061277696E9	1.050116096E9	0.0	0.0	0.07575000077486038	0.05050000175833702	0.041749998927116394	0.9919999837875366	0.7527841925621033	0.0	244.0	371.0	0.0	0.0	0.0	0.0	0.0	0.0	null	null	null	null	null	null	null	null	339.0	332.0	332.0	330.0	337.0	332.0	334.0	339.0	334.0	337.0	337.0	
Sun Jun 04 15:12:00 UTC 2017	0.0	1.048293376E9	2187.132080078125	0.0	2.5731072E7	0.0	3.0	9.43939584E8	40.517616271972656	0.0	0.0	1.062289408E9	1.050116096E9	0.0	0.0	0.07750000059604645	0.04749999940395355	0.051249999552965164	0.9917500019073486	0.7510467767715454	0.0	244.0	371.0	0.0	0.0	0.0	0.0	0.0	0.0	null	null	null	null	null	null	null	null	331.0	337.0	338.0	334.0	334.0	334.0	336.0	336.0	334.0	335.0	334.0	
Sun Jun 04 15:11:00 UTC 2017	0.0	1.047281664E9	2187.132080078125	0.0	2.5731072E7	0.0	2.0	9.43726592E8	40.517616271972656	0.0	0.0	1.062289408E9	1.050116096E9	0.0	null	0.10125000029802322	0.05624999850988388	0.04625000059604645	0.9917500019073486	0.7510198950767517	0.0	244.0	371.0	0.0	0.0	0.0	0.0	0.0	0.0	null	null	null	null	null	null	null	null	336.0	334.0	333.0	337.0	333.0	338.0	335.0	333.0	338.0	338.0	335.0	
Sun Jun 04 15:10:00 UTC 2017	0.0	1.047281664E9	2720.194580078125	0.0	2.5731072E7	0.0	5.0	9.44078848E8	49.20271682739258	0.0	0.0	1.061277696E9	1.050116096E9	0.0	null	0.07275000214576721	0.048500001430511475	0.04774999991059303	0.9915000200271606	0.7509949207305908	0.0	244.0	371.0	0.0	0.0	0.0	0.0	0.0	0.0	null	null	null	null	null	null	null	null	338.0	333.0	335.0	332.0	334.0	332.0	332.0	331.0	333.0	336.0	336.0	
Sun Jun 04 15:09:00 UTC 2017	1.0	1.047281664E9	2177.42041015625	0.0	2.5731072E7	0.0	2.0	9.4367744E8	62.165714263916016	0.0	0.0	1.062289408E9	1.050116096E9	0.0	null	0.07074999809265137	0.050999999046325684	0.04800000041723251	0.9915000200271606	0.7509973645210266	0.0	244.0	371.0	0.0	0.0	0.0	0.0	0.0	0.0	null	null	null	null	null	null	null	null	333.0	338.0	336.0	332.0	333.0	333.0	335.0	336.0	332.0	331.0	337.0	
Sun Jun 04 15:08:00 UTC 2017	1.0	1.048293376E9	2177.42041015625	0.0	2.5731072E7	0.0	2.0	9.4367744E8	32.119380950927734	0.0	0.0	1.062289408E9	1.050116096E9	0.0	0.0	0.08275000005960464	0.05225000157952309	0.04650000110268593	0.9912499785423279	0.7509793043136597	0.0	244.0	371.0	0.0	0.0	0.0	0.0	0.0	0.0	null	null	null	null	null	null	null	null	331.0	332.0	329.0	332.0	332.0	333.0	331.0	333.0	334.0	339.0	332.0	
Sun Jun 04 15:07:00 UTC 2017	1.0	1.047281664E9	2177.42041015625	0.0	2.5731072E7	0.0	2.0	9.4367744E8	35.55897521972656	0.0	0.0	1.061277696E9	1.050116096E9	0.0	0.0	0.06449999660253525	0.0507499985396862	0.05225000157952309	0.9915000200271606	0.7509596943855286	0.0	244.0	371.0	0.0	0.0	0.0	0.0	0.0	0.0	null	null	null	null	null	null	null	null	334.0	332.0	334.0	329.0	336.0	335.0	333.0	334.0	331.0	334.0	334.0	
Sun Jun 04 15:06:00 UTC 2017	1.0	1.047281664E9	3056.0361328125	0.0	2.5731072E7	0.0	4.0	9.43468544E8	35.367774963378906	1.0	0.0	1.061277696E9	1.050116096E9	0.0	0.0	0.07724999636411667	0.04800000041723251	0.04475000128149986	0.9917500019073486	0.750958263874054	0.0	244.0	371.0	0.0	0.0	0.0	0.0	0.0	0.0	null	null	null	null	null	null	null	null	335.0	337.0	337.0	333.0	331.0	333.0	335.0	334.0	335.0	335.0	335.0	
Sun Jun 04 15:05:00 UTC 2017	1.0	1.047281664E9	2721.06103515625	0.0	2.5731072E7	0.0	2.0	9.43558656E8	35.367774963378906	0.0	1.0	1.062289408E9	1.050116096E9	0.0	0.0	0.0742499977350235	0.05324999988079071	0.04724999889731407	0.9917500019073486	0.7509410977363586	0.0	244.0	371.0	0.0	0.0	0.0	0.0	0.0	0.0	null	null	null	null	null	null	null	null	336.0	333.0	336.0	336.0	331.0	335.0	334.0	337.0	333.0	335.0	333.0	
Sun Jun 04 15:04:00 UTC 2017	1.0	1.048293376E9	2721.06103515625	0.0	2.5731072E7	0.0	2.0	9.43468544E8	35.367774963378906	0.0	0.0	1.062289408E9	1.050116096E9	0.0	0.0	0.07625000178813934	0.04749999940395355	0.048500001430511475	0.9917500019073486	0.7533199191093445	0.0	244.0	371.0	0.0	0.0	0.0	0.0	0.0	0.0	null	null	null	null	null	null	null	null	333.0	333.0	335.0	335.0	336.0	335.0	332.0	335.0	336.0	334.0	336.0	
Sun Jun 04 15:03:00 UTC 2017	0.0	1.048293376E9	3107.107421875	0.0	2.5731072E7	0.0	4.0	9.43468544E8	51.177452087402344	0.0	0.0	1.062289408E9	1.050116096E9	0.0	0.0	0.07000000029802322	0.05575000122189522	0.0494999997317791	0.9915000200271606	0.7532059550285339	0.0	244.0	371.0	0.0	0.0	0.0	0.0	0.0	0.0	null	null	null	null	null	null	null	null	334.0	339.0	333.0	334.0	334.0	334.0	336.0	331.0	335.0	335.0	332.0	
Sun Jun 04 15:02:00 UTC 2017	1.0	1.047281664E9	3107.107421875	0.0	2.5731072E7	0.0	5.0	9.43468544E8	51.177452087402344	0.0	0.0	1.062289408E9	1.050116096E9	0.0	0.0	0.07349999994039536	0.050999999046325684	0.04975000023841858	0.9915000200271606	0.7509797811508179	0.0	244.0	371.0	0.0	0.0	0.0	0.0	0.0	0.0	null	null	null	null	null	null	null	null	333.0	332.0	333.0	334.0	335.0	334.0	332.0	334.0	332.0	331.0	333.0	
Sun Jun 04 15:01:00 UTC 2017	1.0	1.047281664E9	2317.82373046875	0.0	2.5731072E7	0.0	2.0	9.43255552E8	51.177452087402344	1.0	0.0	1.061277696E9	1.050116096E9	0.0	0.0	0.10774999856948853	0.04800000041723251	0.05050000175833702	0.9902499914169312	0.7508902549743652	0.0	244.0	371.0	0.0	0.0	0.0	0.0	0.0	0.0	null	null	null	null	null	null	null	null	333.0	333.0	333.0	334.0	335.0	333.0	333.0	335.0	333.0	336.0	335.0	
Sun Jun 04 15:00:00 UTC 2017	1.0	1.047281664E9	2554.54296875	0.0	2.5731072E7	0.0	2.0	9.43345664E8	51.177452087402344	0.0	0.0	1.062289408E9	1.050116096E9	0.0	0.0	0.06875000149011612	0.05350000038743019	0.048250000923871994	0.9817500114440918	0.750889241695404	0.0	244.0	371.0	0.0	0.0	0.0	0.0	0.0	0.0	null	null	null	null	null	null	null	null	332.0	333.0	331.0	327.0	329.0	330.0	331.0	326.0	329.0	327.0	330.0	
Sun Jun 04 14:59:00 UTC 2017	1.0	1.048293376E9	2554.54296875	0.0	2.5731072E7	0.0	3.0	9.43255552E8	51.177452087402344	0.0	0.0	1.062289408E9	1.050116096E9	0.0	null	0.07524999976158142	0.052000001072883606	0.04625000059604645	0.9915000200271606	0.7508726119995117	0.0	244.0	371.0	0.0	0.0	0.0	0.0	0.0	0.0	null	null	null	null	null	null	null	null	332.0	331.0	333.0	333.0	332.0	330.0	336.0	336.0	334.0	333.0	335.0	
Sun Jun 04 14:58:00 UTC 2017	1.0	1.047281664E9	2554.54296875	0.0	2.5731072E7	0.0	2.0	9.43255552E8	51.177452087402344	0.0	0.0	1.061277696E9	1.050116096E9	0.0	null	0.07325000315904617	0.0507499985396862	0.04800000041723251	0.9912499785423279	0.7509098052978516	0.0	244.0	371.0	0.0	0.0	0.0	0.0	0.0	0.0	null	null	null	null	null	null	null	null	333.0	331.0	330.0	335.0	336.0	337.0	333.0	334.0	330.0	334.0	333.0	
Sun Jun 04 14:57:00 UTC 2017	1.0	1.048293376E9	2554.54296875	0.0	2.5731072E7	0.0	2.0	9.43255552E8	48.1814079284668	1.0	2.0	1.062289408E9	1.050116096E9	0.0	null	0.08449999988079071	0.050999999046325684	0.04774999991059303	0.9902499914169312	0.7509083151817322	0.0	244.0	371.0	0.0	0.0	0.0	0.0	0.0	0.0	null	null	null	null	null	null	null	null	333.0	334.0	335.0	332.0	333.0	333.0	331.0	333.0	331.0	335.0	336.0	
Sun Jun 04 14:56:00 UTC 2017	1.0	1.047281664E9	2554.54296875	0.0	2.5731072E7	0.0	2.0	9.4304256E8	48.1814079284668	0.0	0.0	1.061277696E9	1.050116096E9	0.0	null	0.06700000166893005	0.051750000566244125	0.045249998569488525	0.9904999732971191	0.750892698764801	0.0	244.0	371.0	0.0	0.0	0.0	0.0	0.0	0.0	null	null	null	null	null	null	null	null	334.0	334.0	334.0	336.0	335.0	334.0	337.0	334.0	335.0	329.0	334.0	
Sun Jun 04 14:55:00 UTC 2017	1.0	1.048293376E9	2554.54296875	0.0	2.5731072E7	0.0	2.0	9.43132672E8	48.1814079284668	0.0	0.0	1.062289408E9	1.050116096E9	0.0	null	0.08425000309944153	0.054749999195337296	0.04699999839067459	0.9915000200271606	0.7508692145347595	0.0	244.0	371.0	0.0	0.0	0.0	0.0	0.0	0.0	null	null	null	null	null	null	null	null	334.0	332.0	337.0	335.0	332.0	328.0	334.0	334.0	334.0	335.0	335.0	
Sun Jun 04 14:54:00 UTC 2017	0.0	1.047281664E9	2554.54296875	0.0	2.5731072E7	0.0	2.0	9.4304256E8	48.1814079284668	0.0	0.0	1.062289408E9	1.050116096E9	0.0	null	0.07524999976158142	0.0507499985396862	0.048500001430511475	0.9909999966621399	0.7508750557899475	0.0	244.0	371.0	0.0	0.0	0.0	0.0	0.0	0.0	null	null	null	null	null	null	null	null	332.0	328.0	331.0	333.0	333.0	333.0	334.0	334.0	329.0	336.0	337.0	
Sun Jun 04 14:53:00 UTC 2017	1.0	1.047281664E9	2856.299072265625	0.0	2.5731072E7	0.0	2.0	9.4304256E8	63.21184158325195	0.0	0.0	1.062289408E9	1.050116096E9	0.0	0.0	0.07349999994039536	0.04450000077486038	0.04924999922513962	0.9912499785423279	0.7508569359779358	0.0	244.0	371.0	0.0	0.0	0.0	0.0	0.0	0.0	null	null	null	null	null	null	null	null	335.0	337.0	334.0	335.0	336.0	334.0	334.0	335.0	337.0	331.0	332.0	
Sun Jun 04 14:52:00 UTC 2017	0.0	1.048293376E9	2856.299072265625	0.0	2.5731072E7	0.0	3.0	9.4304256E8	53.693092346191406	0.0	0.0	1.061277696E9	1.050116096E9	0.0	0.0	0.06849999725818634	0.054499998688697815	0.04899999871850014	0.9909999966621399	0.7507840394973755	0.0	244.0	371.0	0.0	0.0	0.0	0.0	0.0	0.0	null	null	null	null	null	null	null	null	337.0	331.0	333.0	338.0	335.0	331.0	331.0	335.0	332.0	335.0	336.0	
Sun Jun 04 14:51:00 UTC 2017	0.0	1.047281664E9	2856.299072265625	0.0	2.5731072E7	0.0	3.0	9.42829568E8	50.8988151550293	1.0	1.0	1.062289408E9	1.050116096E9	0.0	0.0	0.09950000047683716	0.0560000017285347	0.04574999958276749	0.9912499785423279	0.7507840394973755	0.0	244.0	371.0	0.0	0.0	0.0	0.0	0.0	0.0	null	null	null	null	null	null	null	null	332.0	334.0	336.0	334.0	334.0	335.0	336.0	335.0	334.0	336.0	332.0	
Sun Jun 04 14:50:00 UTC 2017	0.0	1.047281664E9	2488.68798828125	0.0	2.5731072E7	0.0	4.0	9.4291968E8	43.51531219482422	0.0	0.0	1.062289408E9	1.050116096E9	0.0	0.0	0.06599999964237213	0.051249999552965164	0.05025000125169754	0.9912499785423279	0.7507659792900085	0.0	244.0	371.0	0.0	0.0	0.0	0.0	0.0	0.0	null	null	null	null	null	null	null	null	336.0	335.0	332.0	335.0	335.0	335.0	336.0	331.0	335.0	335.0	337.0	
Sun Jun 04 14:49:00 UTC 2017	0.0	1.048293376E9	2488.68798828125	0.0	2.5731072E7	0.0	3.0	9.42829568E8	39.39096450805664	0.0	0.0	1.061277696E9	1.050116096E9	0.0	0.0	0.07649999856948853	0.04625000059604645	0.04450000077486038	0.9912499785423279	0.7507664561271667	0.0	244.0	371.0	0.0	0.0	0.0	0.0	0.0	0.0	null	null	null	null	null	null	null	null	335.0	332.0	332.0	333.0	331.0	333.0	331.0	334.0	333.0	334.0	333.0	
Sun Jun 04 14:48:00 UTC 2017	1.0	1.047281664E9	2488.68798828125	0.0	2.5731072E7	0.0	2.0	9.42829568E8	59.289085388183594	0.0	0.0	1.061277696E9	1.050116096E9	0.0	0.0	0.06549999862909317	0.050999999046325684	0.051750000566244125	0.9917500019073486	0.750748336315155	0.0	244.0	371.0	0.0	0.0	0.0	0.0	0.0	0.0	null	null	null	null	null	null	null	null	334.0	334.0	332.0	335.0	338.0	335.0	334.0	337.0	333.0	337.0	335.0	
Sun Jun 04 14:47:00 UTC 2017	0.0	1.048293376E9	2488.68798828125	0.0	2.5731072E7	0.0	2.0	9.42829568E8	35.74516677856445	0.0	0.0	1.061277696E9	1.050116096E9	0.0	0.0	0.08399999886751175	0.054999999701976776	0.042249999940395355	0.9917500019073486	0.7507297396659851	0.0	244.0	371.0	0.0	0.0	0.0	0.0	0.0	0.0	null	null	null	null	null	null	null	null	331.0	338.0	336.0	334.0	334.0	335.0	336.0	332.0	338.0	332.0	334.0	
Sun Jun 04 14:46:00 UTC 2017	0.0	1.048293376E9	3352.771728515625	0.0	2.5731072E7	0.0	2.0	9.42710784E8	53.36893844604492	0.0	0.0	1.061277696E9	1.050116096E9	0.0	0.0	0.06875000149011612	0.04749999940395355	0.05299999937415123	0.9917500019073486	0.7529833316802979	0.0	244.0	371.0	0.0	0.0	0.0	0.0	0.0	0.0	null	null	null	null	null	null	null	null	338.0	335.0	335.0	333.0	332.0	334.0	334.0	338.0	334.0	335.0	340.0	
Sun Jun 04 14:45:00 UTC 2017	0.0	1.047281664E9	3352.771728515625	0.0	2.5731072E7	0.0	2.0	9.42710784E8	39.57490539550781	0.0	0.0	1.062289408E9	1.050116096E9	0.0	0.0	0.08449999988079071	0.0507499985396862	0.048250000923871994	0.9917500019073486	0.7507008910179138	0.0	244.0	371.0	0.0	0.0	0.0	0.0	0.0	0.0	null	null	null	null	null	null	null	null	333.0	333.0	331.0	337.0	336.0	334.0	333.0	335.0	334.0	334.0	333.0	
Sun Jun 04 14:44:00 UTC 2017	0.0	1.047281664E9	3463.68115234375	0.0	2.5731072E7	0.0	2.0	9.42620672E8	39.57490539550781	0.0	1.0	1.061277696E9	1.050116096E9	0.0	0.0	0.061250001192092896	0.05849999934434891	0.048500001430511475	0.9919999837875366	0.7526472210884094	0.0	244.0	371.0	0.0	0.0	0.0	0.0	0.0	0.0	null	null	null	null	null	null	null	null	338.0	332.0	338.0	337.0	334.0	331.0	335.0	333.0	335.0	337.0	333.0	
Sun Jun 04 14:43:00 UTC 2017	0.0	1.048293376E9	3463.68115234375	0.0	2.5731072E7	0.0	2.0	9.42620672E8	39.57490539550781	0.0	0.0	1.061277696E9	1.050116096E9	0.0	0.0	0.07975000143051147	0.04675000160932541	0.04724999889731407	0.9922500252723694	0.7506911158561707	0.0	244.0	371.0	0.0	0.0	0.0	0.0	0.0	0.0	null	null	null	null	null	null	null	null	335.0	333.0	332.0	333.0	335.0	336.0	337.0	340.0	336.0	336.0	334.0	
Sun Jun 04 14:42:00 UTC 2017	0.0	1.048293376E9	3013.67822265625	0.0	2.5731072E7	0.0	3.0	9.42620672E8	39.57490539550781	0.0	0.0	1.061277696E9	1.050116096E9	0.0	null	0.08124999701976776	0.04774999991059303	0.04800000041723251	0.9919999837875366	0.7516520023345947	0.0	244.0	371.0	0.0	0.0	0.0	0.0	0.0	0.0	null	null	null	null	null	null	null	null	336.0	336.0	337.0	337.0	331.0	339.0	336.0	336.0	333.0	333.0	336.0	
Sun Jun 04 14:41:00 UTC 2017	0.0	1.047281664E9	3013.67822265625	0.0	2.5731072E7	0.0	2.0	9.42497792E8	39.57490539550781	0.0	0.0	1.061277696E9	1.050116096E9	0.0	0.0	0.0949999988079071	0.05525000020861626	0.04600000008940697	0.9919999837875366	0.7529603242874146	0.0	244.0	371.0	0.0	0.0	0.0	0.0	0.0	0.0	null	null	null	null	null	null	null	null	333.0	337.0	339.0	331.0	333.0	337.0	337.0	336.0	337.0	338.0	334.0	
Sun Jun 04 14:40:00 UTC 2017	1.0	1.048293376E9	3013.67822265625	0.0	2.5731072E7	0.0	4.0	9.42497792E8	39.57490539550781	0.0	0.0	1.061277696E9	1.050116096E9	0.0	0.0	0.07074999809265137	0.048500001430511475	0.04625000059604645	0.9917500019073486	0.7506685853004456	0.0	244.0	371.0	0.0	0.0	0.0	0.0	0.0	0.0	null	null	null	null	null	null	null	null	336.0	339.0	333.0	331.0	333.0	334.0	337.0	334.0	331.0	333.0	335.0	
Sun Jun 04 14:39:00 UTC 2017	1.0	1.047281664E9	3013.67822265625	0.0	2.5731072E7	0.0	2.0	9.4240768E8	39.57490539550781	1.0	2.0	1.061277696E9	1.050116096E9	0.0	0.0	0.07150000333786011	0.054999999701976776	0.04774999991059303	0.9919999837875366	0.752554714679718	0.0	244.0	371.0	0.0	0.0	0.0	0.0	0.0	0.0	null	null	null	null	null	null	null	null	335.0	333.0	339.0	337.0	331.0	335.0	331.0	341.0	336.0	336.0	337.0	
Sun Jun 04 14:38:00 UTC 2017	0.0	1.048293376E9	3013.67822265625	0.0	2.5731072E7	0.0	2.0	9.4240768E8	52.59941482543945	0.0	0.0	1.062289408E9	1.050116096E9	0.0	0.0	0.07874999940395355	0.05249999836087227	0.04924999922513962	0.9922500252723694	0.7529197335243225	0.0	244.0	371.0	0.0	0.0	0.0	0.0	0.0	0.0	null	null	null	null	null	null	null	null	339.0	335.0	333.0	332.0	337.0	333.0	340.0	334.0	333.0	338.0	336.0	
Sun Jun 04 14:37:00 UTC 2017	0.0	1.048293376E9	2959.887939453125	0.0	2.5731072E7	0.0	4.0	9.4240768E8	61.96840286254883	0.0	0.0	1.061277696E9	1.050116096E9	0.0	0.0	0.08150000125169754	0.04924999922513962	0.04975000023841858	0.9922500252723694	0.750619649887085	0.0	244.0	371.0	0.0	0.0	0.0	0.0	0.0	0.0	null	null	null	null	null	null	null	null	331.0	340.0	336.0	333.0	333.0	337.0	332.0	335.0	337.0	334.0	334.0	
Sun Jun 04 14:36:00 UTC 2017	0.0	1.048293376E9	3047.02294921875	0.0	2.5731072E7	0.0	3.0	9.42194688E8	61.96840286254883	0.0	0.0	1.061277696E9	1.050116096E9	0.0	null	0.06750000268220901	0.052000001072883606	0.048500001430511475	0.9919999837875366	0.752886950969696	0.0	244.0	371.0	0.0	0.0	0.0	0.0	0.0	0.0	null	null	null	null	null	null	null	null	337.0	334.0	334.0	332.0	332.0	334.0	336.0	337.0	335.0	334.0	337.0	
Sun Jun 04 14:35:00 UTC 2017	0.0	1.047281664E9	3047.02294921875	0.0	2.5731072E7	0.0	2.0	9.422848E8	35.576568603515625	0.0	0.0	1.061277696E9	1.050116096E9	0.0	0.0	0.07599999755620956	0.0494999997317791	0.048250000923871994	0.9919999837875366	0.7525781989097595	0.0	244.0	371.0	0.0	0.0	0.0	0.0	0.0	0.0	null	null	null	null	null	null	null	null	329.0	332.0	335.0	336.0	337.0	335.0	338.0	335.0	338.0	337.0	333.0	
Sun Jun 04 14:34:00 UTC 2017	0.0	1.047281664E9	2800.947998046875	0.0	2.5731072E7	0.0	2.0	9.42194688E8	35.576568603515625	0.0	0.0	1.062289408E9	1.050116096E9	0.0	0.0	0.07975000143051147	0.051750000566244125	0.042249999940395355	0.9919999837875366	0.7528703212738037	0.0	244.0	371.0	0.0	0.0	0.0	0.0	0.0	0.0	null	null	null	null	null	null	null	null	334.0	334.0	334.0	340.0	337.0	335.0	331.0	332.0	332.0	335.0	333.0	
Sun Jun 04 14:33:00 UTC 2017	0.0	1.048293376E9	2800.947998046875	0.0	2.5731072E7	0.0	2.0	9.42194688E8	35.576568603515625	0.0	0.0	1.061277696E9	1.050116096E9	0.0	0.0	0.07625000178813934	0.05375000089406967	0.04774999991059303	0.9919999837875366	0.7505731582641602	0.0	244.0	371.0	0.0	0.0	0.0	0.0	0.0	0.0	null	null	null	null	null	null	null	null	336.0	337.0	336.0	331.0	333.0	336.0	335.0	336.0	334.0	335.0	337.0	
Sun Jun 04 14:32:00 UTC 2017	0.0	1.047281664E9	2800.947998046875	0.0	2.5731072E7	0.0	2.0	9.42194688E8	47.35529708862305	0.0	0.0	1.062289408E9	1.050116096E9	0.0	0.0	0.0754999965429306	0.04475000128149986	0.04774999991059303	0.9915000200271606	0.7528443932533264	0.0	244.0	371.0	0.0	0.0	0.0	0.0	0.0	0.0	null	null	null	null	null	null	null	null	335.0	336.0	334.0	335.0	334.0	336.0	336.0	335.0	334.0	334.0	334.0	
Sun Jun 04 14:31:00 UTC 2017	0.0	1.047281664E9	1984.5596923828125	0.0	2.5731072E7	0.0	2.0	9.42075904E8	47.35529708862305	0.0	0.0	1.062289408E9	1.050116096E9	0.0	null	0.09600000083446503	0.05624999850988388	0.05000000074505806	0.9917500019073486	0.7505389451980591	0.0	244.0	371.0	0.0	0.0	0.0	0.0	0.0	0.0	null	null	null	null	null	null	null	null	336.0	333.0	336.0	335.0	334.0	335.0	332.0	336.0	337.0	337.0	334.0	
Sun Jun 04 14:30:00 UTC 2017	0.0	1.047281664E9	3186.726806640625	0.0	2.5731072E7	0.0	2.0	9.42075904E8	47.35529708862305	0.0	0.0	1.061277696E9	1.050116096E9	0.0	null	0.07100000232458115	0.05375000089406967	0.04675000160932541	0.9919999837875366	0.7505389451980591	0.0	244.0	371.0	0.0	0.0	0.0	0.0	0.0	0.0	null	null	null	null	null	null	null	null	335.0	334.0	334.0	336.0	339.0	336.0	336.0	337.0	336.0	334.0	339.0	
Sun Jun 04 14:29:00 UTC 2017	0.0	1.047281664E9	2717.260009765625	0.0	2.5731072E7	0.0	2.0	9.41985792E8	47.35529708862305	0.0	0.0	1.062289408E9	1.050116096E9	0.0	null	0.0820000022649765	0.04450000077486038	0.04749999940395355	0.9915000200271606	0.7505247592926025	0.0	244.0	371.0	0.0	0.0	0.0	0.0	0.0	0.0	null	null	null	null	null	null	null	null	335.0	334.0	336.0	335.0	332.0	335.0	335.0	335.0	331.0	335.0	332.0	
Sun Jun 04 14:28:00 UTC 2017	0.0	1.047281664E9	3045.348876953125	0.0	2.5731072E7	0.0	2.0	9.41985792E8	47.35529708862305	0.0	0.0	1.061277696E9	1.050116096E9	0.0	null	0.06750000268220901	0.05000000074505806	0.05000000074505806	0.9919999837875366	0.7505110502243042	0.0	244.0	371.0	0.0	0.0	0.0	0.0	0.0	0.0	null	null	null	null	null	null	null	null	334.0	336.0	338.0	334.0	337.0	337.0	335.0	335.0	337.0	334.0	335.0	
Sun Jun 04 14:27:00 UTC 2017	0.0	1.048293376E9	3045.348876953125	0.0	2.5731072E7	0.0	3.0	9.41985792E8	43.4567985534668	0.0	0.0	1.061277696E9	1.050116096E9	0.0	0.0	0.08375000208616257	0.05025000125169754	0.048250000923871994	0.9915000200271606	0.7505086064338684	0.0	244.0	371.0	0.0	0.0	0.0	0.0	0.0	0.0	null	null	null	null	null	null	null	null	334.0	334.0	331.0	336.0	336.0	335.0	334.0	334.0	336.0	335.0	337.0	
Sun Jun 04 14:26:00 UTC 2017	0.0	1.047281664E9	3045.348876953125	0.0	2.5731072E7	0.0	2.0	9.41768704E8	48.069801330566406	1.0	0.0	1.062289408E9	1.050116096E9	0.0	0.0	0.07150000333786011	0.05400000140070915	0.0442500002682209	0.9919999837875366	0.7504909634590149	0.0	244.0	371.0	0.0	0.0	0.0	0.0	0.0	0.0	null	null	null	null	null	null	null	null	334.0	336.0	336.0	334.0	337.0	335.0	338.0	333.0	333.0	336.0	334.0	
Sun Jun 04 14:25:00 UTC 2017	0.0	1.047281664E9	2527.828125	0.0	2.5731072E7	0.0	3.0	9.41858816E8	48.069801330566406	1.0	0.0	1.062289408E9	1.050116096E9	0.0	0.0	0.07625000178813934	0.05874999985098839	0.052000001072883606	0.9919999837875366	0.750472903251648	0.0	244.0	371.0	0.0	0.0	0.0	0.0	0.0	0.0	null	null	null	null	null	null	null	null	334.0	337.0	335.0	333.0	337.0	330.0	334.0	336.0	334.0	335.0	337.0	
Sun Jun 04 14:24:00 UTC 2017	0.0	1.047281664E9	3582.167236328125	0.0	2.5731072E7	0.0	3.0	9.41768704E8	62.34184646606445	0.0	0.0	1.062289408E9	1.050116096E9	0.0	0.0	0.0832500010728836	0.04800000041723251	0.051249999552965164	0.9919999837875366	0.7505286335945129	0.0	244.0	371.0	0.0	0.0	0.0	0.0	0.0	0.0	null	null	null	null	null	null	null	null	336.0	334.0	331.0	337.0	333.0	336.0	331.0	335.0	337.0	334.0	334.0	
Sun Jun 04 14:23:00 UTC 2017	0.0	1.047281664E9	2457.89404296875	0.0	2.5731072E7	0.0	4.0	9.41768704E8	42.43092346191406	0.0	1.0	1.061277696E9	1.050116096E9	0.0	0.0	0.06875000149011612	0.051750000566244125	0.048500001430511475	0.9917500019073486	0.7503387928009033	0.0	244.0	371.0	0.0	0.0	0.0	0.0	0.0	0.0	null	null	null	null	null	null	null	null	332.0	336.0	335.0	334.0	335.0	336.0	336.0	335.0	331.0	337.0	333.0	
Sun Jun 04 14:22:00 UTC 2017	0.0	1.048293376E9	2457.89404296875	0.0	2.5731072E7	0.0	3.0	9.417728E8	44.506473541259766	0.0	0.0	1.062289408E9	1.050116096E9	0.0	0.0	0.07275000214576721	0.05025000125169754	0.04975000023841858	0.9919999837875366	0.7503334283828735	0.0	244.0	371.0	0.0	0.0	0.0	0.0	0.0	0.0	null	null	null	null	null	null	null	null	338.0	335.0	330.0	337.0	335.0	332.0	337.0	334.0	338.0	336.0	336.0	
Sun Jun 04 14:21:00 UTC 2017	0.0	1.048293376E9	2534.419189453125	0.0	2.5731072E7	0.0	2.0	9.41543424E8	40.123130798339844	0.0	0.0	1.061277696E9	1.050116096E9	0.0	0.0	0.10125000029802322	0.05025000125169754	0.04874999821186066	0.9917500019073486	0.7503065466880798	0.0	244.0	371.0	0.0	0.0	0.0	0.0	0.0	0.0	null	null	null	null	null	null	null	null	331.0	333.0	334.0	337.0	334.0	335.0	337.0	337.0	330.0	333.0	332.0	
Sun Jun 04 14:20:00 UTC 2017	0.0	1.048293376E9	3617.6484375	0.0	2.5731072E7	0.0	3.0	9.41633536E8	46.06437301635742	0.0	0.0	1.062289408E9	1.050116096E9	0.0	0.0	0.07474999874830246	0.05225000157952309	0.04574999958276749	0.9919999837875366	0.7502791285514832	0.0	244.0	371.0	0.0	0.0	0.0	0.0	0.0	0.0	null	null	null	null	null	null	null	null	336.0	332.0	335.0	336.0	336.0	335.0	335.0	333.0	336.0	335.0	336.0	
Sun Jun 04 14:19:00 UTC 2017	0.0	1.048293376E9	2579.6806640625	0.0	2.5731072E7	0.0	2.0	9.41543424E8	68.69731903076172	0.0	0.0	1.061277696E9	1.050116096E9	0.0	0.0	0.07850000262260437	0.05575000122189522	0.04699999839067459	0.9919999837875366	0.750272274017334	0.0	244.0	371.0	0.0	0.0	0.0	0.0	0.0	0.0	null	null	null	null	null	null	null	null	335.0	336.0	334.0	335.0	334.0	336.0	336.0	334.0	336.0	331.0	337.0	
Sun Jun 04 14:18:00 UTC 2017	0.0	1.048293376E9	2879.850830078125	0.0	2.5731072E7	0.0	2.0	9.41543424E8	37.3119010925293	0.0	0.0	1.062289408E9	1.050116096E9	0.0	0.0	0.07474999874830246	0.042750000953674316	0.0494999997317791	0.9922500252723694	0.7514514327049255	0.0	244.0	371.0	0.0	0.0	0.0	0.0	0.0	0.0	null	null	null	null	null	null	null	null	335.0	332.0	332.0	333.0	335.0	332.0	336.0	336.0	334.0	337.0	333.0	
Sun Jun 04 14:17:00 UTC 2017	0.0	1.047281664E9	2879.850830078125	0.0	2.5731072E7	0.0	3.0	9.41543424E8	37.3119010925293	0.0	0.0	1.061277696E9	1.050116096E9	0.0	0.0	0.07824999839067459	0.054749999195337296	0.04675000160932541	0.9917500019073486	0.7502350807189941	0.0	244.0	371.0	0.0	0.0	0.0	0.0	0.0	0.0	null	null	null	null	null	null	null	null	337.0	334.0	337.0	335.0	335.0	336.0	335.0	336.0	333.0	334.0	339.0	
Sun Jun 04 14:16:00 UTC 2017	0.0	1.048293376E9	2879.850830078125	0.0	2.5731072E7	0.0	2.0	9.41334528E8	37.3119010925293	0.0	0.0	1.061277696E9	1.050116096E9	0.0	0.0	0.07474999874830246	0.04699999839067459	0.04625000059604645	0.9919999837875366	0.7502341270446777	0.0	244.0	371.0	0.0	0.0	0.0	0.0	0.0	0.0	null	null	null	null	null	null	null	null	331.0	337.0	333.0	335.0	337.0	333.0	332.0	337.0	338.0	334.0	333.0	
Sun Jun 04 14:15:00 UTC 2017	0.0	1.047281664E9	2879.850830078125	0.0	2.5731072E7	0.0	2.0	9.4142464E8	37.3119010925293	0.0	1.0	1.062289408E9	1.050116096E9	0.0	0.0	0.07000000029802322	0.05624999850988388	0.04749999940395355	0.9919999837875366	0.75090491771698	0.0	244.0	371.0	0.0	0.0	0.0	0.0	0.0	0.0	null	null	null	null	null	null	null	null	333.0	333.0	334.0	335.0	333.0	335.0	338.0	337.0	335.0	332.0	334.0	
Sun Jun 04 14:14:00 UTC 2017	0.0	1.047281664E9	2713.41552734375	0.0	2.5731072E7	0.0	2.0	9.41334528E8	37.3119010925293	1.0	1.0	1.062289408E9	1.050116096E9	0.0	0.0	0.07699999958276749	0.05225000157952309	0.052000001072883606	0.9919999837875366	0.7501978874206543	0.0	244.0	371.0	0.0	0.0	0.0	0.0	0.0	0.0	null	null	null	null	null	null	null	null	338.0	336.0	335.0	334.0	337.0	334.0	336.0	333.0	335.0	333.0	334.0	
Sun Jun 04 14:13:00 UTC 2017	0.0	1.047281664E9	2754.881591796875	0.0	2.5731072E7	0.0	3.0	9.41334528E8	61.691368103027344	0.0	0.0	1.062289408E9	1.050116096E9	0.0	0.0	0.06849999725818634	0.05050000175833702	0.04600000008940697	0.9917500019073486	0.7501993775367737	0.0	244.0	371.0	0.0	0.0	0.0	0.0	0.0	0.0	null	null	null	null	null	null	null	null	334.0	333.0	333.0	339.0	336.0	336.0	333.0	340.0	333.0	337.0	335.0	
Sun Jun 04 14:12:00 UTC 2017	0.0	1.047281664E9	3536.48876953125	0.0	2.5731072E7	0.0	2.0	9.41334528E8	61.691368103027344	0.0	0.0	1.062289408E9	1.050116096E9	0.0	0.0	0.07699999958276749	0.04774999991059303	0.04749999940395355	0.9917500019073486	0.7501851916313171	0.0	244.0	371.0	0.0	0.0	0.0	0.0	0.0	0.0	null	null	null	null	null	null	null	null	336.0	334.0	332.0	335.0	332.0	337.0	336.0	333.0	334.0	336.0	331.0	
Sun Jun 04 14:11:00 UTC 2017	0.0	1.048293376E9	3536.48876953125	0.0	2.5731072E7	0.0	2.0	9.41121536E8	61.691368103027344	0.0	0.0	1.062289408E9	1.050116096E9	0.0	0.0	0.10300000011920929	0.05400000140070915	0.04774999991059303	0.9922500252723694	0.7501773834228516	0.0	244.0	371.0	0.0	0.0	0.0	0.0	0.0	0.0	null	null	null	null	null	null	null	null	337.0	338.0	336.0	336.0	336.0	333.0	332.0	333.0	339.0	334.0	338.0	
Sun Jun 04 14:10:00 UTC 2017	0.0	1.048293376E9	2363.168212890625	0.0	2.5731072E7	0.0	4.0	9.41473792E8	61.691368103027344	0.0	1.0	1.061277696E9	1.050116096E9	0.0	0.0	0.07524999976158142	0.04774999991059303	0.04675000160932541	0.9919999837875366	0.7501621842384338	0.0	244.0	371.0	0.0	0.0	0.0	0.0	0.0	0.0	null	null	null	null	null	null	null	null	335.0	336.0	332.0	338.0	335.0	334.0	337.0	338.0	332.0	335.0	335.0	
Sun Jun 04 14:09:00 UTC 2017	0.0	1.047281664E9	2363.168212890625	0.0	2.5731072E7	0.0	2.0	9.41174784E8	61.691368103027344	0.0	0.0	1.062289408E9	1.050116096E9	0.0	0.0	0.07625000178813934	0.05274999886751175	0.05000000074505806	0.9917500019073486	0.7501455545425415	0.0	244.0	371.0	0.0	0.0	0.0	0.0	0.0	0.0	null	null	null	null	null	null	null	null	334.0	332.0	335.0	331.0	333.0	338.0	332.0	334.0	335.0	334.0	333.0	
Sun Jun 04 14:08:00 UTC 2017	0.0	1.048293376E9	2363.168212890625	0.0	2.5731072E7	0.0	2.0	9.41174784E8	39.13636016845703	0.0	0.0	1.062289408E9	1.050116096E9	0.0	null	0.07925000041723251	0.05050000175833702	0.04675000160932541	0.9919999837875366	0.7524314522743225	0.0	244.0	371.0	0.0	0.0	0.0	0.0	0.0	0.0	null	null	null	null	null	null	null	null	335.0	337.0	334.0	334.0	333.0	334.0	336.0	336.0	337.0	337.0	335.0	
Sun Jun 04 14:07:00 UTC 2017	0.0	1.048293376E9	2457.5302734375	0.0	2.5731072E7	0.0	5.0	9.41174784E8	42.81775665283203	0.0	0.0	1.061277696E9	1.050116096E9	0.0	null	0.07774999737739563	0.05249999836087227	0.0442500002682209	0.9919999837875366	0.7501274347305298	0.0	244.0	371.0	0.0	0.0	0.0	0.0	0.0	0.0	null	null	null	null	null	null	null	null	334.0	335.0	338.0	336.0	336.0	335.0	335.0	334.0	338.0	334.0	333.0	
Sun Jun 04 14:06:00 UTC 2017	0.0	1.047281664E9	2457.5302734375	0.0	2.5731072E7	0.0	4.0	9.40961792E8	35.79731750488281	0.0	0.0	1.062289408E9	1.050116096E9	0.0	null	0.08100000023841858	0.05225000157952309	0.052000001072883606	0.9917500019073486	0.7501103281974792	0.0	244.0	371.0	0.0	0.0	0.0	0.0	0.0	0.0	null	null	null	null	null	null	null	null	333.0	333.0	335.0	335.0	337.0	336.0	333.0	339.0	334.0	334.0	334.0	
Sun Jun 04 14:05:00 UTC 2017	0.0	1.047281664E9	2744.77099609375	0.0	2.5731072E7	0.0	2.0	9.41051904E8	35.79731750488281	0.0	0.0	1.062289408E9	1.050116096E9	0.0	null	0.07199999690055847	0.04800000041723251	0.0430000014603138	0.9919999837875366	0.7514176368713379	0.0	244.0	371.0	0.0	0.0	0.0	0.0	0.0	0.0	null	null	null	null	null	null	null	null	336.0	336.0	335.0	340.0	333.0	333.0	335.0	333.0	336.0	335.0	336.0	
Sun Jun 04 14:04:00 UTC 2017	0.0	1.048293376E9	2744.77099609375	0.0	2.5731072E7	0.0	2.0	9.40961792E8	45.52314758300781	0.0	0.0	1.062289408E9	1.050116096E9	0.0	null	0.06849999725818634	0.05299999937415123	0.04749999940395355	0.9919999837875366	0.7500917315483093	0.0	244.0	371.0	0.0	0.0	0.0	0.0	0.0	0.0	null	null	null	null	null	null	null	null	334.0	338.0	332.0	335.0	332.0	334.0	340.0	337.0	333.0	339.0	337.0	
Sun Jun 04 14:03:00 UTC 2017	0.0	1.048293376E9	2433.480712890625	0.0	2.5731072E7	0.0	2.0	9.40961792E8	46.22921371459961	0.0	0.0	1.062289408E9	1.050116096E9	0.0	0.0	0.07699999958276749	0.05025000125169754	0.0507499985396862	0.9919999837875366	0.7500726580619812	0.0	244.0	371.0	0.0	0.0	0.0	0.0	0.0	0.0	null	null	null	null	null	null	null	null	337.0	338.0	334.0	335.0	337.0	336.0	332.0	335.0	333.0	332.0	332.0	
Sun Jun 04 14:02:00 UTC 2017	0.0	1.048293376E9	3017.966064453125	0.0	2.5731072E7	0.0	3.0	9.40961792E8	46.22921371459961	0.0	0.0	1.061277696E9	1.050116096E9	0.0	0.0	0.08224999904632568	0.050999999046325684	0.04774999991059303	0.9919999837875366	0.7500520944595337	0.0	244.0	371.0	0.0	0.0	0.0	0.0	0.0	0.0	null	null	null	null	null	null	null	null	335.0	332.0	340.0	333.0	333.0	333.0	335.0	336.0	340.0	336.0	334.0	
Sun Jun 04 14:01:00 UTC 2017	0.0	1.047281664E9	3017.966064453125	0.0	2.5731072E7	0.0	2.0	9.40838912E8	59.635215759277344	0.0	0.0	1.061277696E9	1.050116096E9	0.0	0.0	0.09799999743700027	0.051249999552965164	0.042500000447034836	0.9919999837875366	0.7500026822090149	0.0	244.0	371.0	0.0	0.0	0.0	0.0	0.0	0.0	null	null	null	null	null	null	null	null	338.0	335.0	337.0	334.0	335.0	334.0	335.0	332.0	334.0	335.0	334.0	
Sun Jun 04 14:00:00 UTC 2017	0.0	1.048293376E9	3017.966064453125	0.0	2.5731072E7	0.0	2.0	9.40838912E8	57.18290710449219	0.0	0.0	1.061277696E9	1.050116096E9	0.0	0.0	0.06849999725818634	0.045249998569488525	0.051750000566244125	0.9919999837875366	0.7500379085540771	0.0	244.0	371.0	0.0	0.0	0.0	0.0	0.0	0.0	null	null	null	null	null	null	null	null	336.0	336.0	332.0	334.0	335.0	335.0	335.0	336.0	337.0	336.0	334.0	
Sun Jun 04 13:59:00 UTC 2017	0.0	1.047281664E9	3017.966064453125	0.0	2.5731072E7	0.0	2.0	9.407488E8	57.18290710449219	1.0	1.0	1.061277696E9	1.050116096E9	0.0	null	0.07774999737739563	0.05400000140070915	0.04650000110268593	0.9922500252723694	0.7500134706497192	0.0	244.0	371.0	0.0	0.0	0.0	0.0	0.0	0.0	null	null	null	null	null	null	null	null	337.0	333.0	335.0	336.0	335.0	335.0	333.0	338.0	336.0	336.0	334.0	
Sun Jun 04 13:58:00 UTC 2017	0.0	1.047281664E9	2696.840087890625	0.0	2.5731072E7	0.0	4.0	9.407488E8	57.19630813598633	1.0	2.0	1.062289408E9	1.050116096E9	0.0	null	0.0767500028014183	0.048250000923871994	0.045249998569488525	0.9922500252723694	0.7499992847442627	0.0	244.0	371.0	0.0	0.0	0.0	0.0	0.0	0.0	null	null	null	null	null	null	null	null	334.0	338.0	339.0	337.0	339.0	338.0	339.0	336.0	335.0	335.0	335.0	
Sun Jun 04 13:57:00 UTC 2017	0.0	1.048293376E9	2696.840087890625	0.0	2.5731072E7	0.0	3.0	9.407488E8	45.92718505859375	0.0	0.0	1.062289408E9	1.050116096E9	0.0	null	0.07500000298023224	0.05299999937415123	0.048500001430511475	0.9922500252723694	0.7499982714653015	0.0	244.0	371.0	0.0	0.0	0.0	0.0	0.0	0.0	null	null	null	null	null	null	null	null	335.0	332.0	335.0	331.0	334.0	331.0	333.0	336.0	333.0	334.0	335.0	
Sun Jun 04 13:56:00 UTC 2017	0.0	1.047281664E9	2696.840087890625	0.0	2.5731072E7	0.0	3.0	9.40539904E8	40.50376892089844	0.0	0.0	1.062289408E9	1.050116096E9	0.0	0.0	0.07599999755620956	0.052000001072883606	0.04975000023841858	0.9919999837875366	0.7499738335609436	0.0	244.0	371.0	0.0	0.0	0.0	0.0	0.0	0.0	null	null	null	null	null	null	null	null	334.0	336.0	331.0	337.0	333.0	337.0	336.0	337.0	334.0	337.0	333.0	
Sun Jun 04 13:55:00 UTC 2017	0.0	1.048293376E9	2696.840087890625	0.0	2.5731072E7	0.0	3.0	9.40634112E8	62.075218200683594	1.0	1.0	1.062289408E9	1.050116096E9	0.0	0.0	0.07050000131130219	0.054999999701976776	0.054249998182058334	0.9922500252723694	0.7499557137489319	0.0	244.0	371.0	0.0	0.0	0.0	0.0	0.0	0.0	null	null	null	null	null	null	null	null	336.0	335.0	338.0	336.0	334.0	332.0	336.0	335.0	338.0	335.0	335.0	
Sun Jun 04 13:54:00 UTC 2017	0.0	1.048293376E9	2888.710693359375	0.0	2.5731072E7	0.0	7.0	9.40544E8	37.63409423828125	1.0	2.0	1.061277696E9	1.050116096E9	0.0	0.0	0.0832500010728836	0.050999999046325684	0.0494999997317791	0.9919999837875366	0.7499547600746155	0.0	244.0	371.0	0.0	0.0	0.0	0.0	0.0	0.0	null	null	null	null	null	null	null	null	336.0	334.0	334.0	333.0	337.0	335.0	336.0	330.0	335.0	334.0	337.0	
Sun Jun 04 13:53:00 UTC 2017	0.0	1.047281664E9	2888.710693359375	0.0	2.5731072E7	0.0	5.0	9.40544E8	44.3963737487793	0.0	0.0	1.061277696E9	1.050116096E9	0.0	0.0	0.07175000011920929	0.05649999901652336	0.05700000002980232	0.9919999837875366	0.7512943744659424	0.0	244.0	371.0	0.0	0.0	0.0	0.0	0.0	0.0	null	null	null	null	null	null	null	null	336.0	334.0	334.0	335.0	335.0	336.0	336.0	336.0	330.0	335.0	336.0	
Sun Jun 04 13:52:00 UTC 2017	1.0	1.047281664E9	3333.302978515625	0.0	2.5731072E7	0.0	3.0	9.40544E8	52.455997467041016	0.0	0.0	1.061277696E9	1.050116096E9	0.0	null	0.07225000113248825	0.04675000160932541	0.04625000059604645	0.9919999837875366	0.7499033808708191	0.0	244.0	371.0	0.0	0.0	0.0	0.0	0.0	0.0	null	null	null	null	null	null	null	null	334.0	337.0	336.0	335.0	335.0	334.0	334.0	333.0	336.0	335.0	335.0	
Sun Jun 04 13:51:00 UTC 2017	0.0	1.048293376E9	3333.302978515625	0.0	2.5731072E7	0.0	3.0	9.40331008E8	52.455997467041016	1.0	2.0	1.062289408E9	1.050116096E9	0.0	null	0.10350000113248825	0.05649999901652336	0.05050000175833702	0.9922500252723694	0.7498524785041809	0.0	244.0	371.0	0.0	0.0	0.0	0.0	0.0	0.0	null	null	null	null	null	null	null	null	330.0	335.0	336.0	335.0	332.0	336.0	332.0	336.0	337.0	335.0	334.0	
Sun Jun 04 13:50:00 UTC 2017	0.0	1.048293376E9	2800.449951171875	0.0	2.5731072E7	0.0	3.0	9.4042112E8	52.455997467041016	0.0	1.0	1.062289408E9	1.050116096E9	0.0	null	0.07374999672174454	0.0560000017285347	0.045499999076128006	0.9922500252723694	0.751866340637207	0.0	244.0	371.0	0.0	0.0	0.0	0.0	0.0	0.0	null	null	null	null	null	null	null	null	336.0	332.0	333.0	335.0	337.0	336.0	336.0	336.0	334.0	336.0	337.0	
Sun Jun 04 13:49:00 UTC 2017	0.0	1.047281664E9	2800.449951171875	0.0	2.5731072E7	0.0	4.0	9.40331008E8	41.42561340332031	1.0	1.0	1.061277696E9	1.050116096E9	0.0	null	0.0794999971985817	0.05550000071525574	0.04724999889731407	0.9919999837875366	0.7498094439506531	0.0	244.0	371.0	0.0	0.0	0.0	0.0	0.0	0.0	null	null	null	null	null	null	null	null	337.0	337.0	333.0	335.0	334.0	337.0	335.0	334.0	333.0	338.0	333.0	
Sun Jun 04 13:48:00 UTC 2017	0.0	1.047281664E9	2777.186279296875	0.0	2.5731072E7	0.0	5.0	9.40331008E8	41.42561340332031	1.0	2.0	1.061277696E9	1.050116096E9	0.0	null	0.06674999743700027	0.05375000089406967	0.05025000125169754	0.9917500019073486	0.7498138546943665	0.0	244.0	371.0	0.0	0.0	0.0	0.0	0.0	0.0	null	null	null	null	null	null	null	null	332.0	332.0	337.0	337.0	337.0	334.0	336.0	335.0	335.0	334.0	333.0	
Sun Jun 04 13:47:00 UTC 2017	0.0	1.048293376E9	2777.186279296875	0.0	2.5731072E7	0.0	2.0	9.40331008E8	36.21405792236328	1.0	1.0	1.062289408E9	1.050116096E9	0.0	null	0.07649999856948853	0.051249999552965164	0.0494999997317791	0.9917500019073486	0.7497996687889099	0.0	244.0	371.0	0.0	0.0	0.0	0.0	0.0	0.0	null	null	null	null	null	null	null	null	335.0	337.0	330.0	335.0	332.0	337.0	337.0	337.0	333.0	337.0	337.0	
Sun Jun 04 13:46:00 UTC 2017	0.0	1.048293376E9	2406.189208984375	0.0	2.5731072E7	0.0	2.0	9.40118016E8	43.912986755371094	1.0	0.0	1.061277696E9	1.050116096E9	0.0	null	0.07400000095367432	0.0560000017285347	0.04450000077486038	0.9917500019073486	0.7497825026512146	0.0	244.0	371.0	0.0	0.0	0.0	0.0	0.0	0.0	null	null	null	null	null	null	null	null	336.0	334.0	333.0	334.0	336.0	336.0	330.0	337.0	335.0	335.0	335.0	
Sun Jun 04 13:45:00 UTC 2017	0.0	1.047281664E9	2406.189208984375	0.0	2.5731072E7	0.0	2.0	9.40208128E8	48.48445129394531	1.0	1.0	1.061277696E9	1.050116096E9	0.0	null	0.06975000351667404	0.051500000059604645	0.05575000122189522	0.9922500252723694	0.7497693300247192	0.0	244.0	371.0	0.0	0.0	0.0	0.0	0.0	0.0	null	null	null	null	null	null	null	null	336.0	335.0	332.0	338.0	334.0	337.0	335.0	336.0	336.0	335.0	334.0	
Sun Jun 04 13:44:00 UTC 2017	0.0	1.047281664E9	3095.81640625	0.0	2.5731072E7	0.0	3.0	9.40118016E8	39.17637634277344	1.0	1.0	1.061277696E9	1.050116096E9	0.0	0.0	0.07599999755620956	0.057999998331069946	0.04450000077486038	0.9922500252723694	0.7504043579101562	0.0	244.0	371.0	0.0	0.0	0.0	0.0	0.0	0.0	null	null	null	null	null	null	null	null	332.0	335.0	338.0	336.0	334.0	335.0	338.0	335.0	332.0	336.0	335.0	
Sun Jun 04 13:43:00 UTC 2017	0.0	1.047281664E9	2161.181884765625	0.0	2.5731072E7	0.0	4.0	9.40118016E8	56.53288650512695	0.0	0.0	1.062289408E9	1.050116096E9	0.0	0.0	0.0767500028014183	0.048250000923871994	0.04774999991059303	0.9917500019073486	0.749874472618103	0.0	244.0	371.0	0.0	0.0	0.0	0.0	0.0	0.0	null	null	null	null	null	null	null	null	337.0	335.0	335.0	332.0	338.0	336.0	333.0	336.0	336.0	332.0	336.0	
Sun Jun 04 13:42:00 UTC 2017	0.0	1.047281664E9	2337.097412109375	0.0	2.5731072E7	0.0	3.0	9.40118016E8	49.115962982177734	0.0	0.0	1.061277696E9	1.050116096E9	0.0	0.0	0.08524999767541885	0.05550000071525574	0.04749999940395355	0.9919999837875366	0.7521579265594482	0.0	244.0	371.0	0.0	0.0	0.0	0.0	0.0	0.0	null	null	null	null	null	null	null	null	335.0	334.0	332.0	340.0	334.0	332.0	336.0	335.0	336.0	337.0	335.0	
Sun Jun 04 13:41:00 UTC 2017	0.0	1.048293376E9	2337.097412109375	0.0	2.5731072E7	0.0	4.0	9.3990912E8	49.115962982177734	0.0	0.0	1.062289408E9	1.050116096E9	0.0	0.0	0.09274999797344208	0.04749999940395355	0.05249999836087227	0.9919999837875366	0.7521457076072693	0.0	244.0	371.0	0.0	0.0	0.0	0.0	0.0	0.0	null	null	null	null	null	null	null	null	339.0	336.0	337.0	333.0	337.0	335.0	337.0	332.0	335.0	334.0	334.0	
Sun Jun 04 13:40:00 UTC 2017	0.0	1.047281664E9	2337.097412109375	0.0	2.5731072E7	0.0	3.0	9.39995136E8	51.97800827026367	0.0	0.0	1.061277696E9	1.050116096E9	0.0	0.0	0.07699999958276749	0.05575000122189522	0.04650000110268593	0.9917500019073486	0.7517288327217102	0.0	244.0	371.0	0.0	0.0	0.0	0.0	0.0	0.0	null	null	null	null	null	null	null	null	332.0	334.0	334.0	333.0	332.0	336.0	334.0	334.0	335.0	334.0	335.0	
Sun Jun 04 13:39:00 UTC 2017	1.0	1.047281664E9	2534.270263671875	0.0	2.5731072E7	0.0	2.0	9.3990912E8	44.706787109375	1.0	1.0	1.061277696E9	1.050116096E9	0.0	0.0	0.0754999965429306	0.05025000125169754	0.048250000923871994	0.9917500019073486	0.7498412132263184	0.0	244.0	371.0	0.0	0.0	0.0	0.0	0.0	0.0	null	null	null	null	null	null	null	null	336.0	334.0	334.0	338.0	330.0	333.0	332.0	339.0	334.0	338.0	333.0	
Sun Jun 04 13:38:00 UTC 2017	0.0	1.048293376E9	2534.270263671875	0.0	2.5731072E7	0.0	3.0	9.3990912E8	44.706787109375	0.0	0.0	1.061277696E9	1.050116096E9	0.0	0.0	0.08025000244379044	0.054999999701976776	0.04724999889731407	0.9915000200271606	0.7498294711112976	0.0	244.0	371.0	0.0	0.0	0.0	0.0	0.0	0.0	null	null	null	null	null	null	null	null	332.0	334.0	337.0	334.0	336.0	335.0	331.0	333.0	333.0	332.0	333.0	
Sun Jun 04 13:37:00 UTC 2017	0.0	1.047281664E9	2534.270263671875	0.0	2.5731072E7	0.0	2.0	9.3990912E8	44.706787109375	0.0	0.0	1.061277696E9	1.050116096E9	0.0	null	0.06575000286102295	0.04574999958276749	0.04924999922513962	0.9917500019073486	0.7515037655830383	0.0	244.0	371.0	0.0	0.0	0.0	0.0	0.0	0.0	null	null	null	null	null	null	null	null	334.0	332.0	331.0	335.0	336.0	333.0	336.0	334.0	335.0	338.0	333.0	
Sun Jun 04 13:36:00 UTC 2017	0.0	1.048293376E9	2534.270263671875	0.0	2.5731072E7	0.0	2.0	9.3978624E8	34.996524810791016	1.0	2.0	1.062289408E9	1.050116096E9	0.0	null	0.08550000190734863	0.06300000101327896	0.042750000953674316	0.9919999837875366	0.7498035430908203	0.0	244.0	371.0	0.0	0.0	0.0	0.0	0.0	0.0	null	null	null	null	null	null	null	null	334.0	336.0	335.0	332.0	335.0	335.0	334.0	339.0	339.0	336.0	338.0	
Sun Jun 04 13:35:00 UTC 2017	0.0	1.047281664E9	2534.270263671875	0.0	2.5731072E7	0.0	3.0	9.3978624E8	52.682289123535156	1.0	1.0	1.062289408E9	1.050116096E9	0.0	null	0.07699999958276749	0.051500000059604645	0.04774999991059303	0.9919999837875366	0.749786913394928	0.0	244.0	371.0	0.0	0.0	0.0	0.0	0.0	0.0	null	null	null	null	null	null	null	null	341.0	338.0	339.0	339.0	336.0	335.0	338.0	335.0	331.0	334.0	335.0	
Sun Jun 04 13:34:00 UTC 2017	0.0	1.048293376E9	2534.270263671875	0.0	2.5731072E7	0.0	2.0	9.39696128E8	52.682289123535156	0.0	1.0	1.062289408E9	1.050116096E9	0.0	0.0	0.07199999690055847	0.05400000140070915	0.05350000038743019	0.9919999837875366	0.749786913394928	0.0	244.0	371.0	0.0	0.0	0.0	0.0	0.0	0.0	null	null	null	null	null	null	null	null	332.0	334.0	333.0	336.0	332.0	338.0	336.0	335.0	335.0	335.0	338.0	
Sun Jun 04 13:33:00 UTC 2017	0.0	1.048293376E9	3072.60205078125	0.0	2.5731072E7	0.0	3.0	9.39696128E8	52.682289123535156	0.0	0.0	1.062289408E9	1.050116096E9	0.0	0.0	0.07575000077486038	0.04975000023841858	0.04324999824166298	0.9917500019073486	0.7497311234474182	0.0	244.0	371.0	0.0	0.0	0.0	0.0	0.0	0.0	null	null	null	null	null	null	null	null	332.0	333.0	332.0	338.0	338.0	332.0	332.0	334.0	334.0	334.0	336.0	
Sun Jun 04 13:32:00 UTC 2017	0.0	1.048293376E9	2717.618896484375	0.0	2.5731072E7	0.0	2.0	9.39696128E8	52.682289123535156	0.0	0.0	1.062289408E9	1.050116096E9	0.0	0.0	0.0767500028014183	0.0494999997317791	0.05000000074505806	0.9917500019073486	0.751336932182312	0.0	244.0	371.0	0.0	0.0	0.0	0.0	0.0	0.0	null	null	null	null	null	null	null	null	333.0	335.0	334.0	337.0	334.0	335.0	341.0	333.0	336.0	333.0	335.0	
Sun Jun 04 13:31:00 UTC 2017	0.0	1.048293376E9	2837.2001953125	0.0	2.5731072E7	0.0	2.0	9.39483136E8	52.682289123535156	0.0	0.0	1.061277696E9	1.050116096E9	0.0	0.0	0.09200000017881393	0.04724999889731407	0.042750000953674316	0.9917500019073486	0.7495408058166504	0.0	244.0	371.0	0.0	0.0	0.0	0.0	0.0	0.0	null	null	null	null	null	null	null	null	335.0	338.0	332.0	335.0	336.0	330.0	333.0	335.0	336.0	335.0	334.0	
Sun Jun 04 13:30:00 UTC 2017	1.0	1.047281664E9	2837.2001953125	0.0	2.5731072E7	0.0	2.0	9.39573248E8	45.913875579833984	0.0	0.0	1.061277696E9	1.050116096E9	0.0	0.0	0.07349999994039536	0.05400000140070915	0.0494999997317791	0.9919999837875366	0.7518917918205261	0.0	244.0	371.0	0.0	0.0	0.0	0.0	0.0	0.0	null	null	null	null	null	null	null	null	335.0	333.0	342.0	331.0	334.0	336.0	338.0	335.0	334.0	336.0	336.0	
Sun Jun 04 13:29:00 UTC 2017	0.0	1.047281664E9	3126.2607421875	0.0	2.5731072E7	0.0	2.0	9.39483136E8	45.913875579833984	0.0	0.0	1.061277696E9	1.050116096E9	0.0	0.0	0.08299999684095383	0.04650000110268593	0.04874999821186066	0.9919999837875366	0.7495921850204468	0.0	244.0	371.0	0.0	0.0	0.0	0.0	0.0	0.0	null	null	null	null	null	null	null	null	334.0	333.0	334.0	337.0	339.0	335.0	334.0	335.0	334.0	332.0	332.0	
Sun Jun 04 13:28:00 UTC 2017	0.0	1.048293376E9	3126.2607421875	0.0	2.5731072E7	0.0	2.0	9.39483136E8	45.913875579833984	0.0	0.0	1.062289408E9	1.050116096E9	0.0	0.0	0.07275000214576721	0.05550000071525574	0.048500001430511475	0.9919999837875366	0.7495789527893066	0.0	244.0	371.0	0.0	0.0	0.0	0.0	0.0	0.0	null	null	null	null	null	null	null	null	336.0	337.0	335.0	335.0	334.0	336.0	334.0	333.0	335.0	336.0	341.0	
Sun Jun 04 13:27:00 UTC 2017	0.0	1.047281664E9	3126.2607421875	0.0	2.5731072E7	0.0	2.0	9.39483136E8	45.913875579833984	0.0	0.0	1.062289408E9	1.050116096E9	0.0	0.0	0.07400000095367432	0.04399999976158142	0.0430000014603138	0.9917500019073486	0.7495779991149902	0.0	244.0	371.0	0.0	0.0	0.0	0.0	0.0	0.0	null	null	null	null	null	null	null	null	332.0	335.0	334.0	335.0	337.0	336.0	336.0	335.0	336.0	336.0	331.0	
Sun Jun 04 13:26:00 UTC 2017	0.0	1.047281664E9	2293.99169921875	0.0	2.5731072E7	0.0	3.0	9.39360256E8	45.913875579833984	0.0	0.0	1.062289408E9	1.050116096E9	0.0	0.0	0.07850000262260437	0.05950000137090683	0.05050000175833702	0.9919999837875366	0.7495212554931641	0.0	244.0	371.0	0.0	0.0	0.0	0.0	0.0	0.0	null	null	null	null	null	null	null	null	337.0	336.0	332.0	333.0	334.0	333.0	335.0	334.0	334.0	336.0	336.0	
Sun Jun 04 13:25:00 UTC 2017	0.0	1.047281664E9	2315.56689453125	0.0	2.5731072E7	0.0	3.0	9.39360256E8	46.56813049316406	0.0	0.0	1.061277696E9	1.050116096E9	0.0	0.0	0.0625	0.04699999839067459	0.0494999997317791	0.9922500252723694	0.7495046257972717	0.0	244.0	371.0	0.0	0.0	0.0	0.0	0.0	0.0	null	null	null	null	null	null	null	null	336.0	334.0	332.0	335.0	338.0	338.0	334.0	335.0	339.0	337.0	336.0	
Sun Jun 04 13:24:00 UTC 2017	0.0	1.047281664E9	2519.55712890625	0.0	2.5731072E7	0.0	4.0	9.39270144E8	46.56813049316406	1.0	1.0	1.062289408E9	1.050116096E9	0.0	0.0	0.07575000077486038	0.054249998182058334	0.04749999940395355	0.9919999837875366	0.7504298090934753	0.0	244.0	371.0	0.0	0.0	0.0	0.0	0.0	0.0	null	null	null	null	null	null	null	null	329.0	334.0	334.0	334.0	333.0	337.0	337.0	331.0	332.0	334.0	336.0	
Sun Jun 04 13:23:00 UTC 2017	0.0	1.048293376E9	2519.55712890625	0.0	2.5731072E7	0.0	3.0	9.39270144E8	46.56813049316406	0.0	0.0	1.061277696E9	1.050116096E9	0.0	0.0	0.07199999690055847	0.04500000178813934	0.045499999076128006	0.9922500252723694	0.7500482201576233	0.0	244.0	371.0	0.0	0.0	0.0	0.0	0.0	0.0	null	null	null	null	null	null	null	null	334.0	334.0	332.0	337.0	333.0	335.0	332.0	334.0	337.0	337.0	332.0	
Sun Jun 04 13:22:00 UTC 2017	0.0	1.047281664E9	2519.55712890625	0.0	2.5731072E7	0.0	2.0	9.39270144E8	36.725460052490234	0.0	1.0	1.061277696E9	1.050116096E9	0.0	0.0	0.08049999922513962	0.050999999046325684	0.051500000059604645	0.9917500019073486	0.7494757175445557	0.0	244.0	371.0	0.0	0.0	0.0	0.0	0.0	0.0	null	null	null	null	null	null	null	null	335.0	335.0	334.0	333.0	334.0	338.0	339.0	336.0	334.0	333.0	334.0	
Sun Jun 04 13:21:00 UTC 2017	0.0	1.047281664E9	2931.7119140625	0.0	2.5731072E7	0.0	2.0	9.39044864E8	36.725460052490234	0.0	0.0	1.061277696E9	1.050116096E9	0.0	0.0	0.09600000083446503	0.05225000157952309	0.045249998569488525	0.9919999837875366	0.7494590878486633	0.0	244.0	371.0	0.0	0.0	0.0	0.0	0.0	0.0	null	null	null	null	null	null	null	null	332.0	337.0	335.0	336.0	336.0	333.0	332.0	334.0	335.0	337.0	335.0	
Sun Jun 04 13:20:00 UTC 2017	0.0	1.048293376E9	2931.7119140625	0.0	2.5731072E7	0.0	4.0	9.39134976E8	36.725460052490234	1.0	1.0	1.061277696E9	1.050116096E9	0.0	0.0	0.08049999922513962	0.05874999985098839	0.04724999889731407	0.9917500019073486	0.7494527697563171	0.0	244.0	371.0	0.0	0.0	0.0	0.0	0.0	0.0	null	null	null	null	null	null	null	null	335.0	334.0	333.0	335.0	337.0	334.0	335.0	338.0	335.0	336.0	335.0	
Sun Jun 04 13:19:00 UTC 2017	0.0	1.047281664E9	2931.7119140625	0.0	2.5731072E7	0.0	2.0	9.39044864E8	36.725460052490234	0.0	0.0	1.062289408E9	1.050116096E9	0.0	0.0	0.06875000149011612	0.04574999958276749	0.051500000059604645	0.9919999837875366	0.749436616897583	0.0	244.0	371.0	0.0	0.0	0.0	0.0	0.0	0.0	null	null	null	null	null	null	null	null	333.0	336.0	335.0	336.0	333.0	333.0	334.0	331.0	336.0	331.0	336.0	
Sun Jun 04 13:18:00 UTC 2017	0.0	1.047281664E9	2356.617431640625	0.0	2.5731072E7	0.0	2.0	9.39044864E8	46.31059646606445	0.0	0.0	1.062289408E9	1.050116096E9	0.0	null	0.07824999839067459	0.050999999046325684	0.045249998569488525	0.9919999837875366	0.7494145631790161	0.0	244.0	371.0	0.0	0.0	0.0	0.0	0.0	0.0	null	null	null	null	null	null	null	null	336.0	337.0	337.0	333.0	333.0	338.0	337.0	337.0	332.0	335.0	336.0	
Sun Jun 04 13:17:00 UTC 2017	0.0	1.048293376E9	2356.617431640625	0.0	2.5731072E7	0.0	6.0	9.39044864E8	42.84461975097656	0.0	0.0	1.062289408E9	1.050116096E9	0.0	0.0	0.07400000095367432	0.05050000175833702	0.05025000125169754	0.9919999837875366	0.7494121193885803	0.0	244.0	371.0	0.0	0.0	0.0	0.0	0.0	0.0	null	null	null	null	null	null	null	null	335.0	334.0	336.0	337.0	338.0	337.0	334.0	334.0	334.0	337.0	333.0	
Sun Jun 04 13:16:00 UTC 2017	0.0	1.048293376E9	2351.33984375	0.0	2.5731072E7	0.0	3.0	9.38831872E8	44.52894592285156	0.0	0.0	1.062289408E9	1.050116096E9	0.0	0.0	0.07999999821186066	0.05050000175833702	0.0430000014603138	0.9919999837875366	0.7493407130241394	0.0	244.0	371.0	0.0	0.0	0.0	0.0	0.0	0.0	null	null	null	null	null	null	null	null	336.0	336.0	333.0	336.0	336.0	333.0	334.0	336.0	338.0	334.0	336.0	
Sun Jun 04 13:15:00 UTC 2017	0.0	1.047281664E9	2351.33984375	0.0	2.5731072E7	0.0	3.0	9.38921984E8	38.55322265625	0.0	0.0	1.062289408E9	1.050116096E9	0.0	0.0	0.07374999672174454	0.048500001430511475	0.04774999991059303	0.9919999837875366	0.749351441860199	0.0	244.0	371.0	0.0	0.0	0.0	0.0	0.0	0.0	null	null	null	null	null	null	null	null	339.0	334.0	335.0	333.0	331.0	334.0	337.0	335.0	337.0	332.0	332.0	
Sun Jun 04 13:14:00 UTC 2017	0.0	1.047281664E9	3339.650634765625	0.0	2.5731072E7	0.0	2.0	9.38831872E8	66.82455444335938	0.0	0.0	1.061277696E9	1.050116096E9	0.0	0.0	0.07175000011920929	0.054749999195337296	0.04899999871850014	0.9919999837875366	0.7493309378623962	0.0	244.0	371.0	0.0	0.0	0.0	0.0	0.0	0.0	null	null	null	null	null	null	null	null	331.0	337.0	335.0	337.0	333.0	335.0	332.0	334.0	334.0	336.0	338.0	
Sun Jun 04 13:13:00 UTC 2017	0.0	1.047281664E9	2902.75390625	0.0	2.5731072E7	0.0	2.0	9.38831872E8	34.37836456298828	0.0	0.0	1.062289408E9	1.050116096E9	0.0	0.0	0.07175000011920929	0.04600000008940697	0.05025000125169754	0.9922500252723694	0.749333381652832	0.0	244.0	371.0	0.0	0.0	0.0	0.0	0.0	0.0	null	null	null	null	null	null	null	null	338.0	333.0	338.0	335.0	338.0	335.0	336.0	335.0	334.0	336.0	336.0	
Sun Jun 04 13:12:00 UTC 2017	0.0	1.048293376E9	2902.75390625	0.0	2.5731072E7	0.0	2.0	9.38831872E8	34.37836456298828	0.0	0.0	1.061277696E9	1.050116096E9	0.0	0.0	0.0754999965429306	0.05249999836087227	0.048250000923871994	0.9922500252723694	0.7493147850036621	0.0	244.0	371.0	0.0	0.0	0.0	0.0	0.0	0.0	null	null	null	null	null	null	null	null	335.0	334.0	334.0	334.0	333.0	336.0	332.0	334.0	338.0	340.0	336.0	
Sun Jun 04 13:11:00 UTC 2017	0.0	1.047281664E9	2902.75390625	0.0	2.5731072E7	0.0	3.0	9.38971136E8	34.37836456298828	0.0	0.0	1.061277696E9	1.050116096E9	0.0	0.0	0.10000000149011612	0.05050000175833702	0.04600000008940697	0.9919999837875366	0.7493157386779785	0.0	244.0	371.0	0.0	0.0	0.0	0.0	0.0	0.0	null	null	null	null	null	null	null	null	334.0	339.0	341.0	335.0	334.0	334.0	335.0	335.0	333.0	333.0	336.0	
Sun Jun 04 13:10:00 UTC 2017	0.0	1.047281664E9	2907.617431640625	0.0	2.5731072E7	0.0	4.0	9.38971136E8	37.95325469970703	0.0	0.0	1.061277696E9	1.050116096E9	0.0	0.0	0.07699999958276749	0.05324999988079071	0.048500001430511475	0.9919999837875366	0.7493710517883301	0.0	244.0	371.0	0.0	0.0	0.0	0.0	0.0	0.0	null	null	null	null	null	null	null	null	335.0	334.0	333.0	332.0	334.0	338.0	335.0	336.0	334.0	335.0	334.0	
Sun Jun 04 13:09:00 UTC 2017	0.0	1.048293376E9	2907.617431640625	0.0	2.5731072E7	0.0	2.0	9.38606592E8	37.95325469970703	0.0	0.0	1.062289408E9	1.050116096E9	0.0	0.0	0.07524999976158142	0.04574999958276749	0.0507499985396862	0.9919999837875366	0.7493509650230408	0.0	244.0	371.0	0.0	0.0	0.0	0.0	0.0	0.0	null	null	null	null	null	null	null	null	334.0	336.0	339.0	339.0	336.0	333.0	338.0	335.0	333.0	336.0	336.0	
Sun Jun 04 13:08:00 UTC 2017	0.0	1.047281664E9	2907.617431640625	0.0	2.5731072E7	0.0	4.0	9.38606592E8	47.74298095703125	0.0	0.0	1.062289408E9	1.050116096E9	0.0	0.0	0.06949999928474426	0.05324999988079071	0.045249998569488525	0.9925000071525574	0.750601053237915	0.0	244.0	371.0	0.0	0.0	0.0	0.0	0.0	0.0	null	null	null	null	null	null	null	null	332.0	332.0	333.0	336.0	332.0	337.0	333.0	336.0	335.0	336.0	334.0	
Sun Jun 04 13:07:00 UTC 2017	0.0	1.047281664E9	2445.60009765625	0.0	2.5731072E7	0.0	2.0	9.38606592E8	35.585472106933594	0.0	0.0	1.062289408E9	1.050116096E9	0.0	0.0	0.08224999904632568	0.04699999839067459	0.04874999821186066	0.9917500019073486	0.7493236064910889	0.0	244.0	371.0	0.0	0.0	0.0	0.0	0.0	0.0	null	null	null	null	null	null	null	null	335.0	340.0	335.0	334.0	334.0	333.0	336.0	335.0	335.0	334.0	337.0	
Sun Jun 04 13:06:00 UTC 2017	0.0	1.048293376E9	2445.60009765625	0.0	2.5731072E7	0.0	2.0	9.383936E8	52.03998565673828	0.0	0.0	1.061277696E9	1.050116096E9	0.0	0.0	0.07575000077486038	0.051750000566244125	0.045249998569488525	0.9919999837875366	0.7492902874946594	0.0	244.0	371.0	0.0	0.0	0.0	0.0	0.0	0.0	null	null	null	null	null	null	null	null	332.0	334.0	334.0	338.0	339.0	334.0	334.0	335.0	335.0	334.0	335.0	
Sun Jun 04 13:05:00 UTC 2017	0.0	1.048293376E9	2886.25	0.0	2.5731072E7	0.0	2.0	9.38483712E8	58.09798049926758	0.0	0.0	1.062289408E9	1.050116096E9	0.0	0.0	0.07124999910593033	0.04975000023841858	0.05000000074505806	0.9919999837875366	0.7492913007736206	0.0	244.0	371.0	0.0	0.0	0.0	0.0	0.0	0.0	null	null	null	null	null	null	null	null	339.0	335.0	337.0	332.0	335.0	331.0	339.0	339.0	334.0	340.0	330.0	
Sun Jun 04 13:04:00 UTC 2017	0.0	1.048293376E9	2830.25390625	0.0	2.5731072E7	0.0	2.0	9.383936E8	39.16490936279297	0.0	0.0	1.062289408E9	1.050116096E9	0.0	0.0	0.07199999690055847	0.05324999988079071	0.04500000178813934	0.9919999837875366	0.7492257356643677	0.0	244.0	371.0	0.0	0.0	0.0	0.0	0.0	0.0	null	null	null	null	null	null	null	null	331.0	335.0	332.0	334.0	338.0	334.0	332.0	335.0	333.0	336.0	335.0	
Sun Jun 04 13:03:00 UTC 2017	0.0	1.047281664E9	2830.25390625	0.0	2.5731072E7	0.0	2.0	9.383936E8	34.77446365356445	0.0	0.0	1.061277696E9	1.050116096E9	0.0	0.0	0.07474999874830246	0.04800000041723251	0.05225000157952309	0.9917500019073486	0.7492066621780396	0.0	244.0	371.0	0.0	0.0	0.0	0.0	0.0	0.0	null	null	null	null	null	null	null	null	338.0	332.0	333.0	337.0	336.0	333.0	335.0	332.0	338.0	332.0	335.0	
Sun Jun 04 13:02:00 UTC 2017	1.0	1.047281664E9	2493.7490234375	0.0	2.5731072E7	0.0	3.0	9.383936E8	34.77446365356445	0.0	0.0	1.061277696E9	1.050116096E9	0.0	null	0.08275000005960464	0.052000001072883606	0.04625000059604645	0.9919999837875366	0.7492125034332275	0.0	244.0	371.0	0.0	0.0	0.0	0.0	0.0	0.0	null	null	null	null	null	null	null	null	334.0	339.0	334.0	337.0	332.0	337.0	336.0	337.0	332.0	335.0	339.0	
Sun Jun 04 13:01:00 UTC 2017	0.0	1.047281664E9	2597.251220703125	0.0	2.5731072E7	0.0	3.0	9.38184704E8	34.77446365356445	0.0	0.0	1.061277696E9	1.050116096E9	0.0	0.0	0.09875000268220901	0.04874999821186066	0.05000000074505806	0.9919999837875366	0.7491958737373352	0.0	244.0	371.0	0.0	0.0	0.0	0.0	0.0	0.0	null	null	null	null	null	null	null	null	332.0	333.0	334.0	336.0	338.0	337.0	338.0	334.0	335.0	334.0	333.0	
Sun Jun 04 13:00:00 UTC 2017	0.0	1.048293376E9	2597.251220703125	0.0	2.5731072E7	0.0	2.0	9.38274816E8	47.8546028137207	0.0	0.0	1.062289408E9	1.050116096E9	0.0	0.0	0.06700000166893005	0.0560000017285347	0.04324999824166298	0.9919999837875366	0.7510854601860046	0.0	244.0	371.0	0.0	0.0	0.0	0.0	0.0	0.0	null	null	null	null	null	null	null	null	337.0	332.0	336.0	333.0	338.0	334.0	334.0	332.0	333.0	339.0	334.0	
Sun Jun 04 12:59:00 UTC 2017	0.0	1.048293376E9	2892.841064453125	0.0	2.5731072E7	0.0	2.0	9.38184704E8	47.8546028137207	0.0	0.0	1.061277696E9	1.050116096E9	0.0	0.0	0.07724999636411667	0.045499999076128006	0.050999999046325684	0.9917500019073486	0.7491455078125	0.0	244.0	371.0	0.0	0.0	0.0	0.0	0.0	0.0	null	null	null	null	null	null	null	null	333.0	334.0	334.0	337.0	333.0	334.0	334.0	333.0	332.0	335.0	335.0	
Sun Jun 04 12:58:00 UTC 2017	0.0	1.048293376E9	3181.415771484375	0.0	2.5731072E7	0.0	2.0	9.38184704E8	47.8546028137207	0.0	0.0	1.061277696E9	1.050116096E9	0.0	0.0	0.08275000005960464	0.05350000038743019	0.04749999940395355	0.9915000200271606	0.7491132020950317	0.0	244.0	371.0	0.0	0.0	0.0	0.0	0.0	0.0	null	null	null	null	null	null	null	null	336.0	335.0	336.0	334.0	332.0	333.0	337.0	337.0	336.0	333.0	334.0	
Sun Jun 04 12:57:00 UTC 2017	0.0	1.048293376E9	2840.459228515625	0.0	2.5731072E7	0.0	3.0	9.38184704E8	47.91063690185547	0.0	0.0	1.062289408E9	1.050116096E9	0.0	0.0	0.06449999660253525	0.04724999889731407	0.04125000163912773	0.9915000200271606	0.7513794898986816	0.0	244.0	371.0	0.0	0.0	0.0	0.0	0.0	0.0	null	null	null	null	null	null	null	null	336.0	336.0	333.0	331.0	335.0	336.0	335.0	335.0	330.0	333.0	332.0	
Sun Jun 04 12:56:00 UTC 2017	0.0	1.047281664E9	2840.459228515625	0.0	2.5731072E7	0.0	2.0	9.38061824E8	45.280574798583984	0.0	0.0	1.061277696E9	1.050116096E9	0.0	0.0	0.07774999737739563	0.054249998182058334	0.05025000125169754	0.9919999837875366	0.7490965723991394	0.0	244.0	371.0	0.0	0.0	0.0	0.0	0.0	0.0	null	null	null	null	null	null	null	null	337.0	333.0	334.0	337.0	337.0	332.0	332.0	335.0	336.0	335.0	335.0	
Sun Jun 04 12:55:00 UTC 2017	0.0	1.048293376E9	2840.459228515625	0.0	2.5731072E7	0.0	2.0	9.38061824E8	45.280574798583984	0.0	0.0	1.062289408E9	1.050116096E9	0.0	0.0	0.07625000178813934	0.04650000110268593	0.04450000077486038	0.9915000200271606	0.7514166831970215	0.0	244.0	371.0	0.0	0.0	0.0	0.0	0.0	0.0	null	null	null	null	null	null	null	null	332.0	335.0	337.0	332.0	334.0	335.0	334.0	331.0	331.0	335.0	332.0	
Sun Jun 04 12:54:00 UTC 2017	0.0	1.047281664E9	2840.459228515625	0.0	2.5731072E7	0.0	2.0	9.37971712E8	52.952537536621094	0.0	0.0	1.062289408E9	1.050116096E9	0.0	null	0.0794999971985817	0.0507499985396862	0.04699999839067459	0.9917500019073486	0.7490578889846802	0.0	244.0	371.0	0.0	0.0	0.0	0.0	0.0	0.0	null	null	null	null	null	null	null	null	334.0	334.0	332.0	337.0	337.0	335.0	331.0	334.0	332.0	332.0	336.0	
Sun Jun 04 12:53:00 UTC 2017	0.0	1.048293376E9	2840.459228515625	0.0	2.5731072E7	0.0	2.0	9.37971712E8	49.92936325073242	0.0	0.0	1.062289408E9	1.050116096E9	0.0	0.0	0.06975000351667404	0.051750000566244125	0.04774999991059303	0.9917500019073486	0.7499635219573975	0.0	244.0	371.0	0.0	0.0	0.0	0.0	0.0	0.0	null	null	null	null	null	null	null	null	335.0	332.0	335.0	335.0	331.0	337.0	333.0	334.0	337.0	336.0	335.0	
Sun Jun 04 12:52:00 UTC 2017	0.0	1.047281664E9	2840.459228515625	0.0	2.5731072E7	0.0	3.0	9.37971712E8	49.92936325073242	0.0	0.0	1.062289408E9	1.050116096E9	0.0	0.0	0.07400000095367432	0.05050000175833702	0.04650000110268593	0.9919999837875366	0.7490564584732056	0.0	244.0	371.0	0.0	0.0	0.0	0.0	0.0	0.0	null	null	null	null	null	null	null	null	331.0	334.0	338.0	335.0	337.0	336.0	334.0	335.0	332.0	335.0	333.0	
Sun Jun 04 12:51:00 UTC 2017	0.0	1.048293376E9	2840.459228515625	0.0	2.5731072E7	0.0	5.0	9.3775872E8	41.6063117980957	0.0	0.0	1.062289408E9	1.050116096E9	0.0	0.0	0.11124999821186066	0.051249999552965164	0.04699999839067459	0.9919999837875366	0.7513129711151123	0.0	244.0	371.0	0.0	0.0	0.0	0.0	0.0	0.0	null	null	null	null	null	null	null	null	337.0	337.0	334.0	337.0	336.0	335.0	336.0	338.0	338.0	337.0	338.0	
Sun Jun 04 12:50:00 UTC 2017	0.0	1.047281664E9	2840.459228515625	0.0	2.5731072E7	0.0	4.0	9.37848832E8	56.634986877441406	0.0	0.0	1.062289408E9	1.050116096E9	0.0	0.0	0.07100000232458115	0.05400000140070915	0.051750000566244125	0.9922500252723694	0.7513110041618347	0.0	244.0	371.0	0.0	0.0	0.0	0.0	0.0	0.0	null	null	null	null	null	null	null	null	334.0	332.0	337.0	334.0	333.0	335.0	336.0	335.0	335.0	334.0	331.0	
Sun Jun 04 12:49:00 UTC 2017	0.0	1.047281664E9	2956.31982421875	0.0	2.5731072E7	0.0	4.0	9.3775872E8	56.634986877441406	0.0	0.0	1.062289408E9	1.050116096E9	0.0	0.0	0.08100000023841858	0.04899999871850014	0.04774999991059303	0.9919999837875366	0.7489933371543884	0.0	244.0	371.0	0.0	0.0	0.0	0.0	0.0	0.0	null	null	null	null	null	null	null	null	335.0	335.0	332.0	333.0	338.0	333.0	333.0	331.0	333.0	338.0	334.0	
Sun Jun 04 12:48:00 UTC 2017	0.0	1.047281664E9	2372.7314453125	0.0	2.5731072E7	0.0	4.0	9.3775872E8	44.293182373046875	1.0	0.0	1.061277696E9	1.050116096E9	0.0	0.0	0.061250001192092896	0.051500000059604645	0.04924999922513962	0.9922500252723694	0.7489776611328125	0.0	244.0	371.0	0.0	0.0	0.0	0.0	0.0	0.0	null	null	null	null	null	null	null	null	332.0	335.0	339.0	333.0	334.0	333.0	338.0	337.0	334.0	334.0	337.0	
Sun Jun 04 12:47:00 UTC 2017	0.0	1.047281664E9	2865.44189453125	0.0	2.5731072E7	0.0	3.0	9.3775872E8	44.293182373046875	0.0	0.0	1.062289408E9	1.050116096E9	0.0	0.0	0.07724999636411667	0.054749999195337296	0.04650000110268593	0.9919999837875366	0.7489752173423767	0.0	244.0	371.0	0.0	0.0	0.0	0.0	0.0	0.0	null	null	null	null	null	null	null	null	335.0	335.0	334.0	337.0	340.0	335.0	334.0	336.0	336.0	336.0	333.0	
Sun Jun 04 12:46:00 UTC 2017	0.0	1.048293376E9	2865.44189453125	0.0	2.5731072E7	0.0	6.0	9.3763584E8	44.293182373046875	0.0	0.0	1.062289408E9	1.050116096E9	0.0	0.0	0.08174999803304672	0.04975000023841858	0.04675000160932541	0.9919999837875366	0.7489267587661743	0.0	244.0	371.0	0.0	0.0	0.0	0.0	0.0	0.0	null	null	null	null	null	null	null	null	334.0	335.0	338.0	337.0	334.0	332.0	335.0	333.0	332.0	336.0	334.0	
Sun Jun 04 12:45:00 UTC 2017	0.0	1.047281664E9	2865.44189453125	0.0	2.5731072E7	0.0	2.0	9.3763584E8	32.63420104980469	0.0	0.0	1.062289408E9	1.050116096E9	0.0	null	0.07225000113248825	0.05000000074505806	0.051249999552965164	0.9917500019073486	0.7488157153129578	0.0	244.0	371.0	0.0	0.0	0.0	0.0	0.0	0.0	null	null	null	null	null	null	null	null	333.0	335.0	336.0	331.0	339.0	333.0	336.0	336.0	334.0	334.0	335.0	
Sun Jun 04 12:44:00 UTC 2017	0.0	1.047281664E9	2722.063720703125	0.0	2.5731072E7	0.0	2.0	9.37545728E8	84.81917572021484	0.0	0.0	1.061277696E9	1.050116096E9	0.0	null	0.07199999690055847	0.05350000038743019	0.045499999076128006	0.9919999837875366	0.7511118650436401	0.0	244.0	371.0	0.0	0.0	0.0	0.0	0.0	0.0	null	null	null	null	null	null	null	null	337.0	334.0	333.0	337.0	335.0	333.0	335.0	333.0	335.0	334.0	332.0	
Sun Jun 04 12:43:00 UTC 2017	0.0	1.047281664E9	2116.704833984375	0.0	2.5731072E7	0.0	4.0	9.37545728E8	84.81917572021484	0.0	0.0	1.061277696E9	1.050116096E9	0.0	0.0	0.08100000023841858	0.04475000128149986	0.04600000008940697	0.9922500252723694	0.7488484978675842	0.0	244.0	371.0	0.0	0.0	0.0	0.0	0.0	0.0	null	null	null	null	null	null	null	null	335.0	334.0	336.0	333.0	332.0	333.0	336.0	335.0	338.0	333.0	333.0	
Sun Jun 04 12:42:00 UTC 2017	0.0	1.047281664E9	2903.038330078125	0.0	2.5731072E7	0.0	3.0	9.37545728E8	52.041744232177734	0.0	0.0	1.061277696E9	1.050116096E9	0.0	0.0	0.06825000047683716	0.04975000023841858	0.04874999821186066	0.9919999837875366	0.7487677931785583	0.0	244.0	371.0	0.0	0.0	0.0	0.0	0.0	0.0	null	null	null	null	null	null	null	null	337.0	334.0	335.0	338.0	336.0	331.0	339.0	337.0	334.0	337.0	335.0	
Sun Jun 04 12:41:00 UTC 2017	0.0	1.048293376E9	2903.038330078125	0.0	2.5731072E7	0.0	4.0	9.37422848E8	52.041744232177734	0.0	0.0	1.061277696E9	1.050116096E9	0.0	0.0	0.10249999910593033	0.05350000038743019	0.0507499985396862	0.9917500019073486	0.751058042049408	0.0	244.0	371.0	0.0	0.0	0.0	0.0	0.0	0.0	null	null	null	null	null	null	null	null	334.0	332.0	336.0	331.0	339.0	334.0	335.0	337.0	332.0	336.0	337.0	
Sun Jun 04 12:40:00 UTC 2017	0.0	1.047281664E9	2903.038330078125	0.0	2.5731072E7	0.0	3.0	9.37422848E8	52.041744232177734	0.0	0.0	1.062289408E9	1.050116096E9	0.0	0.0	0.07050000131130219	0.052000001072883606	0.045499999076128006	0.9922500252723694	0.7510414123535156	0.0	244.0	371.0	0.0	0.0	0.0	0.0	0.0	0.0	null	null	null	null	null	null	null	null	336.0	335.0	332.0	340.0	332.0	335.0	334.0	333.0	333.0	334.0	333.0	
Sun Jun 04 12:39:00 UTC 2017	0.0	1.048293376E9	2903.038330078125	0.0	2.5731072E7	0.0	3.0	9.37332736E8	52.041744232177734	0.0	0.0	1.061277696E9	1.050116096E9	0.0	0.0	0.08375000208616257	0.04899999871850014	0.05274999886751175	0.9919999837875366	0.7487487196922302	0.0	244.0	371.0	0.0	0.0	0.0	0.0	0.0	0.0	null	null	null	null	null	null	null	null	335.0	334.0	338.0	335.0	334.0	337.0	336.0	335.0	334.0	335.0	336.0	
Sun Jun 04 12:38:00 UTC 2017	0.0	1.048293376E9	2558.904052734375	0.0	2.5731072E7	0.0	2.0	9.37332736E8	52.041744232177734	1.0	2.0	1.062289408E9	1.050116096E9	0.0	0.0	0.06800000369548798	0.05324999988079071	0.04349999874830246	0.9919999837875366	0.7487339973449707	0.0	244.0	371.0	0.0	0.0	0.0	0.0	0.0	0.0	null	null	null	null	null	null	null	null	336.0	333.0	340.0	333.0	336.0	334.0	338.0	337.0	337.0	329.0	334.0	
Sun Jun 04 12:37:00 UTC 2017	0.0	1.048293376E9	3470.2109375	0.0	2.5731072E7	0.0	3.0	9.37332736E8	52.041744232177734	1.0	1.0	1.062289408E9	1.050116096E9	0.0	0.0	0.08375000208616257	0.05950000137090683	0.05050000175833702	0.9919999837875366	0.7487095594406128	0.0	244.0	371.0	0.0	0.0	0.0	0.0	0.0	0.0	null	null	null	null	null	null	null	null	335.0	335.0	337.0	337.0	336.0	334.0	333.0	334.0	332.0	336.0	334.0	
Sun Jun 04 12:36:00 UTC 2017	0.0	1.048293376E9	1909.725341796875	0.0	2.5731072E7	0.0	4.0	9.37119744E8	52.041744232177734	0.0	0.0	1.061277696E9	1.050116096E9	0.0	0.0	0.06599999964237213	0.04625000059604645	0.0442500002682209	0.9919999837875366	0.748707115650177	0.0	244.0	371.0	0.0	0.0	0.0	0.0	0.0	0.0	null	null	null	null	null	null	null	null	333.0	335.0	335.0	338.0	335.0	333.0	336.0	335.0	336.0	332.0	336.0	
Sun Jun 04 12:35:00 UTC 2017	0.0	1.047281664E9	1909.725341796875	0.0	2.5731072E7	0.0	2.0	9.37209856E8	70.55111694335938	0.0	0.0	1.061277696E9	1.050116096E9	0.0	0.0	0.0820000022649765	0.05274999886751175	0.04975000023841858	0.9917500019073486	0.7487213015556335	0.0	244.0	371.0	0.0	0.0	0.0	0.0	0.0	0.0	null	null	null	null	null	null	null	null	338.0	334.0	341.0	333.0	332.0	338.0	336.0	333.0	335.0	335.0	338.0	
Sun Jun 04 12:34:00 UTC 2017	0.0	1.047281664E9	2470.57275390625	0.0	2.5731072E7	0.0	2.0	9.37119744E8	54.79221725463867	0.0	0.0	1.061277696E9	1.050116096E9	0.0	null	0.07050000131130219	0.050999999046325684	0.045499999076128006	0.9922500252723694	0.7509773373603821	0.0	244.0	371.0	0.0	0.0	0.0	0.0	0.0	0.0	null	null	null	null	null	null	null	null	334.0	337.0	338.0	334.0	331.0	334.0	336.0	337.0	334.0	338.0	334.0	
Sun Jun 04 12:33:00 UTC 2017	0.0	1.048293376E9	2470.57275390625	0.0	2.5731072E7	0.0	5.0	9.37119744E8	41.759521484375	0.0	0.0	1.062289408E9	1.050116096E9	0.0	null	0.07850000262260437	0.051500000059604645	0.051500000059604645	0.9922500252723694	0.7509660720825195	0.0	244.0	371.0	0.0	0.0	0.0	0.0	0.0	0.0	null	null	null	null	null	null	null	null	335.0	332.0	337.0	337.0	338.0	336.0	338.0	337.0	333.0	334.0	338.0	
Sun Jun 04 12:32:00 UTC 2017	0.0	1.047281664E9	2470.57275390625	0.0	2.5731072E7	0.0	3.0	9.37119744E8	47.33168029785156	0.0	0.0	1.061277696E9	1.050116096E9	0.0	null	0.07275000214576721	0.045249998569488525	0.04625000059604645	0.9922500252723694	0.7486728429794312	0.0	244.0	371.0	0.0	0.0	0.0	0.0	0.0	0.0	null	null	null	null	null	null	null	null	336.0	335.0	336.0	334.0	333.0	335.0	335.0	333.0	337.0	335.0	334.0	
Sun Jun 04 12:31:00 UTC 2017	0.0	1.048293376E9	2470.57275390625	0.0	2.5731072E7	0.0	4.0	9.36910848E8	47.33168029785156	0.0	0.0	1.062289408E9	1.050116096E9	0.0	null	0.09775000065565109	0.051249999552965164	0.048500001430511475	0.9919999837875366	0.750942587852478	0.0	244.0	371.0	0.0	0.0	0.0	0.0	0.0	0.0	null	null	null	null	null	null	null	null	336.0	336.0	333.0	336.0	338.0	335.0	331.0	338.0	336.0	339.0	333.0	
Sun Jun 04 12:30:00 UTC 2017	0.0	1.047281664E9	2470.57275390625	0.0	2.5731072E7	0.0	3.0	9.3700096E8	47.33168029785156	0.0	0.0	1.061277696E9	1.050116096E9	0.0	null	0.07474999874830246	0.054249998182058334	0.04574999958276749	0.9919999837875366	0.7486391067504883	0.0	244.0	371.0	0.0	0.0	0.0	0.0	0.0	0.0	null	null	null	null	null	null	null	null	333.0	338.0	337.0	336.0	334.0	335.0	334.0	334.0	334.0	334.0	336.0	
Sun Jun 04 12:29:00 UTC 2017	0.0	1.047281664E9	2998.933837890625	0.0	2.5731072E7	0.0	2.0	9.36910848E8	47.33168029785156	0.0	0.0	1.062289408E9	1.050116096E9	0.0	null	0.07100000232458115	0.042500000447034836	0.05025000125169754	0.9917500019073486	0.7485241293907166	0.0	244.0	371.0	0.0	0.0	0.0	0.0	0.0	0.0	null	null	null	null	null	null	null	null	337.0	334.0	334.0	336.0	338.0	333.0	332.0	333.0	334.0	336.0	335.0	
Sun Jun 04 12:28:00 UTC 2017	0.0	1.047281664E9	2368.41552734375	0.0	2.5731072E7	0.0	2.0	9.36910848E8	47.33168029785156	0.0	0.0	1.062289408E9	1.050116096E9	0.0	0.0	0.0742499977350235	0.05375000089406967	0.04675000160932541	0.9922500252723694	0.7485084533691406	0.0	244.0	371.0	0.0	0.0	0.0	0.0	0.0	0.0	null	null	null	null	null	null	null	null	334.0	332.0	335.0	335.0	334.0	337.0	335.0	331.0	333.0	333.0	333.0	
Sun Jun 04 12:27:00 UTC 2017	0.0	1.048293376E9	2368.41552734375	0.0	2.5731072E7	0.0	2.0	9.36910848E8	58.51683044433594	0.0	0.0	1.062289408E9	1.050116096E9	0.0	null	0.07124999910593033	0.052000001072883606	0.045499999076128006	0.9925000071525574	0.7484903335571289	0.0	244.0	371.0	0.0	0.0	0.0	0.0	0.0	0.0	null	null	null	null	null	null	null	null	337.0	337.0	336.0	335.0	333.0	334.0	336.0	336.0	336.0	335.0	335.0	
Sun Jun 04 12:26:00 UTC 2017	0.0	1.047281664E9	2368.41552734375	0.0	2.5731072E7	0.0	2.0	9.36787968E8	41.778541564941406	0.0	0.0	1.061277696E9	1.050116096E9	0.0	null	0.07074999809265137	0.045499999076128006	0.0507499985396862	0.9922500252723694	0.7494679093360901	0.0	244.0	371.0	0.0	0.0	0.0	0.0	0.0	0.0	null	null	null	null	null	null	null	null	334.0	335.0	336.0	336.0	339.0	337.0	333.0	334.0	337.0	336.0	334.0	
Sun Jun 04 12:25:00 UTC 2017	0.0	1.047281664E9	3314.21435546875	0.0	2.5731072E7	0.0	4.0	9.36787968E8	41.778541564941406	0.0	0.0	1.062289408E9	1.050116096E9	0.0	null	0.0832500010728836	0.051500000059604645	0.04800000041723251	0.9922500252723694	0.7484707832336426	0.0	244.0	371.0	0.0	0.0	0.0	0.0	0.0	0.0	null	null	null	null	null	null	null	null	337.0	335.0	335.0	337.0	331.0	335.0	335.0	335.0	335.0	336.0	333.0	
Sun Jun 04 12:24:00 UTC 2017	0.0	1.047281664E9	2580.09326171875	0.0	2.5731072E7	0.0	2.0	9.36697856E8	58.53775405883789	0.0	0.0	1.062289408E9	1.050116096E9	0.0	0.0	0.0754999965429306	0.04924999922513962	0.04699999839067459	0.9919999837875366	0.7484546303749084	0.0	244.0	371.0	0.0	0.0	0.0	0.0	0.0	0.0	null	null	null	null	null	null	null	null	335.0	332.0	336.0	333.0	337.0	335.0	331.0	336.0	332.0	335.0	338.0	
Sun Jun 04 12:23:00 UTC 2017	0.0	1.048293376E9	2580.09326171875	0.0	2.5731072E7	0.0	2.0	9.36697856E8	58.53775405883789	0.0	0.0	1.062289408E9	1.050116096E9	0.0	0.0	0.07649999856948853	0.051500000059604645	0.04975000023841858	0.9919999837875366	0.7484198808670044	0.0	244.0	371.0	0.0	0.0	0.0	0.0	0.0	0.0	null	null	null	null	null	null	null	null	334.0	335.0	337.0	335.0	330.0	332.0	334.0	334.0	334.0	333.0	335.0	
Sun Jun 04 12:22:00 UTC 2017	0.0	1.048293376E9	2856.77197265625	0.0	2.5731072E7	0.0	2.0	9.36697856E8	58.53775405883789	0.0	0.0	1.061277696E9	1.050116096E9	0.0	0.0	0.06199999898672104	0.05350000038743019	0.04699999839067459	0.9919999837875366	0.7483797669410706	0.0	244.0	371.0	0.0	0.0	0.0	0.0	0.0	0.0	null	null	null	null	null	null	null	null	334.0	334.0	335.0	333.0	334.0	337.0	334.0	335.0	333.0	332.0	334.0	
Sun Jun 04 12:21:00 UTC 2017	0.0	1.048293376E9	2911.979736328125	0.0	2.5731072E7	0.0	2.0	9.36484864E8	40.549381256103516	0.0	0.0	1.061277696E9	1.050116096E9	0.0	null	0.10525000095367432	0.04450000077486038	0.0430000014603138	0.9917500019073486	0.7483660578727722	0.0	244.0	371.0	0.0	0.0	0.0	0.0	0.0	0.0	null	null	null	null	null	null	null	null	334.0	333.0	331.0	336.0	336.0	333.0	338.0	336.0	335.0	336.0	332.0	
Sun Jun 04 12:20:00 UTC 2017	0.0	1.047281664E9	2911.979736328125	0.0	2.5731072E7	0.0	2.0	9.36574976E8	40.549381256103516	0.0	0.0	1.061277696E9	1.050116096E9	0.0	null	0.0794999971985817	0.04899999871850014	0.051750000566244125	0.9917500019073486	0.7483714818954468	0.0	244.0	371.0	0.0	0.0	0.0	0.0	0.0	0.0	null	null	null	null	null	null	null	null	338.0	331.0	334.0	332.0	336.0	334.0	334.0	339.0	336.0	334.0	336.0	
Sun Jun 04 12:19:00 UTC 2017	0.0	1.047281664E9	3007.83447265625	0.0	2.5731072E7	0.0	2.0	9.36484864E8	55.97331237792969	0.0	0.0	1.061277696E9	1.050116096E9	0.0	null	0.07249999791383743	0.04975000023841858	0.048500001430511475	0.9919999837875366	0.7483474612236023	0.0	244.0	371.0	0.0	0.0	0.0	0.0	0.0	0.0	null	null	null	null	null	null	null	null	333.0	334.0	340.0	333.0	331.0	335.0	336.0	333.0	336.0	335.0	335.0	
Sun Jun 04 12:18:00 UTC 2017	0.0	1.047281664E9	2745.654052734375	0.0	2.5731072E7	0.0	4.0	9.36484864E8	48.648704528808594	0.0	0.0	1.061277696E9	1.050116096E9	0.0	0.0	0.07625000178813934	0.05400000140070915	0.04625000059604645	0.9919999837875366	0.7483327984809875	0.0	244.0	371.0	0.0	0.0	0.0	0.0	0.0	0.0	null	null	null	null	null	null	null	null	335.0	334.0	334.0	337.0	335.0	334.0	334.0	335.0	335.0	335.0	331.0	
Sun Jun 04 12:17:00 UTC 2017	0.0	1.047281664E9	2828.534423828125	0.0	2.5731072E7	0.0	2.0	9.36484864E8	48.648704528808594	0.0	0.0	1.062289408E9	1.050116096E9	0.0	0.0	0.06975000351667404	0.05249999836087227	0.0507499985396862	0.9917500019073486	0.7483097910881042	0.0	244.0	371.0	0.0	0.0	0.0	0.0	0.0	0.0	null	null	null	null	null	null	null	null	336.0	337.0	337.0	331.0	335.0	337.0	335.0	334.0	336.0	334.0	335.0	
Sun Jun 04 12:16:00 UTC 2017	0.0	1.047281664E9	2449.56689453125	0.0	2.5731072E7	0.0	4.0	9.36271872E8	48.648704528808594	0.0	0.0	1.061277696E9	1.050116096E9	0.0	0.0	0.08224999904632568	0.04500000178813934	0.04600000008940697	0.9917500019073486	0.7482902407646179	0.0	244.0	371.0	0.0	0.0	0.0	0.0	0.0	0.0	null	null	null	null	null	null	null	null	332.0	334.0	335.0	339.0	333.0	333.0	332.0	334.0	336.0	337.0	334.0	
Sun Jun 04 12:15:00 UTC 2017	0.0	1.048293376E9	2449.56689453125	0.0	2.5731072E7	0.0	2.0	9.36361984E8	48.648704528808594	0.0	0.0	1.062289408E9	1.050116096E9	0.0	0.0	0.06825000047683716	0.04975000023841858	0.0494999997317791	0.9922500252723694	0.7482731342315674	0.0	244.0	371.0	0.0	0.0	0.0	0.0	0.0	0.0	null	null	null	null	null	null	null	null	337.0	335.0	336.0	335.0	333.0	335.0	334.0	336.0	336.0	334.0	332.0	
Sun Jun 04 12:14:00 UTC 2017	0.0	1.048293376E9	3011.2275390625	0.0	2.5731072E7	0.0	2.0	9.36271872E8	69.39209747314453	0.0	0.0	1.061277696E9	1.050116096E9	0.0	0.0	0.07500000298023224	0.051500000059604645	0.04625000059604645	0.9922500252723694	0.7501837015151978	0.0	244.0	371.0	0.0	0.0	0.0	0.0	0.0	0.0	null	null	null	null	null	null	null	null	335.0	333.0	337.0	330.0	333.0	334.0	336.0	335.0	335.0	335.0	334.0	
Sun Jun 04 12:13:00 UTC 2017	0.0	1.048293376E9	2829.3720703125	0.0	2.5731072E7	0.0	2.0	9.36271872E8	69.39209747314453	0.0	0.0	1.061277696E9	1.050116096E9	0.0	null	0.07599999755620956	0.04749999940395355	0.04374999925494194	0.9919999837875366	0.7482618689537048	0.0	244.0	371.0	0.0	0.0	0.0	0.0	0.0	0.0	null	null	null	null	null	null	null	null	333.0	336.0	334.0	339.0	335.0	335.0	334.0	336.0	337.0	335.0	335.0	
Sun Jun 04 12:12:00 UTC 2017	0.0	1.048293376E9	2925.5673828125	0.0	2.5731072E7	0.0	3.0	9.36271872E8	39.9494514465332	0.0	0.0	1.061277696E9	1.050116096E9	0.0	0.0	0.07175000011920929	0.0572500005364418	0.048250000923871994	0.9919999837875366	0.7482662796974182	0.0	244.0	371.0	0.0	0.0	0.0	0.0	0.0	0.0	null	null	null	null	null	null	null	null	339.0	335.0	337.0	336.0	337.0	339.0	332.0	332.0	334.0	333.0	332.0	
Sun Jun 04 12:11:00 UTC 2017	0.0	1.048293376E9	2447.982666015625	0.0	2.5731072E7	0.0	3.0	9.36062976E8	39.9494514465332	0.0	0.0	1.061277696E9	1.050116096E9	0.0	0.0	0.10724999755620956	0.04724999889731407	0.04975000023841858	0.9919999837875366	0.7482662796974182	0.0	244.0	371.0	0.0	0.0	0.0	0.0	0.0	0.0	null	null	null	null	null	null	null	null	329.0	335.0	337.0	331.0	335.0	335.0	337.0	336.0	338.0	334.0	337.0	
Sun Jun 04 12:10:00 UTC 2017	0.0	1.048293376E9	2838.140380859375	0.0	2.5731072E7	0.0	2.0	9.36210432E8	39.9494514465332	0.0	0.0	1.061277696E9	1.050116096E9	0.0	0.0	0.06925000250339508	0.050999999046325684	0.04749999940395355	0.9919999837875366	0.7505394220352173	0.0	244.0	371.0	0.0	0.0	0.0	0.0	0.0	0.0	null	null	null	null	null	null	null	null	339.0	333.0	337.0	334.0	333.0	333.0	336.0	336.0	334.0	333.0	330.0	
Sun Jun 04 12:09:00 UTC 2017	0.0	1.048293376E9	2336.530029296875	0.0	2.5731072E7	0.0	2.0	9.35907328E8	39.9494514465332	0.0	0.0	1.062289408E9	1.050116096E9	0.0	0.0	0.07150000333786011	0.04899999871850014	0.04574999958276749	0.9917500019073486	0.7482330203056335	0.0	244.0	371.0	0.0	0.0	0.0	0.0	0.0	0.0	null	null	null	null	null	null	null	null	331.0	335.0	336.0	335.0	333.0	331.0	329.0	336.0	334.0	336.0	335.0	
Sun Jun 04 12:08:00 UTC 2017	0.0	1.048293376E9	2972.009765625	0.0	2.5731072E7	0.0	2.0	9.35907328E8	39.9494514465332	0.0	0.0	1.062289408E9	1.050116096E9	0.0	0.0	0.0794999971985817	0.050999999046325684	0.052000001072883606	0.9919999837875366	0.7482324838638306	0.0	244.0	371.0	0.0	0.0	0.0	0.0	0.0	0.0	null	null	null	null	null	null	null	null	335.0	337.0	335.0	334.0	336.0	338.0	339.0	332.0	332.0	333.0	338.0	
Sun Jun 04 12:07:00 UTC 2017	0.0	1.048293376E9	2311.370849609375	0.0	2.5731072E7	0.0	2.0	9.35907328E8	41.12787628173828	0.0	0.0	1.061277696E9	1.050116096E9	0.0	0.0	0.07474999874830246	0.04724999889731407	0.04450000077486038	0.9917500019073486	0.7504904866218567	0.0	244.0	371.0	0.0	0.0	0.0	0.0	0.0	0.0	null	null	null	null	null	null	null	null	337.0	331.0	335.0	337.0	336.0	331.0	334.0	337.0	335.0	333.0	334.0	
Sun Jun 04 12:06:00 UTC 2017	0.0	1.047281664E9	2311.370849609375	0.0	2.5731072E7	0.0	2.0	9.35694336E8	44.95603942871094	0.0	0.0	1.062289408E9	1.050116096E9	0.0	0.0	0.08250000327825546	0.05324999988079071	0.04774999991059303	0.9919999837875366	0.7504763007164001	0.0	244.0	371.0	0.0	0.0	0.0	0.0	0.0	0.0	null	null	null	null	null	null	null	null	333.0	337.0	335.0	337.0	333.0	336.0	333.0	335.0	336.0	339.0	336.0	
Sun Jun 04 12:05:00 UTC 2017	0.0	1.048293376E9	2311.370849609375	0.0	2.5731072E7	0.0	2.0	9.35784448E8	44.95603942871094	0.0	0.0	1.062289408E9	1.050116096E9	0.0	0.0	0.07050000131130219	0.04675000160932541	0.05000000074505806	0.9919999837875366	0.7504704594612122	0.0	244.0	371.0	0.0	0.0	0.0	0.0	0.0	0.0	null	null	null	null	null	null	null	null	335.0	336.0	335.0	336.0	335.0	336.0	335.0	335.0	336.0	332.0	335.0	
Sun Jun 04 12:04:00 UTC 2017	0.0	1.047281664E9	2311.370849609375	0.0	2.5731072E7	0.0	10.0	9.35694336E8	47.106502532958984	0.0	0.0	1.061277696E9	1.050116096E9	0.0	0.0	0.07275000214576721	0.05575000122189522	0.04899999871850014	0.9922500252723694	0.7481772303581238	0.0	244.0	371.0	0.0	0.0	0.0	0.0	0.0	0.0	null	null	null	null	null	null	null	null	335.0	333.0	335.0	331.0	337.0	336.0	338.0	337.0	337.0	339.0	332.0	
Sun Jun 04 12:03:00 UTC 2017	0.0	1.047281664E9	2992.392578125	0.0	2.5731072E7	0.0	3.0	9.35694336E8	47.106502532958984	0.0	0.0	1.062289408E9	1.050116096E9	0.0	0.0	0.07175000011920929	0.04874999821186066	0.04774999991059303	0.9922500252723694	0.7481586337089539	0.0	244.0	371.0	0.0	0.0	0.0	0.0	0.0	0.0	null	null	null	null	null	null	null	null	334.0	334.0	334.0	336.0	331.0	335.0	332.0	332.0	333.0	333.0	339.0	
Sun Jun 04 12:02:00 UTC 2017	0.0	1.048293376E9	2992.392578125	0.0	2.5731072E7	0.0	2.0	9.35694336E8	52.73856735229492	0.0	0.0	1.062289408E9	1.050116096E9	0.0	null	0.08100000023841858	0.05525000020861626	0.048500001430511475	0.9922500252723694	0.7481424808502197	0.0	244.0	371.0	0.0	0.0	0.0	0.0	0.0	0.0	null	null	null	null	null	null	null	null	337.0	338.0	335.0	339.0	337.0	334.0	337.0	339.0	339.0	336.0	332.0	
Sun Jun 04 12:01:00 UTC 2017	0.0	1.048293376E9	2638.516845703125	0.0	2.5731072E7	0.0	5.0	9.35481344E8	52.73856735229492	0.0	0.0	1.061277696E9	1.050116096E9	0.0	null	0.08874999731779099	0.04475000128149986	0.04924999922513962	0.9919999837875366	0.7481390833854675	0.0	244.0	371.0	0.0	0.0	0.0	0.0	0.0	0.0	null	null	null	null	null	null	null	null	337.0	333.0	335.0	334.0	334.0	338.0	335.0	332.0	332.0	335.0	336.0	
Sun Jun 04 12:00:00 UTC 2017	0.0	1.047281664E9	2638.516845703125	0.0	2.5731072E7	0.0	2.0	9.35571456E8	43.47296142578125	0.0	0.0	1.062289408E9	1.050116096E9	0.0	null	0.08299999684095383	0.054499998688697815	0.04724999889731407	0.9922500252723694	0.7504127025604248	0.0	244.0	371.0	0.0	0.0	0.0	0.0	0.0	0.0	null	null	null	null	null	null	null	null	334.0	335.0	335.0	334.0	335.0	335.0	334.0	337.0	338.0	335.0	335.0	
Sun Jun 04 11:59:00 UTC 2017	0.0	1.048293376E9	2638.516845703125	0.0	2.5731072E7	0.0	4.0	9.35481344E8	67.30760192871094	0.0	0.0	1.062289408E9	1.050116096E9	0.0	0.0	0.07199999690055847	0.04874999821186066	0.0494999997317791	0.9922500252723694	0.7481048107147217	0.0	244.0	371.0	0.0	0.0	0.0	0.0	0.0	0.0	null	null	null	null	null	null	null	null	332.0	337.0	337.0	335.0	335.0	334.0	336.0	335.0	337.0	334.0	333.0	
Sun Jun 04 11:58:00 UTC 2017	0.0	1.048293376E9	2956.682861328125	0.0	2.5731072E7	0.0	2.0	9.35481344E8	67.30760192871094	0.0	0.0	1.062289408E9	1.050116096E9	0.0	null	0.07975000143051147	0.04749999940395355	0.04625000059604645	0.9922500252723694	0.748062252998352	0.0	244.0	371.0	0.0	0.0	0.0	0.0	0.0	0.0	null	null	null	null	null	null	null	null	336.0	334.0	337.0	334.0	336.0	332.0	333.0	337.0	336.0	336.0	338.0	
Sun Jun 04 11:57:00 UTC 2017	0.0	1.047281664E9	2956.682861328125	0.0	2.5731072E7	0.0	3.0	9.35481344E8	67.30760192871094	0.0	0.0	1.061277696E9	1.050116096E9	0.0	null	0.06449999660253525	0.05575000122189522	0.04774999991059303	0.9922500252723694	0.7503246068954468	0.0	244.0	371.0	0.0	0.0	0.0	0.0	0.0	0.0	null	null	null	null	null	null	null	null	336.0	332.0	333.0	339.0	335.0	335.0	334.0	335.0	335.0	335.0	332.0	
Sun Jun 04 11:56:00 UTC 2017	0.0	1.047281664E9	2671.585693359375	0.0	2.5731072E7	0.0	2.0	9.35268352E8	67.30760192871094	0.0	0.0	1.061277696E9	1.050116096E9	0.0	0.0	0.08474999666213989	0.04800000041723251	0.048500001430511475	0.9919999837875366	0.7498079538345337	0.0	244.0	371.0	0.0	0.0	0.0	0.0	0.0	0.0	null	null	null	null	null	null	null	null	330.0	335.0	333.0	332.0	335.0	336.0	334.0	331.0	333.0	335.0	334.0	
Sun Jun 04 11:55:00 UTC 2017	0.0	1.048293376E9	2671.585693359375	0.0	2.5731072E7	0.0	2.0	9.35358464E8	42.220787048339844	0.0	0.0	1.061277696E9	1.050116096E9	0.0	0.0	0.06449999660253525	0.05249999836087227	0.04450000077486038	0.9919999837875366	0.7480148077011108	0.0	244.0	371.0	0.0	0.0	0.0	0.0	0.0	0.0	null	null	null	null	null	null	null	null	337.0	332.0	338.0	335.0	332.0	334.0	335.0	335.0	337.0	333.0	337.0	
Sun Jun 04 11:54:00 UTC 2017	0.0	1.047281664E9	2671.585693359375	0.0	2.5731072E7	0.0	2.0	9.35268352E8	49.424072265625	1.0	1.0	1.061277696E9	1.050116096E9	0.0	0.0	0.08299999684095383	0.05375000089406967	0.04975000023841858	0.9925000071525574	0.7479976415634155	0.0	244.0	371.0	0.0	0.0	0.0	0.0	0.0	0.0	null	null	null	null	null	null	null	null	337.0	335.0	336.0	334.0	337.0	333.0	338.0	334.0	333.0	332.0	334.0	
Sun Jun 04 11:53:00 UTC 2017	0.0	1.047281664E9	2988.09619140625	0.0	2.5731072E7	0.0	4.0	9.35268352E8	54.995853424072266	1.0	1.0	1.062289408E9	1.050116096E9	0.0	0.0	0.0767500028014183	0.057500001043081284	0.04924999922513962	0.9919999837875366	0.7485877275466919	0.0	244.0	371.0	0.0	0.0	0.0	0.0	0.0	0.0	null	null	null	null	null	null	null	null	336.0	334.0	336.0	334.0	336.0	335.0	330.0	335.0	335.0	335.0	336.0	
Sun Jun 04 11:52:00 UTC 2017	0.0	1.047281664E9	2537.168212890625	0.0	2.5731072E7	0.0	4.0	9.35268352E8	54.995853424072266	0.0	0.0	1.061277696E9	1.050116096E9	0.0	0.0	0.07249999791383743	0.048500001430511475	0.04800000041723251	0.9919999837875366	0.7479810118675232	0.0	244.0	371.0	0.0	0.0	0.0	0.0	0.0	0.0	null	null	null	null	null	null	null	null	333.0	336.0	337.0	334.0	337.0	333.0	336.0	336.0	335.0	333.0	334.0	
Sun Jun 04 11:51:00 UTC 2017	0.0	1.048293376E9	2537.168212890625	0.0	2.5731072E7	0.0	2.0	9.3505536E8	54.995853424072266	1.0	1.0	1.061277696E9	1.050116096E9	0.0	0.0	0.10000000149011612	0.05299999937415123	0.0430000014603138	0.9922500252723694	0.7479643821716309	0.0	244.0	371.0	0.0	0.0	0.0	0.0	0.0	0.0	null	null	null	null	null	null	null	null	336.0	335.0	335.0	335.0	337.0	336.0	337.0	333.0	338.0	330.0	335.0	
Sun Jun 04 11:50:00 UTC 2017	0.0	1.047281664E9	2537.168212890625	0.0	2.5731072E7	0.0	2.0	9.35145472E8	54.995853424072266	0.0	0.0	1.062289408E9	1.050116096E9	0.0	0.0	0.07000000029802322	0.05550000071525574	0.05000000074505806	0.9922500252723694	0.748015284538269	0.0	244.0	371.0	0.0	0.0	0.0	0.0	0.0	0.0	null	null	null	null	null	null	null	null	336.0	336.0	333.0	336.0	335.0	332.0	337.0	335.0	335.0	337.0	335.0	
Sun Jun 04 11:49:00 UTC 2017	0.0	1.047281664E9	3481.713623046875	0.0	2.5731072E7	0.0	3.0	9.3505536E8	36.2940788269043	0.0	0.0	1.061277696E9	1.050116096E9	0.0	0.0	0.07249999791383743	0.04699999839067459	0.048250000923871994	0.9919999837875366	0.7479423880577087	0.0	244.0	371.0	0.0	0.0	0.0	0.0	0.0	0.0	null	null	null	null	null	null	null	null	337.0	332.0	335.0	335.0	333.0	336.0	332.0	335.0	333.0	331.0	335.0	
Sun Jun 04 11:48:00 UTC 2017	0.0	1.047281664E9	2209.7890625	0.0	2.5731072E7	0.0	2.0	9.3505536E8	38.97600555419922	0.0	0.0	1.061277696E9	1.050116096E9	0.0	0.0	0.08449999988079071	0.05525000020861626	0.04724999889731407	0.9922500252723694	0.7479252219200134	0.0	244.0	371.0	0.0	0.0	0.0	0.0	0.0	0.0	null	null	null	null	null	null	null	null	336.0	336.0	333.0	338.0	334.0	333.0	334.0	335.0	335.0	338.0	334.0	
Sun Jun 04 11:47:00 UTC 2017	0.0	1.047281664E9	2446.172607421875	0.0	2.5731072E7	0.0	3.0	9.3505536E8	38.97600555419922	0.0	0.0	1.061277696E9	1.050116096E9	0.0	0.0	0.07124999910593033	0.04475000128149986	0.051249999552965164	0.9919999837875366	0.747921347618103	0.0	244.0	371.0	0.0	0.0	0.0	0.0	0.0	0.0	null	null	null	null	null	null	null	null	334.0	335.0	333.0	333.0	334.0	337.0	336.0	338.0	336.0	337.0	335.0	
Sun Jun 04 11:46:00 UTC 2017	0.0	1.047281664E9	3073.166015625	0.0	2.5731072E7	0.0	2.0	9.34842368E8	38.97600555419922	0.0	0.0	1.061277696E9	1.050116096E9	0.0	null	0.07724999636411667	0.05400000140070915	0.048250000923871994	0.9919999837875366	0.7478944063186646	0.0	244.0	371.0	0.0	0.0	0.0	0.0	0.0	0.0	null	null	null	null	null	null	null	null	335.0	335.0	336.0	334.0	335.0	334.0	332.0	334.0	336.0	334.0	336.0	
Sun Jun 04 11:45:00 UTC 2017	1.0	1.047281664E9	2626.418212890625	0.0	2.5731072E7	0.0	2.0	9.3493248E8	38.97600555419922	0.0	0.0	1.061277696E9	1.050116096E9	0.0	0.0	0.07100000232458115	0.04975000023841858	0.042750000953674316	0.9919999837875366	0.7478890419006348	0.0	244.0	371.0	0.0	0.0	0.0	0.0	0.0	0.0	null	null	null	null	null	null	null	null	336.0	334.0	332.0	336.0	336.0	336.0	338.0	334.0	336.0	331.0	335.0	
Sun Jun 04 11:44:00 UTC 2017	0.0	1.047281664E9	2613.572021484375	0.0	2.5731072E7	0.0	3.0	9.34842368E8	38.97600555419922	0.0	0.0	1.062289408E9	1.050116096E9	0.0	0.0	0.08049999922513962	0.04874999821186066	0.051500000059604645	0.9917500019073486	0.7478739023208618	0.0	244.0	371.0	0.0	0.0	0.0	0.0	0.0	0.0	null	null	null	null	null	null	null	null	335.0	335.0	336.0	336.0	334.0	334.0	332.0	334.0	335.0	334.0	333.0	
Sun Jun 04 11:43:00 UTC 2017	0.0	1.048293376E9	2613.572021484375	0.0	2.5731072E7	0.0	2.0	9.34842368E8	37.45071792602539	0.0	0.0	1.062289408E9	1.050116096E9	0.0	0.0	0.06724999845027924	0.05050000175833702	0.04975000023841858	0.9922500252723694	0.747870922088623	0.0	244.0	371.0	0.0	0.0	0.0	0.0	0.0	0.0	null	null	null	null	null	null	null	null	336.0	336.0	337.0	334.0	335.0	336.0	336.0	337.0	334.0	336.0	335.0	
Sun Jun 04 11:42:00 UTC 2017	0.0	1.048293376E9	2781.360107421875	0.0	2.5731072E7	0.0	3.0	9.34842368E8	37.45071792602539	0.0	0.0	1.061277696E9	1.050116096E9	0.0	0.0	0.08100000023841858	0.05575000122189522	0.0442500002682209	0.9922500252723694	0.7478542923927307	0.0	244.0	371.0	0.0	0.0	0.0	0.0	0.0	0.0	null	null	null	null	null	null	null	null	336.0	336.0	336.0	335.0	335.0	334.0	334.0	332.0	335.0	331.0	335.0	
Sun Jun 04 11:41:00 UTC 2017	0.0	1.048293376E9	2991.95556640625	0.0	2.5731072E7	0.0	2.0	9.34633472E8	64.55479431152344	0.0	1.0	1.061277696E9	1.050116096E9	0.0	0.0	0.09574999660253525	0.0507499985396862	0.04749999940395355	0.9922500252723694	0.7478371858596802	0.0	244.0	371.0	0.0	0.0	0.0	0.0	0.0	0.0	null	null	null	null	null	null	null	null	334.0	335.0	335.0	331.0	335.0	337.0	335.0	336.0	333.0	334.0	335.0	
Sun Jun 04 11:40:00 UTC 2017	0.0	1.048293376E9	3537.547607421875	0.0	2.5731072E7	0.0	2.0	9.34723584E8	64.55479431152344	0.0	0.0	1.062289408E9	1.050116096E9	0.0	0.0	0.0820000022649765	0.048500001430511475	0.0494999997317791	0.9922500252723694	0.750124990940094	0.0	244.0	371.0	0.0	0.0	0.0	0.0	0.0	0.0	null	null	null	null	null	null	null	null	336.0	333.0	334.0	336.0	334.0	335.0	332.0	337.0	336.0	335.0	334.0	
Sun Jun 04 11:39:00 UTC 2017	0.0	1.047281664E9	3537.547607421875	0.0	2.5731072E7	0.0	2.0	9.34633472E8	61.05152893066406	0.0	0.0	1.062289408E9	1.050116096E9	0.0	0.0	0.0625	0.05575000122189522	0.048500001430511475	0.9922500252723694	0.7493279576301575	0.0	244.0	371.0	0.0	0.0	0.0	0.0	0.0	0.0	null	null	null	null	null	null	null	null	336.0	335.0	334.0	336.0	334.0	333.0	336.0	333.0	338.0	336.0	336.0	
Sun Jun 04 11:38:00 UTC 2017	0.0	1.048293376E9	3537.547607421875	0.0	2.5731072E7	0.0	2.0	9.34633472E8	47.619056701660156	0.0	0.0	1.061277696E9	1.050116096E9	0.0	0.0	0.08500000089406967	0.04699999839067459	0.04574999958276749	0.9919999837875366	0.7478048801422119	0.0	244.0	371.0	0.0	0.0	0.0	0.0	0.0	0.0	null	null	null	null	null	null	null	null	333.0	337.0	335.0	335.0	340.0	336.0	332.0	334.0	332.0	335.0	337.0	
Sun Jun 04 11:37:00 UTC 2017	0.0	1.048293376E9	3230.69677734375	0.0	2.5731072E7	0.0	5.0	9.34633472E8	47.619056701660156	0.0	0.0	1.062289408E9	1.050116096E9	0.0	0.0	0.06800000369548798	0.05525000020861626	0.0507499985396862	0.9919999837875366	0.7478004693984985	0.0	244.0	371.0	0.0	0.0	0.0	0.0	0.0	0.0	null	null	null	null	null	null	null	null	338.0	331.0	334.0	337.0	334.0	332.0	338.0	334.0	334.0	331.0	333.0	
Sun Jun 04 11:36:00 UTC 2017	0.0	1.047281664E9	3230.69677734375	0.0	2.5731072E7	0.0	2.0	9.3442048E8	49.981300354003906	0.0	0.0	1.061277696E9	1.050116096E9	0.0	0.0	0.0754999965429306	0.04800000041723251	0.04650000110268593	0.9917500019073486	0.7477124333381653	0.0	244.0	371.0	0.0	0.0	0.0	0.0	0.0	0.0	null	null	null	null	null	null	null	null	333.0	337.0	335.0	337.0	336.0	337.0	336.0	335.0	333.0	335.0	336.0	
Sun Jun 04 11:35:00 UTC 2017	0.0	1.047281664E9	2366.37109375	0.0	2.5731072E7	0.0	2.0	9.34510592E8	37.78190612792969	0.0	0.0	1.062289408E9	1.050116096E9	0.0	0.0	0.07774999737739563	0.051500000059604645	0.0494999997317791	0.9925000071525574	0.7476336359977722	0.0	244.0	371.0	0.0	0.0	0.0	0.0	0.0	0.0	null	null	null	null	null	null	null	null	332.0	332.0	338.0	333.0	336.0	336.0	333.0	335.0	336.0	337.0	335.0	
Sun Jun 04 11:34:00 UTC 2017	0.0	1.047281664E9	3203.75927734375	0.0	2.5731072E7	0.0	2.0	9.3442048E8	37.78190612792969	0.0	0.0	1.061277696E9	1.050116096E9	0.0	0.0	0.07225000113248825	0.05050000175833702	0.04399999976158142	0.9922500252723694	0.7481615543365479	0.0	244.0	371.0	0.0	0.0	0.0	0.0	0.0	0.0	null	null	null	null	null	null	null	null	336.0	338.0	332.0	339.0	332.0	334.0	336.0	340.0	333.0	332.0	338.0	
Sun Jun 04 11:33:00 UTC 2017	0.0	1.047281664E9	2378.949951171875	0.0	2.5731072E7	0.0	4.0	9.3442048E8	57.566280364990234	0.0	0.0	1.061277696E9	1.050116096E9	0.0	0.0	0.07325000315904617	0.045249998569488525	0.048250000923871994	0.9922500252723694	0.7475802898406982	0.0	244.0	371.0	0.0	0.0	0.0	0.0	0.0	0.0	null	null	null	null	null	null	null	null	335.0	333.0	339.0	332.0	333.0	337.0	338.0	336.0	338.0	338.0	333.0	
Sun Jun 04 11:32:00 UTC 2017	0.0	1.047281664E9	2717.557373046875	0.0	2.5731072E7	0.0	5.0	9.3442048E8	38.19087219238281	0.0	0.0	1.062289408E9	1.050116096E9	0.0	0.0	0.07474999874830246	0.0572500005364418	0.04874999821186066	0.9919999837875366	0.7475607395172119	0.0	244.0	371.0	0.0	0.0	0.0	0.0	0.0	0.0	null	null	null	null	null	null	null	null	338.0	336.0	335.0	337.0	336.0	338.0	332.0	335.0	336.0	335.0	336.0	
Sun Jun 04 11:31:00 UTC 2017	0.0	1.048293376E9	2717.557373046875	0.0	2.5731072E7	0.0	3.0	9.34207488E8	38.19087219238281	0.0	0.0	1.062289408E9	1.050116096E9	0.0	null	0.10724999755620956	0.04625000059604645	0.048250000923871994	0.9922500252723694	0.7475597858428955	0.0	244.0	371.0	0.0	0.0	0.0	0.0	0.0	0.0	null	null	null	null	null	null	null	null	331.0	333.0	332.0	337.0	336.0	335.0	341.0	332.0	334.0	336.0	335.0	
Sun Jun 04 11:30:00 UTC 2017	0.0	1.048293376E9	2776.0537109375	0.0	2.5731072E7	0.0	2.0	9.342976E8	38.19087219238281	0.0	0.0	1.061277696E9	1.050116096E9	0.0	null	0.07524999976158142	0.054499998688697815	0.051249999552965164	0.9922500252723694	0.7497873902320862	0.0	244.0	371.0	0.0	0.0	0.0	0.0	0.0	0.0	null	null	null	null	null	null	null	null	336.0	335.0	334.0	334.0	335.0	337.0	334.0	339.0	337.0	331.0	336.0	
Sun Jun 04 11:29:00 UTC 2017	0.0	1.048293376E9	2708.275390625	0.0	2.5731072E7	0.0	2.0	9.34207488E8	38.19087219238281	0.0	0.0	1.061277696E9	1.050116096E9	0.0	0.0	0.07150000333786011	0.04650000110268593	0.04724999889731407	0.9925000071525574	0.7475406527519226	0.0	244.0	371.0	0.0	0.0	0.0	0.0	0.0	0.0	null	null	null	null	null	null	null	null	336.0	336.0	338.0	333.0	334.0	333.0	333.0	332.0	334.0	335.0	332.0	
Sun Jun 04 11:28:00 UTC 2017	0.0	1.048293376E9	2645.623291015625	0.0	2.5731072E7	0.0	2.0	9.34207488E8	53.0035285949707	0.0	0.0	1.062289408E9	1.050116096E9	0.0	0.0	0.08224999904632568	0.051249999552965164	0.048500001430511475	0.9919999837875366	0.7475382089614868	0.0	244.0	371.0	0.0	0.0	0.0	0.0	0.0	0.0	null	null	null	null	null	null	null	null	336.0	334.0	330.0	336.0	334.0	334.0	333.0	335.0	335.0	334.0	335.0	
Sun Jun 04 11:27:00 UTC 2017	0.0	1.048293376E9	2964.800537109375	0.0	2.5731072E7	0.0	3.0	9.34207488E8	41.90365982055664	0.0	0.0	1.062289408E9	1.050116096E9	0.0	0.0	0.07975000143051147	0.04800000041723251	0.04699999839067459	0.9919999837875366	0.7482051253318787	0.0	244.0	371.0	0.0	0.0	0.0	0.0	0.0	0.0	null	null	null	null	null	null	null	null	337.0	338.0	334.0	334.0	334.0	336.0	336.0	337.0	339.0	337.0	338.0	
Sun Jun 04 11:26:00 UTC 2017	0.0	1.047281664E9	2964.800537109375	0.0	2.5731072E7	0.0	3.0	9.33994496E8	49.946346282958984	0.0	0.0	1.062289408E9	1.050116096E9	0.0	0.0	0.07450000196695328	0.05274999886751175	0.04924999922513962	0.9919999837875366	0.7475064396858215	0.0	244.0	371.0	0.0	0.0	0.0	0.0	0.0	0.0	null	null	null	null	null	null	null	null	332.0	330.0	338.0	334.0	335.0	334.0	336.0	337.0	333.0	334.0	334.0	
Sun Jun 04 11:25:00 UTC 2017	0.0	1.047281664E9	2883.364013671875	0.0	2.5731072E7	0.0	3.0	9.34084608E8	49.946346282958984	0.0	0.0	1.061277696E9	1.050116096E9	0.0	0.0	0.0767500028014183	0.04800000041723251	0.050999999046325684	0.9919999837875366	0.7474946975708008	0.0	244.0	371.0	0.0	0.0	0.0	0.0	0.0	0.0	null	null	null	null	null	null	null	null	337.0	337.0	334.0	335.0	333.0	334.0	332.0	330.0	336.0	335.0	332.0	
Sun Jun 04 11:24:00 UTC 2017	0.0	1.048293376E9	2883.364013671875	0.0	2.5731072E7	0.0	3.0	9.33994496E8	44.525821685791016	0.0	0.0	1.061277696E9	1.050116096E9	0.0	0.0	0.07599999755620956	0.054999999701976776	0.04724999889731407	0.9922500252723694	0.7474849224090576	0.0	244.0	371.0	0.0	0.0	0.0	0.0	0.0	0.0	null	null	null	null	null	null	null	null	333.0	336.0	334.0	337.0	335.0	336.0	336.0	334.0	333.0	330.0	336.0	
Sun Jun 04 11:23:00 UTC 2017	0.0	1.048293376E9	2824.8603515625	0.0	2.5731072E7	0.0	3.0	9.33994496E8	44.525821685791016	0.0	0.0	1.062289408E9	1.050116096E9	0.0	0.0	0.07249999791383743	0.04724999889731407	0.04450000077486038	0.9919999837875366	0.7474609017372131	0.0	244.0	371.0	0.0	0.0	0.0	0.0	0.0	0.0	null	null	null	null	null	null	null	null	334.0	335.0	338.0	334.0	336.0	334.0	335.0	334.0	336.0	335.0	338.0	
Sun Jun 04 11:22:00 UTC 2017	0.0	1.047281664E9	2824.8603515625	0.0	2.5731072E7	0.0	2.0	9.33994496E8	34.55687713623047	0.0	0.0	1.061277696E9	1.050116096E9	0.0	0.0	0.07275000214576721	0.04924999922513962	0.04924999922513962	0.9922500252723694	0.7474491596221924	0.0	244.0	371.0	0.0	0.0	0.0	0.0	0.0	0.0	null	null	null	null	null	null	null	null	336.0	335.0	334.0	333.0	335.0	335.0	333.0	335.0	333.0	333.0	330.0	
Sun Jun 04 11:21:00 UTC 2017	0.0	1.048293376E9	2824.8603515625	0.0	2.5731072E7	0.0	3.0	9.33875712E8	34.55687713623047	0.0	0.0	1.062289408E9	1.050116096E9	0.0	0.0	0.09574999660253525	0.05575000122189522	0.048250000923871994	0.9919999837875366	0.7474349737167358	0.0	244.0	371.0	0.0	0.0	0.0	0.0	0.0	0.0	null	null	null	null	null	null	null	null	336.0	332.0	332.0	334.0	339.0	338.0	337.0	334.0	333.0	336.0	337.0	
Sun Jun 04 11:20:00 UTC 2017	0.0	1.047281664E9	2824.8603515625	0.0	2.5731072E7	0.0	3.0	9.33875712E8	34.55687713623047	0.0	0.0	1.062289408E9	1.050116096E9	0.0	0.0	0.08150000125169754	0.05299999937415123	0.04699999839067459	0.9919999837875366	0.7474765777587891	0.0	244.0	371.0	0.0	0.0	0.0	0.0	0.0	0.0	null	null	null	null	null	null	null	null	335.0	331.0	337.0	336.0	335.0	333.0	334.0	332.0	334.0	333.0	338.0	
Sun Jun 04 11:19:00 UTC 2017	0.0	1.048293376E9	2824.8603515625	0.0	2.5731072E7	0.0	2.0	9.337856E8	34.55687713623047	0.0	0.0	1.061277696E9	1.050116096E9	0.0	0.0	0.0754999965429306	0.048250000923871994	0.04600000008940697	0.9919999837875366	0.7474570274353027	0.0	244.0	371.0	0.0	0.0	0.0	0.0	0.0	0.0	null	null	null	null	null	null	null	null	336.0	334.0	333.0	333.0	337.0	334.0	336.0	335.0	337.0	335.0	330.0	
Sun Jun 04 11:18:00 UTC 2017	0.0	1.048293376E9	3682.749267578125	0.0	2.5731072E7	0.0	2.0	9.337856E8	34.55687713623047	0.0	0.0	1.061277696E9	1.050116096E9	0.0	0.0	0.0677499994635582	0.04625000059604645	0.04874999821186066	0.9919999837875366	0.7474403977394104	0.0	244.0	371.0	0.0	0.0	0.0	0.0	0.0	0.0	null	null	null	null	null	null	null	null	336.0	335.0	336.0	337.0	334.0	335.0	331.0	334.0	332.0	335.0	335.0	
Sun Jun 04 11:17:00 UTC 2017	0.0	1.047281664E9	3682.749267578125	0.0	2.5731072E7	0.0	3.0	9.337856E8	50.43925094604492	0.0	0.0	1.061277696E9	1.050116096E9	0.0	0.0	0.07275000214576721	0.05000000074505806	0.0507499985396862	0.9917500019073486	0.7473792433738708	0.0	244.0	371.0	0.0	0.0	0.0	0.0	0.0	0.0	null	null	null	null	null	null	null	null	335.0	336.0	335.0	336.0	335.0	334.0	332.0	333.0	336.0	335.0	336.0	
Sun Jun 04 11:16:00 UTC 2017	0.0	1.048293376E9	3682.749267578125	0.0	2.5731072E7	0.0	2.0	9.33572608E8	52.34154510498047	1.0	1.0	1.061277696E9	1.050116096E9	0.0	null	0.08124999701976776	0.05950000137090683	0.04650000110268593	0.9919999837875366	0.7474340200424194	0.0	244.0	371.0	0.0	0.0	0.0	0.0	0.0	0.0	null	null	null	null	null	null	null	null	335.0	335.0	336.0	337.0	334.0	333.0	332.0	335.0	335.0	334.0	336.0	
Sun Jun 04 11:15:00 UTC 2017	0.0	1.047281664E9	3682.749267578125	0.0	2.5731072E7	0.0	2.0	9.3366272E8	52.34154510498047	0.0	0.0	1.062289408E9	1.050116096E9	0.0	null	0.07450000196695328	0.04699999839067459	0.04600000008940697	0.9915000200271606	0.7473537921905518	0.0	244.0	371.0	0.0	0.0	0.0	0.0	0.0	0.0	null	null	null	null	null	null	null	null	335.0	335.0	337.0	334.0	335.0	337.0	332.0	333.0	336.0	333.0	336.0	
Sun Jun 04 11:14:00 UTC 2017	0.0	1.048293376E9	3682.749267578125	0.0	2.5731072E7	0.0	3.0	9.33572608E8	40.6490478515625	0.0	0.0	1.062289408E9	1.050116096E9	0.0	null	0.07175000011920929	0.04899999871850014	0.04749999940395355	0.9919999837875366	0.7473303079605103	0.0	244.0	371.0	0.0	0.0	0.0	0.0	0.0	0.0	null	null	null	null	null	null	null	null	333.0	333.0	333.0	336.0	337.0	332.0	334.0	336.0	333.0	332.0	333.0	
Sun Jun 04 11:13:00 UTC 2017	0.0	1.047281664E9	3682.749267578125	0.0	2.5731072E7	0.0	5.0	9.33572608E8	65.79396057128906	0.0	0.0	1.062289408E9	1.050116096E9	0.0	null	0.07374999672174454	0.051500000059604645	0.04625000059604645	0.9919999837875366	0.7473288178443909	0.0	244.0	371.0	0.0	0.0	0.0	0.0	0.0	0.0	null	null	null	null	null	null	null	null	336.0	336.0	335.0	336.0	334.0	335.0	332.0	336.0	334.0	333.0	335.0	
Sun Jun 04 11:12:00 UTC 2017	0.0	1.047281664E9	2490.779052734375	0.0	2.5731072E7	0.0	3.0	9.33572608E8	65.79396057128906	0.0	0.0	1.062289408E9	1.050116096E9	0.0	null	0.08049999922513962	0.051750000566244125	0.048250000923871994	0.9919999837875366	0.7495965957641602	0.0	244.0	371.0	0.0	0.0	0.0	0.0	0.0	0.0	null	null	null	null	null	null	null	null	333.0	336.0	335.0	333.0	332.0	333.0	340.0	333.0	336.0	333.0	335.0	
Sun Jun 04 11:11:00 UTC 2017	0.0	1.048293376E9	2490.779052734375	0.0	2.5731072E7	0.0	2.0	9.3335552E8	53.71455764770508	0.0	0.0	1.062289408E9	1.050116096E9	0.0	0.0	0.10275000333786011	0.05225000157952309	0.05000000074505806	0.9917500019073486	0.7472926378250122	0.0	244.0	371.0	0.0	0.0	0.0	0.0	0.0	0.0	null	null	null	null	null	null	null	null	333.0	334.0	334.0	337.0	337.0	334.0	331.0	336.0	336.0	336.0	336.0	
Sun Jun 04 11:10:00 UTC 2017	0.0	1.048293376E9	2374.26318359375	0.0	2.5731072E7	0.0	5.0	9.33707776E8	53.71455764770508	0.0	0.0	1.061277696E9	1.050116096E9	0.0	0.0	0.07050000131130219	0.04975000023841858	0.04574999958276749	0.9919999837875366	0.74953693151474	0.0	244.0	371.0	0.0	0.0	0.0	0.0	0.0	0.0	null	null	null	null	null	null	null	null	335.0	334.0	336.0	335.0	336.0	336.0	333.0	334.0	333.0	335.0	334.0	
Sun Jun 04 11:09:00 UTC 2017	0.0	1.047281664E9	2374.26318359375	0.0	2.5731072E7	0.0	5.0	9.33515264E8	45.13981628417969	0.0	0.0	1.061277696E9	1.050116096E9	0.0	0.0	0.0742499977350235	0.051249999552965164	0.05274999886751175	0.9915000200271606	0.7491190433502197	0.0	244.0	371.0	0.0	0.0	0.0	0.0	0.0	0.0	null	null	null	null	null	null	null	null	333.0	335.0	335.0	335.0	334.0	332.0	337.0	336.0	334.0	331.0	332.0	
Sun Jun 04 11:08:00 UTC 2017	0.0	1.048293376E9	2374.26318359375	0.0	2.5731072E7	0.0	4.0	9.33515264E8	60.15894317626953	0.0	1.0	1.061277696E9	1.050116096E9	0.0	null	0.07074999809265137	0.054749999195337296	0.04600000008940697	0.9919999837875366	0.7472378015518188	0.0	244.0	371.0	0.0	0.0	0.0	0.0	0.0	0.0	null	null	null	null	null	null	null	null	335.0	337.0	332.0	338.0	335.0	339.0	337.0	335.0	339.0	336.0	337.0	
Sun Jun 04 11:07:00 UTC 2017	0.0	1.048293376E9	2865.303955078125	0.0	2.5731072E7	0.0	3.0	9.33515264E8	62.45633316040039	0.0	0.0	1.061277696E9	1.050116096E9	0.0	0.0	0.07400000095367432	0.05025000125169754	0.052000001072883606	0.9919999837875366	0.7472162842750549	0.0	244.0	371.0	0.0	0.0	0.0	0.0	0.0	0.0	null	null	null	null	null	null	null	null	335.0	335.0	337.0	335.0	337.0	335.0	334.0	335.0	332.0	332.0	334.0	
Sun Jun 04 11:06:00 UTC 2017	0.0	1.048293376E9	3201.807373046875	0.0	2.5731072E7	0.0	6.0	9.33302272E8	48.24469757080078	1.0	1.0	1.061277696E9	1.050116096E9	0.0	0.0	0.07900000363588333	0.04699999839067459	0.04800000041723251	0.9919999837875366	0.7472476363182068	0.0	244.0	371.0	0.0	0.0	0.0	0.0	0.0	0.0	null	null	null	null	null	null	null	null	333.0	333.0	333.0	334.0	334.0	331.0	336.0	334.0	334.0	337.0	336.0	
Sun Jun 04 11:05:00 UTC 2017	0.0	1.048293376E9	2561.486083984375	0.0	2.5731072E7	0.0	3.0	9.33392384E8	36.481746673583984	0.0	0.0	1.061277696E9	1.050116096E9	0.0	null	0.0702499970793724	0.050999999046325684	0.04625000059604645	0.9922500252723694	0.747204065322876	0.0	244.0	371.0	0.0	0.0	0.0	0.0	0.0	0.0	null	null	null	null	null	null	null	null	340.0	339.0	338.0	335.0	337.0	340.0	335.0	335.0	336.0	333.0	335.0	
Sun Jun 04 11:04:00 UTC 2017	0.0	1.048293376E9	2530.210693359375	0.0	2.5731072E7	0.0	3.0	9.33302272E8	38.82304763793945	0.0	0.0	1.061277696E9	1.050116096E9	0.0	0.0	0.0729999989271164	0.05375000089406967	0.04899999871850014	0.9917500019073486	0.7481204867362976	0.0	244.0	371.0	0.0	0.0	0.0	0.0	0.0	0.0	null	null	null	null	null	null	null	null	336.0	332.0	333.0	334.0	334.0	334.0	331.0	333.0	333.0	334.0	334.0	
Sun Jun 04 11:03:00 UTC 2017	0.0	1.048293376E9	3097.177490234375	0.0	2.5731072E7	0.0	5.0	9.33302272E8	38.82304763793945	0.0	0.0	1.061277696E9	1.050116096E9	0.0	0.0	0.0767500028014183	0.05324999988079071	0.04699999839067459	0.9919999837875366	0.749442458152771	0.0	244.0	371.0	0.0	0.0	0.0	0.0	0.0	0.0	null	null	null	null	null	null	null	null	334.0	333.0	338.0	336.0	332.0	331.0	335.0	335.0	337.0	335.0	340.0	
Sun Jun 04 11:02:00 UTC 2017	0.0	1.048293376E9	2556.01513671875	0.0	2.5731072E7	0.0	4.0	9.33302272E8	52.93709945678711	0.0	0.0	1.061277696E9	1.050116096E9	0.0	0.0	0.0729999989271164	0.04574999958276749	0.04749999940395355	0.9917500019073486	0.747150719165802	0.0	244.0	371.0	0.0	0.0	0.0	0.0	0.0	0.0	null	null	null	null	null	null	null	null	339.0	334.0	333.0	337.0	336.0	336.0	332.0	340.0	332.0	333.0	336.0	
Sun Jun 04 11:01:00 UTC 2017	0.0	1.047281664E9	2556.01513671875	0.0	2.5731072E7	0.0	4.0	9.33093376E8	36.760860443115234	0.0	0.0	1.062289408E9	1.050116096E9	0.0	0.0	0.10525000095367432	0.050999999046325684	0.04975000023841858	0.9919999837875366	0.7471340894699097	0.0	244.0	371.0	0.0	0.0	0.0	0.0	0.0	0.0	null	null	null	null	null	null	null	null	333.0	336.0	337.0	333.0	334.0	332.0	332.0	335.0	333.0	335.0	333.0	
Sun Jun 04 11:00:00 UTC 2017	0.0	1.048293376E9	2556.01513671875	0.0	2.5731072E7	0.0	5.0	9.33183488E8	53.30061721801758	0.0	0.0	1.061277696E9	1.050116096E9	0.0	0.0	0.0729999989271164	0.05525000020861626	0.04650000110268593	0.9917500019073486	0.7470875978469849	0.0	244.0	371.0	0.0	0.0	0.0	0.0	0.0	0.0	null	null	null	null	null	null	null	null	339.0	334.0	335.0	338.0	334.0	332.0	334.0	335.0	333.0	338.0	337.0	
Sun Jun 04 10:59:00 UTC 2017	0.0	1.048293376E9	2860.533203125	0.0	2.5731072E7	0.0	6.0	9.33093376E8	53.30061721801758	0.0	0.0	1.061277696E9	1.050116096E9	0.0	0.0	0.07225000113248825	0.04450000077486038	0.05050000175833702	0.9919999837875366	0.7470807433128357	0.0	244.0	371.0	0.0	0.0	0.0	0.0	0.0	0.0	null	null	null	null	null	null	null	null	334.0	336.0	336.0	335.0	335.0	335.0	334.0	335.0	338.0	331.0	336.0	
Sun Jun 04 10:58:00 UTC 2017	0.0	1.048293376E9	2905.821044921875	0.0	2.5731072E7	0.0	5.0	9.33093376E8	72.96448516845703	0.0	1.0	1.061277696E9	1.050116096E9	0.0	0.0	0.08124999701976776	0.054999999701976776	0.04774999991059303	0.9915000200271606	0.7471575736999512	0.0	244.0	371.0	0.0	0.0	0.0	0.0	0.0	0.0	null	null	null	null	null	null	null	null	340.0	333.0	333.0	335.0	336.0	335.0	331.0	332.0	331.0	337.0	331.0	
Sun Jun 04 10:57:00 UTC 2017	0.0	1.048293376E9	2420.69775390625	0.0	2.5731072E7	0.0	3.0	9.33093376E8	72.96448516845703	0.0	0.0	1.061277696E9	1.050116096E9	0.0	0.0	0.07374999672174454	0.051249999552965164	0.04774999991059303	0.9919999837875366	0.747141420841217	0.0	244.0	371.0	0.0	0.0	0.0	0.0	0.0	0.0	null	null	null	null	null	null	null	null	334.0	337.0	336.0	334.0	336.0	335.0	335.0	333.0	334.0	335.0	335.0	
Sun Jun 04 10:56:00 UTC 2017	0.0	1.048293376E9	2538.328125	0.0	2.5731072E7	0.0	4.0	9.32970496E8	72.96448516845703	0.0	0.0	1.061277696E9	1.050116096E9	0.0	0.0	0.07199999690055847	0.05225000157952309	0.04500000178813934	0.9922500252723694	0.7472133636474609	0.0	244.0	371.0	0.0	0.0	0.0	0.0	0.0	0.0	null	null	null	null	null	null	null	null	338.0	339.0	335.0	337.0	334.0	333.0	337.0	332.0	335.0	331.0	330.0	
Sun Jun 04 10:55:00 UTC 2017	0.0	1.048293376E9	2650.82958984375	0.0	2.5731072E7	0.0	2.0	9.32970496E8	72.96448516845703	0.0	0.0	1.061277696E9	1.050116096E9	0.0	0.0	0.07649999856948853	0.04874999821186066	0.04874999821186066	0.9919999837875366	0.7471076846122742	0.0	244.0	371.0	0.0	0.0	0.0	0.0	0.0	0.0	null	null	null	null	null	null	null	null	333.0	334.0	334.0	331.0	336.0	337.0	335.0	333.0	335.0	337.0	333.0	
Sun Jun 04 10:54:00 UTC 2017	0.0	1.048293376E9	3344.6787109375	0.0	2.5731072E7	0.0	2.0	9.32880384E8	45.08266067504883	0.0	0.0	1.062289408E9	1.050116096E9	0.0	0.0	0.07074999809265137	0.05050000175833702	0.048500001430511475	0.9919999837875366	0.7470895648002625	0.0	244.0	371.0	0.0	0.0	0.0	0.0	0.0	0.0	null	null	null	null	null	null	null	null	333.0	335.0	334.0	333.0	333.0	333.0	329.0	336.0	333.0	332.0	334.0	
Sun Jun 04 10:53:00 UTC 2017	0.0	1.048293376E9	2052.680419921875	0.0	2.5731072E7	0.0	2.0	9.32880384E8	40.503578186035156	0.0	0.0	1.062289408E9	1.050116096E9	0.0	null	0.0807500034570694	0.0494999997317791	0.04975000023841858	0.9919999837875366	0.7470700144767761	0.0	244.0	371.0	0.0	0.0	0.0	0.0	0.0	0.0	null	null	null	null	null	null	null	null	336.0	336.0	333.0	335.0	338.0	334.0	334.0	335.0	335.0	335.0	334.0	
Sun Jun 04 10:52:00 UTC 2017	0.0	1.048293376E9	2657.91845703125	0.0	2.5731072E7	0.0	3.0	9.32880384E8	67.12467956542969	1.0	0.0	1.061277696E9	1.050116096E9	0.0	null	0.07275000214576721	0.05674999952316284	0.045499999076128006	0.9919999837875366	0.7489854693412781	0.0	244.0	371.0	0.0	0.0	0.0	0.0	0.0	0.0	null	null	null	null	null	null	null	null	337.0	335.0	336.0	337.0	333.0	335.0	336.0	336.0	336.0	334.0	336.0	
Sun Jun 04 10:51:00 UTC 2017	0.0	1.048293376E9	2643.0380859375	0.0	2.5731072E7	0.0	3.0	9.32757504E8	42.0613899230957	1.0	1.0	1.062289408E9	1.050116096E9	0.0	null	0.1002499982714653	0.05649999901652336	0.0507499985396862	0.9919999837875366	0.7470846772193909	0.0	244.0	371.0	0.0	0.0	0.0	0.0	0.0	0.0	null	null	null	null	null	null	null	null	333.0	333.0	336.0	335.0	333.0	331.0	336.0	332.0	330.0	336.0	335.0	
Sun Jun 04 10:50:00 UTC 2017	0.0	1.048293376E9	3256.35302734375	0.0	2.5731072E7	0.0	3.0	9.32757504E8	55.59672164916992	1.0	1.0	1.062289408E9	1.050116096E9	0.0	0.0	0.08100000023841858	0.04924999922513962	0.04324999824166298	0.9917500019073486	0.747003436088562	0.0	244.0	371.0	0.0	0.0	0.0	0.0	0.0	0.0	null	null	null	null	null	null	null	null	336.0	337.0	336.0	331.0	336.0	335.0	336.0	334.0	335.0	329.0	332.0	
Sun Jun 04 10:49:00 UTC 2017	0.0	1.048293376E9	2606.4873046875	0.0	2.5731072E7	0.0	2.0	9.32667392E8	55.59672164916992	0.0	0.0	1.061277696E9	1.050116096E9	0.0	0.0	0.07124999910593033	0.05350000038743019	0.05000000074505806	0.9919999837875366	0.7469961047172546	0.0	244.0	371.0	0.0	0.0	0.0	0.0	0.0	0.0	null	null	null	null	null	null	null	null	333.0	335.0	335.0	338.0	333.0	334.0	338.0	332.0	333.0	333.0	335.0	
Sun Jun 04 10:48:00 UTC 2017	0.0	1.048293376E9	2588.282470703125	0.0	2.5731072E7	0.0	2.0	9.32667392E8	54.24475860595703	0.0	0.0	1.061277696E9	1.050116096E9	0.0	0.0	0.0754999965429306	0.05324999988079071	0.04574999958276749	0.9919999837875366	0.7486298084259033	0.0	244.0	371.0	0.0	0.0	0.0	0.0	0.0	0.0	null	null	null	null	null	null	null	null	334.0	334.0	335.0	334.0	333.0	337.0	332.0	336.0	335.0	336.0	336.0	
Sun Jun 04 10:47:00 UTC 2017	0.0	1.047281664E9	2588.282470703125	0.0	2.5731072E7	0.0	2.0	9.32667392E8	33.153682708740234	0.0	1.0	1.062289408E9	1.050116096E9	0.0	0.0	0.07925000041723251	0.050999999046325684	0.04874999821186066	0.9915000200271606	0.7492511868476868	0.0	244.0	371.0	0.0	0.0	0.0	0.0	0.0	0.0	null	null	null	null	null	null	null	null	332.0	335.0	334.0	333.0	336.0	332.0	336.0	336.0	331.0	335.0	336.0	
Sun Jun 04 10:46:00 UTC 2017	0.0	1.048293376E9	2588.282470703125	0.0	2.5731072E7	0.0	2.0	9.32458496E8	33.153682708740234	1.0	2.0	1.062289408E9	1.050116096E9	0.0	0.0	0.06825000047683716	0.0560000017285347	0.04625000059604645	0.9915000200271606	0.7469369173049927	0.0	244.0	371.0	0.0	0.0	0.0	0.0	0.0	0.0	null	null	null	null	null	null	null	null	335.0	334.0	335.0	335.0	334.0	335.0	335.0	335.0	336.0	334.0	332.0	
Sun Jun 04 10:45:00 UTC 2017	0.0	1.048293376E9	2768.7998046875	0.0	2.5731072E7	0.0	2.0	9.32548608E8	33.153682708740234	0.0	0.0	1.062289408E9	1.050116096E9	0.0	0.0	0.08574999868869781	0.04574999958276749	0.04475000128149986	0.9917500019073486	0.7484903335571289	0.0	244.0	371.0	0.0	0.0	0.0	0.0	0.0	0.0	null	null	null	null	null	null	null	null	335.0	336.0	332.0	334.0	330.0	335.0	333.0	337.0	333.0	336.0	337.0	
Sun Jun 04 10:44:00 UTC 2017	0.0	1.048293376E9	2534.336669921875	0.0	2.5731072E7	0.0	2.0	9.32458496E8	41.761016845703125	0.0	0.0	1.062289408E9	1.050116096E9	0.0	0.0	0.06449999660253525	0.05324999988079071	0.04899999871850014	0.9917500019073486	0.7476081848144531	0.0	244.0	371.0	0.0	0.0	0.0	0.0	0.0	0.0	null	null	null	null	null	null	null	null	335.0	332.0	332.0	335.0	337.0	334.0	335.0	331.0	334.0	333.0	335.0	
Sun Jun 04 10:43:00 UTC 2017	0.0	1.048293376E9	3128.84033203125	0.0	2.5731072E7	0.0	4.0	9.32458496E8	39.23174285888672	0.0	0.0	1.061277696E9	1.050116096E9	0.0	0.0	0.0820000022649765	0.05249999836087227	0.051249999552965164	0.9919999837875366	0.7469853758811951	0.0	244.0	371.0	0.0	0.0	0.0	0.0	0.0	0.0	null	null	null	null	null	null	null	null	332.0	334.0	337.0	336.0	335.0	333.0	338.0	336.0	335.0	333.0	336.0	
Sun Jun 04 10:42:00 UTC 2017	0.0	1.048293376E9	2806.3984375	0.0	2.5731072E7	0.0	4.0	9.32458496E8	39.23174285888672	0.0	0.0	1.062289408E9	1.050116096E9	0.0	0.0	0.06750000268220901	0.04600000008940697	0.05000000074505806	0.9919999837875366	0.7470381855964661	0.0	244.0	371.0	0.0	0.0	0.0	0.0	0.0	0.0	null	null	null	null	null	null	null	null	338.0	335.0	332.0	336.0	331.0	332.0	332.0	336.0	330.0	336.0	335.0	
Sun Jun 04 10:41:00 UTC 2017	0.0	1.047281664E9	2806.3984375	0.0	2.5731072E7	0.0	3.0	9.32335616E8	39.23174285888672	0.0	0.0	1.062289408E9	1.050116096E9	0.0	0.0	0.10324999690055847	0.052000001072883606	0.04500000178813934	0.9919999837875366	0.746947169303894	0.0	244.0	371.0	0.0	0.0	0.0	0.0	0.0	0.0	null	null	null	null	null	null	null	null	333.0	335.0	338.0	334.0	337.0	337.0	336.0	332.0	337.0	334.0	335.0	
Sun Jun 04 10:40:00 UTC 2017	0.0	1.047281664E9	2377.986328125	0.0	2.5731072E7	0.0	4.0	9.32335616E8	48.378231048583984	0.0	1.0	1.062289408E9	1.050116096E9	0.0	0.0	0.07774999737739563	0.04724999889731407	0.05050000175833702	0.9917500019073486	0.7469457387924194	0.0	244.0	371.0	0.0	0.0	0.0	0.0	0.0	0.0	null	null	null	null	null	null	null	null	338.0	336.0	338.0	333.0	337.0	338.0	334.0	334.0	334.0	336.0	331.0	
Sun Jun 04 10:39:00 UTC 2017	0.0	1.047281664E9	3119.499755859375	0.0	2.5731072E7	0.0	6.0	9.32245504E8	48.378231048583984	0.0	0.0	1.062289408E9	1.050116096E9	0.0	0.0	0.07699999958276749	0.05324999988079071	0.05025000125169754	0.9917500019073486	0.7469291090965271	0.0	244.0	371.0	0.0	0.0	0.0	0.0	0.0	0.0	null	null	null	null	null	null	null	null	335.0	331.0	335.0	331.0	336.0	333.0	331.0	336.0	331.0	333.0	334.0	
Sun Jun 04 10:38:00 UTC 2017	0.0	1.047281664E9	2601.933837890625	0.0	2.5731072E7	0.0	6.0	9.32245504E8	44.00355529785156	0.0	1.0	1.062289408E9	1.050116096E9	0.0	0.0	0.07575000077486038	0.05674999952316284	0.04574999958276749	0.9915000200271606	0.7469721436500549	0.0	244.0	371.0	0.0	0.0	0.0	0.0	0.0	0.0	null	null	null	null	null	null	null	null	335.0	335.0	335.0	335.0	335.0	335.0	332.0	333.0	333.0	334.0	330.0	
Sun Jun 04 10:37:00 UTC 2017	0.0	1.047281664E9	2770.09228515625	0.0	2.5731072E7	0.0	2.0	9.32245504E8	44.00355529785156	0.0	0.0	1.062289408E9	1.050116096E9	0.0	0.0	0.07400000095367432	0.04625000059604645	0.04800000041723251	0.9915000200271606	0.7468855381011963	0.0	244.0	371.0	0.0	0.0	0.0	0.0	0.0	0.0	null	null	null	null	null	null	null	null	334.0	333.0	334.0	331.0	333.0	337.0	334.0	334.0	338.0	334.0	334.0	
Sun Jun 04 10:36:00 UTC 2017	0.0	1.048293376E9	2770.09228515625	0.0	2.5731072E7	0.0	2.0	9.32032512E8	51.853633880615234	0.0	0.0	1.061277696E9	1.050116096E9	0.0	0.0	0.07074999809265137	0.054249998182058334	0.04975000023841858	0.9919999837875366	0.7491885423660278	0.0	244.0	371.0	0.0	0.0	0.0	0.0	0.0	0.0	null	null	null	null	null	null	null	null	335.0	336.0	335.0	333.0	339.0	335.0	337.0	334.0	333.0	334.0	332.0	
Sun Jun 04 10:35:00 UTC 2017	0.0	1.047281664E9	2770.09228515625	0.0	2.5731072E7	0.0	4.0	9.32122624E8	51.853633880615234	0.0	0.0	1.061277696E9	1.050116096E9	0.0	0.0	0.07474999874830246	0.04874999821186066	0.05050000175833702	0.9919999837875366	0.7468635439872742	0.0	244.0	371.0	0.0	0.0	0.0	0.0	0.0	0.0	null	null	null	null	null	null	null	null	335.0	337.0	335.0	338.0	333.0	328.0	335.0	334.0	335.0	338.0	340.0	
Sun Jun 04 10:34:00 UTC 2017	0.0	1.047281664E9	3419.229736328125	0.0	2.5731072E7	0.0	2.0	9.32032512E8	51.853633880615234	0.0	0.0	1.061277696E9	1.050116096E9	0.0	0.0	0.07649999856948853	0.05324999988079071	0.04774999991059303	0.9915000200271606	0.7468420267105103	0.0	244.0	371.0	0.0	0.0	0.0	0.0	0.0	0.0	null	null	null	null	null	null	null	null	338.0	333.0	335.0	333.0	335.0	336.0	333.0	332.0	332.0	334.0	334.0	
Sun Jun 04 10:33:00 UTC 2017	0.0	1.047281664E9	2583.627197265625	0.0	2.5731072E7	0.0	4.0	9.32032512E8	51.853633880615234	0.0	0.0	1.061277696E9	1.050116096E9	0.0	0.0	0.07874999940395355	0.04800000041723251	0.04724999889731407	0.9919999837875366	0.7468141317367554	0.0	244.0	371.0	0.0	0.0	0.0	0.0	0.0	0.0	null	null	null	null	null	null	null	null	337.0	335.0	334.0	334.0	335.0	335.0	339.0	337.0	336.0	332.0	332.0	
Sun Jun 04 10:32:00 UTC 2017	0.0	1.047281664E9	2599.97265625	0.0	2.5731072E7	0.0	2.0	9.32032512E8	49.84318161010742	0.0	0.0	1.062289408E9	1.050116096E9	0.0	0.0	0.07074999809265137	0.0494999997317791	0.0430000014603138	0.9919999837875366	0.746812641620636	0.0	244.0	371.0	0.0	0.0	0.0	0.0	0.0	0.0	null	null	null	null	null	null	null	null	335.0	333.0	336.0	335.0	335.0	336.0	336.0	332.0	334.0	337.0	334.0	
Sun Jun 04 10:31:00 UTC 2017	0.0	1.047281664E9	2894.2412109375	0.0	2.5731072E7	0.0	2.0	9.31885056E8	47.875770568847656	0.0	0.0	1.061277696E9	1.050116096E9	0.0	0.0	0.10225000232458115	0.05225000157952309	0.05050000175833702	0.9922500252723694	0.7468684315681458	0.0	244.0	371.0	0.0	0.0	0.0	0.0	0.0	0.0	null	null	null	null	null	null	null	null	336.0	335.0	338.0	337.0	338.0	333.0	335.0	331.0	331.0	333.0	335.0	
Sun Jun 04 10:30:00 UTC 2017	0.0	1.048293376E9	2894.2412109375	0.0	2.5731072E7	0.0	2.0	9.31909632E8	46.32421875	0.0	0.0	1.062289408E9	1.050116096E9	0.0	0.0	0.08049999922513962	0.051500000059604645	0.04874999821186066	0.9919999837875366	0.7467696070671082	0.0	244.0	371.0	0.0	0.0	0.0	0.0	0.0	0.0	null	null	null	null	null	null	null	null	334.0	336.0	336.0	336.0	332.0	339.0	335.0	337.0	337.0	334.0	335.0	
Sun Jun 04 10:29:00 UTC 2017	0.0	1.047281664E9	2894.2412109375	0.0	2.5731072E7	0.0	3.0	9.3181952E8	46.32421875	0.0	0.0	1.061277696E9	1.050116096E9	0.0	0.0	0.07625000178813934	0.045499999076128006	0.04574999958276749	0.9917500019073486	0.7483474612236023	0.0	244.0	371.0	0.0	0.0	0.0	0.0	0.0	0.0	null	null	null	null	null	null	null	null	339.0	333.0	334.0	331.0	335.0	334.0	336.0	333.0	333.0	335.0	337.0	
Sun Jun 04 10:28:00 UTC 2017	0.0	1.048293376E9	2894.2412109375	0.0	2.5731072E7	0.0	2.0	9.3181952E8	55.35541534423828	0.0	0.0	1.061277696E9	1.050116096E9	0.0	0.0	0.07450000196695328	0.051500000059604645	0.04675000160932541	0.9919999837875366	0.7467519640922546	0.0	244.0	371.0	0.0	0.0	0.0	0.0	0.0	0.0	null	null	null	null	null	null	null	null	334.0	333.0	335.0	334.0	332.0	332.0	333.0	337.0	334.0	339.0	332.0	
Sun Jun 04 10:27:00 UTC 2017	0.0	1.048293376E9	2742.8798828125	0.0	2.5731072E7	0.0	2.0	9.3181952E8	55.369258880615234	0.0	1.0	1.062289408E9	1.050116096E9	0.0	0.0	0.07199999690055847	0.052000001072883606	0.04800000041723251	0.9922500252723694	0.7467348575592041	0.0	244.0	371.0	0.0	0.0	0.0	0.0	0.0	0.0	null	null	null	null	null	null	null	null	336.0	338.0	332.0	335.0	336.0	334.0	334.0	335.0	339.0	335.0	339.0	
Sun Jun 04 10:26:00 UTC 2017	0.0	1.048293376E9	2435.999755859375	0.0	2.5731072E7	0.0	2.0	9.31610624E8	49.306392669677734	0.0	0.0	1.062289408E9	1.050116096E9	0.0	0.0	0.07500000298023224	0.054499998688697815	0.04975000023841858	0.9919999837875366	0.7467206716537476	0.0	244.0	371.0	0.0	0.0	0.0	0.0	0.0	0.0	null	null	null	null	null	null	null	null	336.0	335.0	339.0	336.0	333.0	338.0	334.0	333.0	331.0	336.0	333.0	
Sun Jun 04 10:25:00 UTC 2017	0.0	1.048293376E9	2992.609619140625	0.0	2.5731072E7	0.0	3.0	9.31700736E8	49.306392669677734	0.0	0.0	1.061277696E9	1.050116096E9	0.0	0.0	0.08100000023841858	0.04699999839067459	0.04650000110268593	0.9922500252723694	0.7467201948165894	0.0	244.0	371.0	0.0	0.0	0.0	0.0	0.0	0.0	null	null	null	null	null	null	null	null	334.0	330.0	334.0	338.0	334.0	335.0	334.0	334.0	338.0	333.0	334.0	
Sun Jun 04 10:24:00 UTC 2017	0.0	1.047281664E9	2992.609619140625	0.0	2.5731072E7	0.0	2.0	9.31610624E8	49.306392669677734	0.0	0.0	1.061277696E9	1.050116096E9	0.0	0.0	0.0677499994635582	0.0507499985396862	0.04724999889731407	0.9919999837875366	0.7467020750045776	0.0	244.0	371.0	0.0	0.0	0.0	0.0	0.0	0.0	null	null	null	null	null	null	null	null	333.0	336.0	335.0	332.0	333.0	332.0	332.0	335.0	331.0	335.0	338.0	
Sun Jun 04 10:23:00 UTC 2017	0.0	1.048293376E9	2992.609619140625	0.0	2.5731072E7	0.0	3.0	9.31610624E8	43.37882995605469	0.0	0.0	1.062289408E9	1.050116096E9	0.0	0.0	0.07225000113248825	0.054749999195337296	0.05000000074505806	0.9919999837875366	0.7466878890991211	0.0	244.0	371.0	0.0	0.0	0.0	0.0	0.0	0.0	null	null	null	null	null	null	null	null	333.0	333.0	334.0	337.0	339.0	335.0	334.0	336.0	340.0	336.0	335.0	
Sun Jun 04 10:22:00 UTC 2017	0.0	1.048293376E9	2442.339111328125	0.0	2.5731072E7	0.0	3.0	9.31610624E8	36.10923767089844	0.0	0.0	1.061277696E9	1.050116096E9	0.0	0.0	0.08574999868869781	0.04874999821186066	0.04500000178813934	0.9919999837875366	0.7466863989830017	0.0	244.0	371.0	0.0	0.0	0.0	0.0	0.0	0.0	null	null	null	null	null	null	null	null	334.0	336.0	335.0	331.0	333.0	335.0	335.0	335.0	333.0	337.0	334.0	
Sun Jun 04 10:21:00 UTC 2017	0.0	1.047281664E9	2442.339111328125	0.0	2.5731072E7	0.0	2.0	9.31393536E8	36.10923767089844	0.0	0.0	1.061277696E9	1.050116096E9	0.0	0.0	0.09149999916553497	0.04899999871850014	0.04749999940395355	0.9919999837875366	0.7466145157814026	0.0	244.0	371.0	0.0	0.0	0.0	0.0	0.0	0.0	null	null	null	null	null	null	null	null	334.0	334.0	336.0	335.0	336.0	335.0	334.0	334.0	331.0	337.0	337.0	
Sun Jun 04 10:20:00 UTC 2017	0.0	1.047281664E9	3493.05859375	0.0	2.5731072E7	0.0	2.0	9.31483648E8	59.06412124633789	0.0	0.0	1.062289408E9	1.050116096E9	0.0	0.0	0.07500000298023224	0.05350000038743019	0.045499999076128006	0.9919999837875366	0.7466287016868591	0.0	244.0	371.0	0.0	0.0	0.0	0.0	0.0	0.0	null	null	null	null	null	null	null	null	335.0	334.0	336.0	334.0	336.0	330.0	335.0	334.0	337.0	333.0	334.0	
Sun Jun 04 10:19:00 UTC 2017	0.0	1.048293376E9	3493.05859375	0.0	2.5731072E7	0.0	3.0	9.31393536E8	59.06412124633789	0.0	0.0	1.061277696E9	1.050116096E9	0.0	0.0	0.07649999856948853	0.04924999922513962	0.05274999886751175	0.9919999837875366	0.7466149926185608	0.0	244.0	371.0	0.0	0.0	0.0	0.0	0.0	0.0	null	null	null	null	null	null	null	null	335.0	335.0	332.0	335.0	333.0	334.0	331.0	334.0	333.0	333.0	334.0	
Sun Jun 04 10:18:00 UTC 2017	0.0	1.047281664E9	3493.05859375	0.0	2.5731072E7	0.0	2.0	9.31393536E8	47.905426025390625	0.0	0.0	1.062289408E9	1.050116096E9	0.0	0.0	0.07249999791383743	0.04874999821186066	0.048250000923871994	0.9917500019073486	0.7466306090354919	0.0	244.0	371.0	0.0	0.0	0.0	0.0	0.0	0.0	null	null	null	null	null	null	null	null	333.0	334.0	335.0	336.0	334.0	337.0	334.0	332.0	335.0	332.0	335.0	
Sun Jun 04 10:17:00 UTC 2017	0.0	1.047281664E9	2782.5498046875	0.0	2.5731072E7	0.0	2.0	9.31393536E8	34.04045867919922	0.0	0.0	1.061277696E9	1.050116096E9	0.0	0.0	0.07450000196695328	0.0572500005364418	0.04349999874830246	0.9917500019073486	0.7466301321983337	0.0	244.0	371.0	0.0	0.0	0.0	0.0	0.0	0.0	null	null	null	null	null	null	null	null	336.0	333.0	335.0	335.0	333.0	332.0	334.0	337.0	336.0	335.0	335.0	
Sun Jun 04 10:16:00 UTC 2017	0.0	1.047281664E9	2643.82763671875	0.0	2.5731072E7	0.0	2.0	9.31180544E8	34.04045867919922	0.0	0.0	1.062289408E9	1.050116096E9	0.0	0.0	0.07925000041723251	0.04574999958276749	0.04650000110268593	0.9919999837875366	0.746615469455719	0.0	244.0	371.0	0.0	0.0	0.0	0.0	0.0	0.0	null	null	null	null	null	null	null	null	333.0	338.0	334.0	332.0	336.0	334.0	333.0	333.0	330.0	336.0	335.0	
Sun Jun 04 10:15:00 UTC 2017	0.0	1.048293376E9	2643.82763671875	0.0	2.5731072E7	0.0	3.0	9.31270656E8	56.14331817626953	0.0	0.0	1.061277696E9	1.050116096E9	0.0	0.0	0.07874999940395355	0.05350000038743019	0.04800000041723251	0.9919999837875366	0.7465988397598267	0.0	244.0	371.0	0.0	0.0	0.0	0.0	0.0	0.0	null	null	null	null	null	null	null	null	335.0	332.0	335.0	337.0	334.0	338.0	335.0	334.0	335.0	333.0	334.0	
Sun Jun 04 10:14:00 UTC 2017	0.0	1.048293376E9	3132.890869140625	0.0	2.5731072E7	0.0	3.0	9.31180544E8	86.0782699584961	0.0	1.0	1.062289408E9	1.050116096E9	0.0	0.0	0.07100000232458115	0.04650000110268593	0.0507499985396862	0.9922500252723694	0.7465993165969849	0.0	244.0	371.0	0.0	0.0	0.0	0.0	0.0	0.0	null	null	null	null	null	null	null	null	335.0	335.0	333.0	335.0	336.0	329.0	334.0	333.0	338.0	335.0	336.0	
Sun Jun 04 10:13:00 UTC 2017	0.0	1.047281664E9	3132.890869140625	0.0	2.5731072E7	0.0	3.0	9.31180544E8	45.13322830200195	0.0	0.0	1.061277696E9	1.050116096E9	0.0	0.0	0.07374999672174454	0.05274999886751175	0.0442500002682209	0.9919999837875366	0.7465915083885193	0.0	244.0	371.0	0.0	0.0	0.0	0.0	0.0	0.0	null	null	null	null	null	null	null	null	336.0	336.0	339.0	336.0	334.0	334.0	335.0	332.0	331.0	337.0	335.0	
Sun Jun 04 10:12:00 UTC 2017	0.0	1.047281664E9	2635.847900390625	0.0	2.5731072E7	0.0	3.0	9.31180544E8	61.152530670166016	0.0	0.0	1.061277696E9	1.050116096E9	0.0	0.0	0.07824999839067459	0.05225000157952309	0.051750000566244125	0.9917500019073486	0.746527910232544	0.0	244.0	371.0	0.0	0.0	0.0	0.0	0.0	0.0	null	null	null	null	null	null	null	null	332.0	332.0	331.0	337.0	335.0	332.0	334.0	333.0	337.0	336.0	336.0	
Sun Jun 04 10:11:00 UTC 2017	0.0	1.047281664E9	2609.7060546875	0.0	2.5731072E7	0.0	2.0	9.30955264E8	61.1316032409668	0.0	0.0	1.062289408E9	1.050116096E9	0.0	0.0	0.09425000101327896	0.04800000041723251	0.04324999824166298	0.9917500019073486	0.7464432716369629	0.0	244.0	371.0	0.0	0.0	0.0	0.0	0.0	0.0	null	null	null	null	null	null	null	null	336.0	334.0	336.0	336.0	336.0	333.0	332.0	331.0	336.0	335.0	335.0	
Sun Jun 04 10:10:00 UTC 2017	0.0	1.047281664E9	2233.74560546875	0.0	2.5731072E7	0.0	3.0	9.3130752E8	60.649810791015625	0.0	0.0	1.061277696E9	1.050116096E9	0.0	0.0	0.08399999886751175	0.051249999552965164	0.0494999997317791	0.9917500019073486	0.7465234994888306	0.0	244.0	371.0	0.0	0.0	0.0	0.0	0.0	0.0	null	null	null	null	null	null	null	null	337.0	336.0	335.0	336.0	337.0	334.0	335.0	335.0	338.0	336.0	335.0	
Sun Jun 04 10:09:00 UTC 2017	0.0	1.048293376E9	2233.74560546875	0.0	2.5731072E7	0.0	3.0	9.30942976E8	60.649810791015625	0.0	1.0	1.061277696E9	1.050116096E9	0.0	0.0	0.06449999660253525	0.05050000175833702	0.04774999991059303	0.9917500019073486	0.7465097904205322	0.0	244.0	371.0	0.0	0.0	0.0	0.0	0.0	0.0	null	null	null	null	null	null	null	null	335.0	333.0	334.0	335.0	334.0	333.0	333.0	333.0	333.0	333.0	334.0	
Sun Jun 04 10:08:00 UTC 2017	0.0	1.047281664E9	2233.74560546875	0.0	2.5731072E7	0.0	4.0	9.30942976E8	36.35551834106445	0.0	1.0	1.062289408E9	1.050116096E9	0.0	0.0	0.07524999976158142	0.05874999985098839	0.048500001430511475	0.9919999837875366	0.7465053796768188	0.0	244.0	371.0	0.0	0.0	0.0	0.0	0.0	0.0	null	null	null	null	null	null	null	null	331.0	333.0	334.0	334.0	334.0	338.0	335.0	336.0	334.0	334.0	335.0	
Sun Jun 04 10:07:00 UTC 2017	0.0	1.047281664E9	3487.806640625	0.0	2.5731072E7	0.0	4.0	9.30942976E8	36.35551834106445	1.0	2.0	1.062289408E9	1.050116096E9	0.0	0.0	0.07474999874830246	0.05350000038743019	0.051500000059604645	0.9917500019073486	0.7464897036552429	0.0	244.0	371.0	0.0	0.0	0.0	0.0	0.0	0.0	null	null	null	null	null	null	null	null	336.0	337.0	333.0	335.0	334.0	333.0	335.0	333.0	335.0	333.0	335.0	
Sun Jun 04 10:06:00 UTC 2017	0.0	1.047281664E9	2385.38623046875	0.0	2.5731072E7	0.0	2.0	9.3073408E8	36.35551834106445	0.0	1.0	1.061277696E9	1.050116096E9	0.0	0.0	0.07900000363588333	0.05249999836087227	0.04349999874830246	0.9919999837875366	0.7464725971221924	0.0	244.0	371.0	0.0	0.0	0.0	0.0	0.0	0.0	null	null	null	null	null	null	null	null	336.0	337.0	335.0	335.0	337.0	333.0	337.0	334.0	335.0	335.0	335.0	
Sun Jun 04 10:05:00 UTC 2017	0.0	1.048293376E9	2385.38623046875	0.0	2.5731072E7	0.0	2.0	9.30824192E8	36.35551834106445	0.0	0.0	1.061277696E9	1.050116096E9	0.0	0.0	0.07774999737739563	0.04924999922513962	0.05274999886751175	0.9919999837875366	0.7464471459388733	0.0	244.0	371.0	0.0	0.0	0.0	0.0	0.0	0.0	null	null	null	null	null	null	null	null	335.0	332.0	336.0	337.0	333.0	338.0	331.0	337.0	339.0	332.0	335.0	
Sun Jun 04 10:04:00 UTC 2017	0.0	1.048293376E9	2432.85791015625	0.0	2.5731072E7	0.0	2.0	9.3073408E8	41.02812194824219	0.0	0.0	1.062289408E9	1.050116096E9	0.0	0.0	0.06875000149011612	0.05324999988079071	0.04724999889731407	0.9922500252723694	0.7463879585266113	0.0	244.0	371.0	0.0	0.0	0.0	0.0	0.0	0.0	null	null	null	null	null	null	null	null	335.0	336.0	334.0	333.0	334.0	332.0	339.0	332.0	334.0	338.0	335.0	
Sun Jun 04 10:03:00 UTC 2017	0.0	1.047281664E9	2432.85791015625	0.0	2.5731072E7	0.0	2.0	9.3073408E8	49.09158706665039	0.0	0.0	1.061277696E9	1.050116096E9	0.0	0.0	0.07750000059604645	0.051249999552965164	0.042249999940395355	0.9925000071525574	0.7463693618774414	0.0	244.0	371.0	0.0	0.0	0.0	0.0	0.0	0.0	null	null	null	null	null	null	null	null	333.0	334.0	336.0	333.0	335.0	336.0	331.0	336.0	336.0	336.0	332.0	
Sun Jun 04 10:02:00 UTC 2017	0.0	1.048293376E9	2432.85791015625	0.0	2.5731072E7	0.0	2.0	9.3073408E8	46.084163665771484	0.0	0.0	1.062289408E9	1.050116096E9	0.0	0.0	0.07175000011920929	0.0494999997317791	0.04774999991059303	0.9922500252723694	0.7470337748527527	0.0	244.0	371.0	0.0	0.0	0.0	0.0	0.0	0.0	null	null	null	null	null	null	null	null	337.0	338.0	334.0	335.0	336.0	336.0	336.0	333.0	335.0	334.0	339.0	
Sun Jun 04 10:01:00 UTC 2017	0.0	1.047281664E9	2432.85791015625	0.0	2.5731072E7	0.0	2.0	9.30521088E8	46.084163665771484	0.0	0.0	1.061277696E9	1.050116096E9	0.0	0.0	0.09274999797344208	0.04574999958276749	0.04724999889731407	0.9919999837875366	0.7462925314903259	0.0	244.0	371.0	0.0	0.0	0.0	0.0	0.0	0.0	null	null	null	null	null	null	null	null	336.0	337.0	334.0	335.0	331.0	336.0	337.0	339.0	335.0	332.0	335.0	
Sun Jun 04 10:00:00 UTC 2017	0.0	1.048293376E9	2432.85791015625	0.0	2.5731072E7	0.0	4.0	9.306112E8	46.084163665771484	0.0	0.0	1.061277696E9	1.050116096E9	0.0	0.0	0.0767500028014183	0.05274999886751175	0.04975000023841858	0.9919999837875366	0.7463331818580627	0.0	244.0	371.0	0.0	0.0	0.0	0.0	0.0	0.0	null	null	null	null	null	null	null	null	333.0	336.0	334.0	333.0	337.0	334.0	332.0	336.0	336.0	339.0	335.0	
Sun Jun 04 09:59:00 UTC 2017	0.0	1.047281664E9	2432.85791015625	0.0	2.5731072E7	0.0	2.0	9.30521088E8	77.74749755859375	0.0	0.0	1.061277696E9	1.050116096E9	0.0	0.0	0.07599999755620956	0.048500001430511475	0.051500000059604645	0.9919999837875366	0.7461985945701599	0.0	244.0	371.0	0.0	0.0	0.0	0.0	0.0	0.0	null	null	null	null	null	null	null	null	338.0	332.0	333.0	336.0	333.0	335.0	333.0	333.0	332.0	331.0	333.0	
Sun Jun 04 09:58:00 UTC 2017	0.0	1.048293376E9	2432.85791015625	0.0	2.5731072E7	0.0	2.0	9.30521088E8	53.60708999633789	0.0	0.0	1.061277696E9	1.050116096E9	0.0	0.0	0.0729999989271164	0.051500000059604645	0.0442500002682209	0.9919999837875366	0.7461682558059692	0.0	244.0	371.0	0.0	0.0	0.0	0.0	0.0	0.0	null	null	null	null	null	null	null	null	332.0	338.0	333.0	335.0	338.0	335.0	339.0	335.0	340.0	335.0	339.0	
Sun Jun 04 09:57:00 UTC 2017	0.0	1.047281664E9	2432.85791015625	0.0	2.5731072E7	0.0	2.0	9.30521088E8	42.364158630371094	0.0	0.0	1.061277696E9	1.050116096E9	0.0	0.0	0.07900000363588333	0.054499998688697815	0.048250000923871994	0.9922500252723694	0.7461531162261963	0.0	244.0	371.0	0.0	0.0	0.0	0.0	0.0	0.0	null	null	null	null	null	null	null	null	338.0	335.0	335.0	334.0	336.0	332.0	334.0	336.0	331.0	339.0	331.0	
Sun Jun 04 09:56:00 UTC 2017	0.0	1.048293376E9	2432.85791015625	0.0	2.5731072E7	0.0	2.0	9.30308096E8	42.364158630371094	0.0	0.0	1.061277696E9	1.050116096E9	0.0	0.0	0.07599999755620956	0.051750000566244125	0.04600000008940697	0.9922500252723694	0.7461354732513428	0.0	244.0	371.0	0.0	0.0	0.0	0.0	0.0	0.0	null	null	null	null	null	null	null	null	332.0	334.0	339.0	332.0	336.0	339.0	333.0	334.0	335.0	337.0	335.0	
Sun Jun 04 09:55:00 UTC 2017	0.0	1.047281664E9	2432.85791015625	0.0	2.5731072E7	0.0	4.0	9.30398208E8	42.364158630371094	0.0	0.0	1.061277696E9	1.050116096E9	0.0	0.0	0.06925000250339508	0.050999999046325684	0.04600000008940697	0.9917500019073486	0.7461961507797241	0.0	244.0	371.0	0.0	0.0	0.0	0.0	0.0	0.0	null	null	null	null	null	null	null	null	340.0	333.0	331.0	336.0	334.0	333.0	334.0	332.0	333.0	333.0	337.0	
Sun Jun 04 09:54:00 UTC 2017	0.0	1.047281664E9	3070.093505859375	0.0	2.5731072E7	0.0	2.0	9.30308096E8	42.364158630371094	0.0	0.0	1.062289408E9	1.050116096E9	0.0	0.0	0.08349999785423279	0.048250000923871994	0.051500000059604645	0.9919999837875366	0.7484277486801147	0.0	244.0	371.0	0.0	0.0	0.0	0.0	0.0	0.0	null	null	null	null	null	null	null	null	333.0	338.0	332.0	330.0	334.0	332.0	337.0	336.0	335.0	338.0	333.0	
Sun Jun 04 09:53:00 UTC 2017	0.0	1.047281664E9	3350.739990234375	0.0	2.5731072E7	0.0	2.0	9.30308096E8	42.364158630371094	0.0	0.0	1.062289408E9	1.050116096E9	0.0	0.0	0.0754999965429306	0.048500001430511475	0.04924999922513962	0.9919999837875366	0.746161937713623	0.0	244.0	371.0	0.0	0.0	0.0	0.0	0.0	0.0	null	null	null	null	null	null	null	null	338.0	332.0	335.0	338.0	333.0	335.0	335.0	332.0	337.0	332.0	333.0	
Sun Jun 04 09:52:00 UTC 2017	0.0	1.048293376E9	3350.739990234375	0.0	2.5731072E7	0.0	2.0	9.30308096E8	65.68445587158203	0.0	0.0	1.062289408E9	1.050116096E9	0.0	0.0	0.07349999994039536	0.05624999850988388	0.042750000953674316	0.9919999837875366	0.7461604475975037	0.0	244.0	371.0	0.0	0.0	0.0	0.0	0.0	0.0	null	null	null	null	null	null	null	null	334.0	335.0	339.0	333.0	337.0	335.0	333.0	334.0	333.0	334.0	335.0	
Sun Jun 04 09:51:00 UTC 2017	0.0	1.048293376E9	2856.093994140625	0.0	2.5731072E7	0.0	2.0	9.300992E8	53.73073959350586	0.0	0.0	1.062289408E9	1.050116096E9	0.0	0.0	0.08924999833106995	0.0494999997317791	0.051750000566244125	0.9919999837875366	0.7461428046226501	0.0	244.0	371.0	0.0	0.0	0.0	0.0	0.0	0.0	null	null	null	null	null	null	null	null	331.0	337.0	334.0	332.0	332.0	337.0	332.0	339.0	337.0	333.0	336.0	
Sun Jun 04 09:50:00 UTC 2017	0.0	1.047281664E9	2856.093994140625	0.0	2.5731072E7	0.0	3.0	9.30189312E8	39.061370849609375	0.0	0.0	1.062289408E9	1.050116096E9	0.0	null	0.07824999839067459	0.05000000074505806	0.04600000008940697	0.9919999837875366	0.7461428046226501	0.0	244.0	371.0	0.0	0.0	0.0	0.0	0.0	0.0	null	null	null	null	null	null	null	null	335.0	338.0	338.0	332.0	339.0	332.0	337.0	333.0	331.0	336.0	335.0	
Sun Jun 04 09:49:00 UTC 2017	0.0	1.047281664E9	3035.39892578125	0.0	2.5731072E7	0.0	2.0	9.300992E8	39.061370849609375	0.0	0.0	1.062289408E9	1.050116096E9	0.0	0.0	0.07824999839067459	0.05299999937415123	0.05025000125169754	0.9919999837875366	0.7461223006248474	0.0	244.0	371.0	0.0	0.0	0.0	0.0	0.0	0.0	null	null	null	null	null	null	null	null	335.0	333.0	330.0	336.0	332.0	334.0	335.0	335.0	334.0	333.0	333.0	
Sun Jun 04 09:48:00 UTC 2017	0.0	1.048293376E9	3035.39892578125	0.0	2.5731072E7	0.0	3.0	9.300992E8	39.061370849609375	0.0	0.0	1.062289408E9	1.050116096E9	0.0	0.0	0.07275000214576721	0.05299999937415123	0.04749999940395355	0.9922500252723694	0.7461095452308655	0.0	244.0	371.0	0.0	0.0	0.0	0.0	0.0	0.0	null	null	null	null	null	null	null	null	334.0	333.0	335.0	330.0	334.0	334.0	335.0	334.0	334.0	336.0	336.0	
Sun Jun 04 09:47:00 UTC 2017	0.0	1.047281664E9	3035.39892578125	0.0	2.5731072E7	0.0	4.0	9.300992E8	37.3174934387207	0.0	0.0	1.062289408E9	1.050116096E9	0.0	0.0	0.07649999856948853	0.05274999886751175	0.0442500002682209	0.9917500019073486	0.7483954429626465	0.0	244.0	371.0	0.0	0.0	0.0	0.0	0.0	0.0	null	null	null	null	null	null	null	null	332.0	333.0	338.0	335.0	335.0	336.0	335.0	333.0	335.0	334.0	336.0	
Sun Jun 04 09:46:00 UTC 2017	0.0	1.048293376E9	3035.39892578125	0.0	2.5731072E7	0.0	2.0	9.29886208E8	38.00959777832031	0.0	0.0	1.061277696E9	1.050116096E9	0.0	0.0	0.0742499977350235	0.050999999046325684	0.04899999871850014	0.9919999837875366	0.7460880279541016	0.0	244.0	371.0	0.0	0.0	0.0	0.0	0.0	0.0	null	null	null	null	null	null	null	null	338.0	337.0	335.0	334.0	336.0	331.0	332.0	337.0	338.0	332.0	334.0	
Sun Jun 04 09:45:00 UTC 2017	0.0	1.048293376E9	3001.63330078125	0.0	2.5731072E7	0.0	2.0	9.2997632E8	45.761600494384766	1.0	1.0	1.061277696E9	1.050116096E9	0.0	0.0	0.06975000351667404	0.04899999871850014	0.0494999997317791	0.9919999837875366	0.7460762858390808	0.0	244.0	371.0	0.0	0.0	0.0	0.0	0.0	0.0	null	null	null	null	null	null	null	null	332.0	336.0	337.0	333.0	332.0	337.0	335.0	334.0	332.0	336.0	335.0	
Sun Jun 04 09:44:00 UTC 2017	0.0	1.047281664E9	3001.63330078125	0.0	2.5731072E7	0.0	2.0	9.29886208E8	45.761600494384766	0.0	0.0	1.061277696E9	1.050116096E9	0.0	0.0	0.07925000041723251	0.051750000566244125	0.04600000008940697	0.9917500019073486	0.7460620999336243	0.0	244.0	371.0	0.0	0.0	0.0	0.0	0.0	0.0	null	null	null	null	null	null	null	null	335.0	333.0	332.0	332.0	334.0	333.0	336.0	333.0	336.0	331.0	335.0	
Sun Jun 04 09:43:00 UTC 2017	0.0	1.047281664E9	2797.162841796875	0.0	2.5731072E7	0.0	2.0	9.29886208E8	45.761600494384766	0.0	0.0	1.062289408E9	1.050116096E9	0.0	0.0	0.07699999958276749	0.05025000125169754	0.04600000008940697	0.9919999837875366	0.7480030655860901	0.0	244.0	371.0	0.0	0.0	0.0	0.0	0.0	0.0	null	null	null	null	null	null	null	null	335.0	333.0	337.0	336.0	338.0	333.0	336.0	333.0	337.0	336.0	332.0	
Sun Jun 04 09:42:00 UTC 2017	0.0	1.048293376E9	2797.162841796875	0.0	2.5731072E7	0.0	2.0	9.29886208E8	45.93922424316406	0.0	0.0	1.062289408E9	1.050116096E9	0.0	0.0	0.07000000029802322	0.051249999552965164	0.05025000125169754	0.9919999837875366	0.7460253834724426	0.0	244.0	371.0	0.0	0.0	0.0	0.0	0.0	0.0	null	null	null	null	null	null	null	null	335.0	339.0	336.0	333.0	333.0	337.0	335.0	336.0	333.0	336.0	337.0	
Sun Jun 04 09:41:00 UTC 2017	0.0	1.048293376E9	3102.98388671875	0.0	2.5731072E7	0.0	2.0	9.29673216E8	45.93922424316406	0.0	0.0	1.062289408E9	1.050116096E9	0.0	0.0	0.10499999672174454	0.05324999988079071	0.04699999839067459	0.9919999837875366	0.7459632754325867	0.0	244.0	371.0	0.0	0.0	0.0	0.0	0.0	0.0	null	null	null	null	null	null	null	null	331.0	335.0	334.0	336.0	338.0	333.0	331.0	333.0	333.0	335.0	332.0	
Sun Jun 04 09:40:00 UTC 2017	0.0	1.047281664E9	3102.98388671875	0.0	2.5731072E7	0.0	5.0	9.29763328E8	49.193058013916016	0.0	0.0	1.062289408E9	1.050116096E9	0.0	0.0	0.07325000315904617	0.054749999195337296	0.04924999922513962	0.9917500019073486	0.7459573745727539	0.0	244.0	371.0	0.0	0.0	0.0	0.0	0.0	0.0	null	null	null	null	null	null	null	null	336.0	332.0	334.0	337.0	334.0	331.0	334.0	334.0	335.0	332.0	336.0	
Sun Jun 04 09:39:00 UTC 2017	0.0	1.047281664E9	2711.58544921875	0.0	2.5731072E7	0.0	2.0	9.29673216E8	49.193058013916016	0.0	0.0	1.061277696E9	1.050116096E9	0.0	0.0	0.07199999690055847	0.045499999076128006	0.045249998569488525	0.9922500252723694	0.7459363341331482	0.0	244.0	371.0	0.0	0.0	0.0	0.0	0.0	0.0	null	null	null	null	null	null	null	null	334.0	338.0	334.0	332.0	333.0	337.0	335.0	336.0	334.0	335.0	332.0	
Sun Jun 04 09:38:00 UTC 2017	0.0	1.048293376E9	2711.58544921875	0.0	2.5731072E7	0.0	2.0	9.29673216E8	52.77093505859375	0.0	0.0	1.062289408E9	1.050116096E9	0.0	0.0	0.08174999803304672	0.05700000002980232	0.048500001430511475	0.9919999837875366	0.745920717716217	0.0	244.0	371.0	0.0	0.0	0.0	0.0	0.0	0.0	null	null	null	null	null	null	null	null	335.0	335.0	335.0	336.0	331.0	334.0	335.0	334.0	338.0	334.0	335.0	
Sun Jun 04 09:37:00 UTC 2017	0.0	1.047281664E9	2711.58544921875	0.0	2.5731072E7	0.0	2.0	9.29673216E8	52.77093505859375	0.0	0.0	1.061277696E9	1.050116096E9	0.0	0.0	0.07150000333786011	0.04800000041723251	0.04874999821186066	0.9922500252723694	0.7459231615066528	0.0	244.0	371.0	0.0	0.0	0.0	0.0	0.0	0.0	null	null	null	null	null	null	null	null	336.0	333.0	334.0	332.0	335.0	331.0	336.0	336.0	333.0	334.0	333.0	
Sun Jun 04 09:36:00 UTC 2017	0.0	1.048293376E9	2711.58544921875	0.0	2.5731072E7	0.0	2.0	9.2946432E8	48.80699157714844	0.0	0.0	1.061277696E9	1.050116096E9	0.0	0.0	0.06750000268220901	0.04749999940395355	0.04774999991059303	0.9915000200271606	0.7458815574645996	0.0	244.0	371.0	0.0	0.0	0.0	0.0	0.0	0.0	null	null	null	null	null	null	null	null	331.0	335.0	335.0	338.0	335.0	337.0	333.0	334.0	334.0	336.0	334.0	
Sun Jun 04 09:35:00 UTC 2017	0.0	1.048293376E9	2677.154541015625	0.0	2.5731072E7	0.0	2.0	9.29554432E8	44.36060333251953	0.0	0.0	1.061277696E9	1.050116096E9	0.0	null	0.07575000077486038	0.054249998182058334	0.04675000160932541	0.9919999837875366	0.7458747029304504	0.0	244.0	371.0	0.0	0.0	0.0	0.0	0.0	0.0	null	null	null	null	null	null	null	null	337.0	334.0	334.0	332.0	331.0	335.0	333.0	336.0	335.0	336.0	336.0	
Sun Jun 04 09:34:00 UTC 2017	0.0	1.047281664E9	2677.154541015625	0.0	2.5731072E7	0.0	5.0	9.2946432E8	56.00275802612305	0.0	0.0	1.061277696E9	1.050116096E9	0.0	null	0.07774999737739563	0.05299999937415123	0.05375000089406967	0.9922500252723694	0.7459074854850769	0.0	244.0	371.0	0.0	0.0	0.0	0.0	0.0	0.0	null	null	null	null	null	null	null	null	336.0	334.0	334.0	341.0	336.0	333.0	337.0	336.0	334.0	332.0	336.0	
Sun Jun 04 09:33:00 UTC 2017	0.0	1.048293376E9	2677.154541015625	0.0	2.5731072E7	0.0	9.0	9.2946432E8	52.22945785522461	0.0	0.0	1.062289408E9	1.050116096E9	0.0	null	0.07474999874830246	0.042500000447034836	0.05375000089406967	0.9919999837875366	0.745832622051239	0.0	244.0	371.0	0.0	0.0	0.0	0.0	0.0	0.0	null	null	null	null	null	null	null	null	333.0	337.0	337.0	332.0	334.0	336.0	332.0	333.0	337.0	337.0	337.0	
Sun Jun 04 09:32:00 UTC 2017	0.0	1.048293376E9	2443.56396484375	0.0	2.5731072E7	0.0	2.0	9.2946432E8	52.22945785522461	0.0	0.0	1.062289408E9	1.050116096E9	0.0	null	0.07699999958276749	0.05375000089406967	0.045499999076128006	0.9922500252723694	0.7458727359771729	0.0	244.0	371.0	0.0	0.0	0.0	0.0	0.0	0.0	null	null	null	null	null	null	null	null	337.0	333.0	336.0	336.0	336.0	334.0	339.0	336.0	336.0	332.0	333.0	
Sun Jun 04 09:31:00 UTC 2017	0.0	1.047281664E9	2443.56396484375	0.0	2.5731072E7	0.0	2.0	9.29247232E8	52.22945785522461	1.0	1.0	1.061277696E9	1.050116096E9	0.0	null	0.09775000065565109	0.052000001072883606	0.04450000077486038	0.9922500252723694	0.7458018064498901	0.0	244.0	371.0	0.0	0.0	0.0	0.0	0.0	0.0	null	null	null	null	null	null	null	null	333.0	335.0	334.0	335.0	333.0	337.0	335.0	336.0	338.0	338.0	337.0	
Sun Jun 04 09:30:00 UTC 2017	0.0	1.047281664E9	3069.36962890625	0.0	2.5731072E7	0.0	3.0	9.29337344E8	52.22945785522461	0.0	0.0	1.061277696E9	1.050116096E9	0.0	null	0.07349999994039536	0.054249998182058334	0.0507499985396862	0.9922500252723694	0.7458042502403259	0.0	244.0	371.0	0.0	0.0	0.0	0.0	0.0	0.0	null	null	null	null	null	null	null	null	333.0	333.0	334.0	333.0	332.0	335.0	338.0	334.0	334.0	336.0	334.0	
Sun Jun 04 09:29:00 UTC 2017	0.0	1.048293376E9	3069.36962890625	0.0	2.5731072E7	0.0	2.0	9.29247232E8	39.270164489746094	0.0	0.0	1.061277696E9	1.050116096E9	0.0	0.0	0.0729999989271164	0.04699999839067459	0.04899999871850014	0.9919999837875366	0.7457866668701172	0.0	244.0	371.0	0.0	0.0	0.0	0.0	0.0	0.0	null	null	null	null	null	null	null	null	333.0	334.0	332.0	337.0	333.0	335.0	333.0	336.0	336.0	334.0	333.0	
Sun Jun 04 09:28:00 UTC 2017	0.0	1.047281664E9	3069.36962890625	0.0	2.5731072E7	0.0	2.0	9.29247232E8	38.07903289794922	0.0	0.0	1.062289408E9	1.050116096E9	0.0	0.0	0.08025000244379044	0.0507499985396862	0.04874999821186066	0.9919999837875366	0.7457802891731262	0.0	244.0	371.0	0.0	0.0	0.0	0.0	0.0	0.0	null	null	null	null	null	null	null	null	338.0	335.0	335.0	334.0	336.0	334.0	336.0	335.0	336.0	333.0	335.0	
Sun Jun 04 09:27:00 UTC 2017	0.0	1.048293376E9	3069.36962890625	0.0	2.5731072E7	0.0	3.0	9.29247232E8	38.07903289794922	0.0	0.0	1.061277696E9	1.050116096E9	0.0	0.0	0.0689999982714653	0.051500000059604645	0.04149999842047691	0.9917500019073486	0.7457787990570068	0.0	244.0	371.0	0.0	0.0	0.0	0.0	0.0	0.0	null	null	null	null	null	null	null	null	332.0	335.0	333.0	332.0	333.0	338.0	335.0	333.0	334.0	336.0	334.0	
Sun Jun 04 09:26:00 UTC 2017	0.0	1.048293376E9	2711.33837890625	0.0	2.5731072E7	0.0	5.0	9.2903424E8	38.07903289794922	0.0	0.0	1.062289408E9	1.050116096E9	0.0	0.0	0.07699999958276749	0.0507499985396862	0.04924999922513962	0.9922500252723694	0.7480465769767761	0.0	244.0	371.0	0.0	0.0	0.0	0.0	0.0	0.0	null	null	null	null	null	null	null	null	338.0	334.0	334.0	339.0	335.0	337.0	339.0	334.0	333.0	338.0	334.0	
Sun Jun 04 09:25:00 UTC 2017	0.0	1.047281664E9	2711.33837890625	0.0	2.5731072E7	0.0	2.0	9.29124352E8	38.07903289794922	0.0	0.0	1.061277696E9	1.050116096E9	0.0	0.0	0.0794999971985817	0.05050000175833702	0.04899999871850014	0.9922500252723694	0.7457484602928162	0.0	244.0	371.0	0.0	0.0	0.0	0.0	0.0	0.0	null	null	null	null	null	null	null	null	334.0	335.0	336.0	331.0	337.0	334.0	334.0	338.0	336.0	336.0	336.0	
Sun Jun 04 09:24:00 UTC 2017	0.0	1.047281664E9	2814.699951171875	0.0	2.5731072E7	0.0	2.0	9.2903424E8	47.10966110229492	0.0	0.0	1.062289408E9	1.050116096E9	0.0	0.0	0.07750000059604645	0.05225000157952309	0.04924999922513962	0.9922500252723694	0.7480319142341614	0.0	244.0	371.0	0.0	0.0	0.0	0.0	0.0	0.0	null	null	null	null	null	null	null	null	333.0	333.0	335.0	334.0	334.0	335.0	333.0	336.0	335.0	331.0	335.0	
Sun Jun 04 09:23:00 UTC 2017	0.0	1.047281664E9	3130.411865234375	0.0	2.5731072E7	0.0	4.0	9.2903424E8	46.897972106933594	0.0	0.0	1.062289408E9	1.050116096E9	0.0	0.0	0.0689999982714653	0.04450000077486038	0.045249998569488525	0.9922500252723694	0.745695173740387	0.0	244.0	371.0	0.0	0.0	0.0	0.0	0.0	0.0	null	null	null	null	null	null	null	null	336.0	334.0	334.0	334.0	334.0	334.0	333.0	334.0	333.0	336.0	334.0	
Sun Jun 04 09:22:00 UTC 2017	0.0	1.048293376E9	3130.411865234375	0.0	2.5731072E7	0.0	3.0	9.2903424E8	46.897972106933594	0.0	0.0	1.062289408E9	1.050116096E9	0.0	0.0	0.08150000125169754	0.052000001072883606	0.04800000041723251	0.9919999837875366	0.7456843852996826	0.0	244.0	371.0	0.0	0.0	0.0	0.0	0.0	0.0	null	null	null	null	null	null	null	null	337.0	337.0	338.0	339.0	340.0	332.0	338.0	332.0	333.0	333.0	335.0	
Sun Jun 04 09:21:00 UTC 2017	0.0	1.048293376E9	2735.06005859375	0.0	2.5731072E7	0.0	2.0	9.28825344E8	46.897972106933594	0.0	0.0	1.062289408E9	1.050116096E9	0.0	0.0	0.0949999988079071	0.04800000041723251	0.0494999997317791	0.9917500019073486	0.745682418346405	0.0	244.0	371.0	0.0	0.0	0.0	0.0	0.0	0.0	null	null	null	null	null	null	null	null	332.0	329.0	334.0	330.0	330.0	336.0	332.0	336.0	334.0	333.0	337.0	
Sun Jun 04 09:20:00 UTC 2017	0.0	1.048293376E9	2913.048095703125	0.0	2.5731072E7	0.0	2.0	9.2891136E8	49.21209716796875	0.0	0.0	1.061277696E9	1.050116096E9	0.0	0.0	0.08124999701976776	0.05700000002980232	0.04650000110268593	0.9922500252723694	0.7456584572792053	0.0	244.0	371.0	0.0	0.0	0.0	0.0	0.0	0.0	null	null	null	null	null	null	null	null	333.0	337.0	330.0	335.0	335.0	336.0	333.0	339.0	336.0	334.0	336.0	
Sun Jun 04 09:19:00 UTC 2017	0.0	1.047281664E9	2913.048095703125	0.0	2.5731072E7	0.0	2.0	9.28821248E8	49.21209716796875	0.0	0.0	1.061277696E9	1.050116096E9	0.0	null	0.07599999755620956	0.04749999940395355	0.0494999997317791	0.9919999837875366	0.745635449886322	0.0	244.0	371.0	0.0	0.0	0.0	0.0	0.0	0.0	null	null	null	null	null	null	null	null	339.0	334.0	335.0	335.0	332.0	337.0	338.0	332.0	338.0	334.0	332.0	
Sun Jun 04 09:18:00 UTC 2017	0.0	1.048293376E9	2913.048095703125	0.0	2.5731072E7	0.0	2.0	9.28821248E8	49.21209716796875	0.0	0.0	1.061277696E9	1.050116096E9	0.0	null	0.06975000351667404	0.05350000038743019	0.04475000128149986	0.9922500252723694	0.7456599473953247	0.0	244.0	371.0	0.0	0.0	0.0	0.0	0.0	0.0	null	null	null	null	null	null	null	null	332.0	336.0	336.0	338.0	331.0	335.0	334.0	335.0	331.0	338.0	339.0	
Sun Jun 04 09:17:00 UTC 2017	0.0	1.048293376E9	2940.064697265625	0.0	2.5731072E7	0.0	3.0	9.28821248E8	47.24784469604492	0.0	0.0	1.061277696E9	1.050116096E9	0.0	0.0	0.07724999636411667	0.04800000041723251	0.051500000059604645	0.9919999837875366	0.7456623911857605	0.0	244.0	371.0	0.0	0.0	0.0	0.0	0.0	0.0	null	null	null	null	null	null	null	null	334.0	335.0	331.0	335.0	334.0	334.0	332.0	338.0	336.0	334.0	330.0	
Sun Jun 04 09:16:00 UTC 2017	0.0	1.047281664E9	2940.064697265625	0.0	2.5731072E7	0.0	7.0	9.28702464E8	53.129127502441406	0.0	0.0	1.061277696E9	1.050116096E9	0.0	0.0	0.07699999958276749	0.05350000038743019	0.04899999871850014	0.9919999837875366	0.745638906955719	0.0	244.0	371.0	0.0	0.0	0.0	0.0	0.0	0.0	null	null	null	null	null	null	null	null	337.0	332.0	335.0	331.0	335.0	334.0	338.0	335.0	338.0	332.0	335.0	
Sun Jun 04 09:15:00 UTC 2017	0.0	1.047281664E9	3100.15234375	0.0	2.5731072E7	0.0	3.0	9.28702464E8	42.77387619018555	0.0	0.0	1.062289408E9	1.050116096E9	0.0	0.0	0.06650000065565109	0.04699999839067459	0.042249999940395355	0.9917500019073486	0.7479125261306763	0.0	244.0	371.0	0.0	0.0	0.0	0.0	0.0	0.0	null	null	null	null	null	null	null	null	338.0	335.0	336.0	335.0	337.0	336.0	333.0	331.0	333.0	334.0	335.0	
Sun Jun 04 09:14:00 UTC 2017	0.0	1.047281664E9	2257.82958984375	0.0	2.5731072E7	0.0	2.0	9.28612352E8	42.77387619018555	0.0	0.0	1.061277696E9	1.050116096E9	0.0	0.0	0.07524999976158142	0.05624999850988388	0.051750000566244125	0.9922500252723694	0.7456055879592896	0.0	244.0	371.0	0.0	0.0	0.0	0.0	0.0	0.0	null	null	null	null	null	null	null	null	331.0	338.0	334.0	334.0	333.0	335.0	333.0	336.0	337.0	334.0	335.0	
Sun Jun 04 09:13:00 UTC 2017	0.0	1.047281664E9	2300.64599609375	0.0	2.5731072E7	0.0	2.0	9.28612352E8	42.23260498046875	0.0	0.0	1.061277696E9	1.050116096E9	0.0	0.0	0.07824999839067459	0.04600000008940697	0.0442500002682209	0.9917500019073486	0.7456075549125671	0.0	244.0	371.0	0.0	0.0	0.0	0.0	0.0	0.0	null	null	null	null	null	null	null	null	336.0	335.0	334.0	336.0	333.0	334.0	337.0	331.0	332.0	333.0	336.0	
Sun Jun 04 09:12:00 UTC 2017	0.0	1.047281664E9	2608.335693359375	0.0	2.5731072E7	0.0	2.0	9.28612352E8	42.23260498046875	0.0	0.0	1.061277696E9	1.050116096E9	0.0	0.0	0.0754999965429306	0.0494999997317791	0.04899999871850014	0.9922500252723694	0.7455757856369019	0.0	244.0	371.0	0.0	0.0	0.0	0.0	0.0	0.0	null	null	null	null	null	null	null	null	335.0	332.0	334.0	335.0	336.0	337.0	334.0	335.0	333.0	337.0	332.0	
Sun Jun 04 09:11:00 UTC 2017	0.0	1.048293376E9	2608.335693359375	0.0	2.5731072E7	0.0	3.0	9.2839936E8	42.23260498046875	0.0	0.0	1.061277696E9	1.050116096E9	0.0	null	0.1002499982714653	0.05400000140070915	0.0442500002682209	0.9922500252723694	0.7455288171768188	0.0	244.0	371.0	0.0	0.0	0.0	0.0	0.0	0.0	null	null	null	null	null	null	null	null	333.0	335.0	334.0	331.0	335.0	338.0	338.0	331.0	335.0	331.0	338.0	
Sun Jun 04 09:10:00 UTC 2017	0.0	1.048293376E9	2774.47119140625	0.0	2.5731072E7	0.0	4.0	9.28751616E8	74.96522521972656	0.0	0.0	1.061277696E9	1.050116096E9	0.0	0.0	0.0742499977350235	0.04924999922513962	0.051249999552965164	0.9919999837875366	0.7454578280448914	0.0	244.0	371.0	0.0	0.0	0.0	0.0	0.0	0.0	null	null	null	null	null	null	null	null	338.0	337.0	335.0	337.0	336.0	333.0	330.0	334.0	336.0	336.0	330.0	
Sun Jun 04 09:09:00 UTC 2017	0.0	1.048293376E9	2736.8447265625	0.0	2.5731072E7	0.0	2.0	9.28239616E8	36.90365982055664	0.0	0.0	1.061277696E9	1.050116096E9	0.0	null	0.06825000047683716	0.05050000175833702	0.050999999046325684	0.9922500252723694	0.7454378008842468	0.0	244.0	371.0	0.0	0.0	0.0	0.0	0.0	0.0	null	null	null	null	null	null	null	null	332.0	332.0	337.0	335.0	332.0	333.0	336.0	335.0	333.0	331.0	338.0	
Sun Jun 04 09:08:00 UTC 2017	0.0	1.048293376E9	2849.719482421875	0.0	2.5731072E7	0.0	2.0	9.28239616E8	36.90365982055664	0.0	0.0	1.062289408E9	1.050116096E9	0.0	null	0.08425000309944153	0.054499998688697815	0.04324999824166298	0.9925000071525574	0.7454617619514465	0.0	244.0	371.0	0.0	0.0	0.0	0.0	0.0	0.0	null	null	null	null	null	null	null	null	335.0	337.0	330.0	335.0	338.0	337.0	334.0	334.0	336.0	334.0	335.0	
Sun Jun 04 09:07:00 UTC 2017	0.0	1.048293376E9	2669.408935546875	0.0	2.5731072E7	0.0	3.0	9.28239616E8	59.68471908569336	0.0	0.0	1.062289408E9	1.050116096E9	0.0	null	0.06949999928474426	0.04625000059604645	0.04800000041723251	0.9922500252723694	0.7454553842544556	0.0	244.0	371.0	0.0	0.0	0.0	0.0	0.0	0.0	null	null	null	null	null	null	null	null	330.0	335.0	335.0	336.0	329.0	337.0	335.0	337.0	334.0	337.0	336.0	
Sun Jun 04 09:06:00 UTC 2017	0.0	1.048293376E9	2648.482177734375	0.0	2.5731072E7	0.0	2.0	9.28026624E8	40.892269134521484	0.0	0.0	1.062289408E9	1.050116096E9	0.0	0.0	0.07575000077486038	0.054749999195337296	0.05000000074505806	0.9919999837875366	0.7454392910003662	0.0	244.0	371.0	0.0	0.0	0.0	0.0	0.0	0.0	null	null	null	null	null	null	null	null	337.0	335.0	337.0	336.0	338.0	337.0	335.0	328.0	335.0	334.0	334.0	
Sun Jun 04 09:05:00 UTC 2017	0.0	1.047281664E9	2648.482177734375	0.0	2.5731072E7	0.0	4.0	9.28116736E8	46.508575439453125	0.0	0.0	1.062289408E9	1.050116096E9	0.0	null	0.06925000250339508	0.05299999937415123	0.04399999976158142	0.9919999837875366	0.7477315068244934	0.0	244.0	371.0	0.0	0.0	0.0	0.0	0.0	0.0	null	null	null	null	null	null	null	null	331.0	334.0	334.0	332.0	333.0	330.0	335.0	336.0	335.0	336.0	336.0	
Sun Jun 04 09:04:00 UTC 2017	0.0	1.047281664E9	2734.00927734375	0.0	2.5731072E7	0.0	2.0	9.28026624E8	43.560386657714844	0.0	0.0	1.061277696E9	1.050116096E9	0.0	null	0.08025000244379044	0.051750000566244125	0.04899999871850014	0.9919999837875366	0.7454250454902649	0.0	244.0	371.0	0.0	0.0	0.0	0.0	0.0	0.0	null	null	null	null	null	null	null	null	336.0	336.0	334.0	333.0	331.0	337.0	334.0	333.0	333.0	332.0	336.0	
Sun Jun 04 09:03:00 UTC 2017	0.0	1.047281664E9	2486.10400390625	0.0	2.5731072E7	0.0	2.0	9.28026624E8	43.560386657714844	2.0	1.0	1.062289408E9	1.050116096E9	0.0	null	0.07575000077486038	0.04724999889731407	0.048500001430511475	0.9922500252723694	0.7453922629356384	0.0	244.0	371.0	0.0	0.0	0.0	0.0	0.0	0.0	null	null	null	null	null	null	null	null	335.0	335.0	336.0	338.0	335.0	334.0	336.0	336.0	334.0	333.0	334.0	
Sun Jun 04 09:02:00 UTC 2017	0.0	1.047281664E9	3230.333740234375	0.0	2.5731072E7	0.0	2.0	9.28026624E8	42.09279251098633	0.0	0.0	1.062289408E9	1.050116096E9	0.0	null	0.07175000011920929	0.0507499985396862	0.04374999925494194	0.9922500252723694	0.7453751564025879	0.0	244.0	371.0	0.0	0.0	0.0	0.0	0.0	0.0	null	null	null	null	null	null	null	null	334.0	332.0	337.0	334.0	334.0	335.0	335.0	335.0	333.0	337.0	335.0	
Sun Jun 04 09:01:00 UTC 2017	0.0	1.048293376E9	3230.333740234375	0.0	2.5731072E7	0.0	2.0	9.2790784E8	57.42463684082031	0.0	0.0	1.061277696E9	1.050116096E9	0.0	null	0.09825000166893005	0.05324999988079071	0.04874999821186066	0.9919999837875366	0.7453590035438538	0.0	244.0	371.0	0.0	0.0	0.0	0.0	0.0	0.0	null	null	null	null	null	null	null	null	335.0	337.0	333.0	334.0	335.0	336.0	332.0	333.0	337.0	335.0	336.0	
Sun Jun 04 09:00:00 UTC 2017	0.0	1.047281664E9	3230.333740234375	0.0	2.5731072E7	0.0	2.0	9.2790784E8	57.42463684082031	0.0	0.0	1.061277696E9	1.050116096E9	0.0	0.0	0.07199999690055847	0.05249999836087227	0.04749999940395355	0.9919999837875366	0.7453360557556152	0.0	244.0	371.0	0.0	0.0	0.0	0.0	0.0	0.0	null	null	null	null	null	null	null	null	334.0	334.0	332.0	337.0	338.0	333.0	334.0	334.0	334.0	335.0	334.0	
Sun Jun 04 08:59:00 UTC 2017	0.0	1.048293376E9	3230.333740234375	0.0	2.5731072E7	0.0	3.0	9.27817728E8	57.42463684082031	1.0	1.0	1.062289408E9	1.050116096E9	0.0	0.0	0.08150000125169754	0.04800000041723251	0.04800000041723251	0.9919999837875366	0.7454666495323181	0.0	244.0	371.0	0.0	0.0	0.0	0.0	0.0	0.0	null	null	null	null	null	null	null	null	333.0	333.0	337.0	335.0	334.0	338.0	334.0	333.0	333.0	331.0	334.0	
Sun Jun 04 08:58:00 UTC 2017	0.0	1.048293376E9	2488.877197265625	0.0	2.5731072E7	0.0	2.0	9.27817728E8	57.42463684082031	1.0	1.0	1.061277696E9	1.050116096E9	0.0	0.0	0.0754999965429306	0.05674999952316284	0.04749999940395355	0.9919999837875366	0.7453115582466125	0.0	244.0	371.0	0.0	0.0	0.0	0.0	0.0	0.0	null	null	null	null	null	null	null	null	335.0	336.0	336.0	336.0	334.0	335.0	334.0	332.0	333.0	337.0	336.0	
Sun Jun 04 08:57:00 UTC 2017	0.0	1.048293376E9	2444.865966796875	0.0	2.5731072E7	0.0	4.0	9.27817728E8	57.42463684082031	0.0	0.0	1.061277696E9	1.050116096E9	0.0	0.0	0.07150000333786011	0.04899999871850014	0.051249999552965164	0.9917500019073486	0.7453022599220276	0.0	244.0	371.0	0.0	0.0	0.0	0.0	0.0	0.0	null	null	null	null	null	null	null	null	334.0	336.0	331.0	336.0	334.0	334.0	335.0	338.0	339.0	335.0	334.0	
Sun Jun 04 08:56:00 UTC 2017	0.0	1.047281664E9	2444.865966796875	0.0	2.5731072E7	0.0	2.0	9.27604736E8	37.15489959716797	0.0	0.0	1.061277696E9	1.050116096E9	0.0	0.0	0.07225000113248825	0.054999999701976776	0.04324999824166298	0.9917500019073486	0.7452836632728577	0.0	244.0	371.0	0.0	0.0	0.0	0.0	0.0	0.0	null	null	null	null	null	null	null	null	336.0	335.0	337.0	331.0	334.0	334.0	334.0	330.0	333.0	332.0	334.0	
Sun Jun 04 08:55:00 UTC 2017	0.0	1.047281664E9	2914.765869140625	0.0	2.5731072E7	0.0	2.0	9.27694848E8	37.15489959716797	0.0	0.0	1.061277696E9	1.050116096E9	0.0	null	0.06875000149011612	0.04874999821186066	0.04924999922513962	0.9917500019073486	0.7453262209892273	0.0	244.0	371.0	0.0	0.0	0.0	0.0	0.0	0.0	null	null	null	null	null	null	null	null	335.0	333.0	333.0	336.0	335.0	334.0	338.0	336.0	337.0	335.0	334.0	
Sun Jun 04 08:54:00 UTC 2017	0.0	1.047281664E9	2559.896484375	0.0	2.5731072E7	0.0	2.0	9.27604736E8	61.31766128540039	0.0	0.0	1.062289408E9	1.050116096E9	0.0	null	0.08524999767541885	0.05350000038743019	0.045499999076128006	0.9919999837875366	0.7460885047912598	0.0	244.0	371.0	0.0	0.0	0.0	0.0	0.0	0.0	null	null	null	null	null	null	null	null	334.0	333.0	334.0	337.0	333.0	334.0	335.0	333.0	334.0	334.0	334.0	
Sun Jun 04 08:53:00 UTC 2017	0.0	1.048293376E9	2559.896484375	0.0	2.5731072E7	0.0	3.0	9.27604736E8	61.31766128540039	0.0	0.0	1.062289408E9	1.050116096E9	0.0	null	0.07074999809265137	0.04374999925494194	0.051249999552965164	0.9919999837875366	0.7462470531463623	0.0	244.0	371.0	0.0	0.0	0.0	0.0	0.0	0.0	null	null	null	null	null	null	null	null	333.0	337.0	333.0	333.0	334.0	334.0	334.0	333.0	335.0	334.0	332.0	
Sun Jun 04 08:52:00 UTC 2017	0.0	1.048293376E9	3026.129638671875	0.0	2.5731072E7	0.0	2.0	9.27604736E8	61.31766128540039	0.0	0.0	1.061277696E9	1.050116096E9	0.0	null	0.07750000059604645	0.0560000017285347	0.0442500002682209	0.9922500252723694	0.7452176213264465	0.0	244.0	371.0	0.0	0.0	0.0	0.0	0.0	0.0	null	null	null	null	null	null	null	null	338.0	336.0	337.0	337.0	338.0	336.0	336.0	338.0	335.0	337.0	337.0	
Sun Jun 04 08:51:00 UTC 2017	0.0	1.047281664E9	3026.129638671875	0.0	2.5731072E7	0.0	3.0	9.27391744E8	45.273658752441406	0.0	0.0	1.061277696E9	1.050116096E9	0.0	null	0.09300000220537186	0.0494999997317791	0.05249999836087227	0.9922500252723694	0.7474868893623352	0.0	244.0	371.0	0.0	0.0	0.0	0.0	0.0	0.0	null	null	null	null	null	null	null	null	336.0	334.0	333.0	333.0	334.0	337.0	334.0	336.0	334.0	334.0	336.0	
Sun Jun 04 08:50:00 UTC 2017	0.0	1.047281664E9	2666.27197265625	0.0	2.5731072E7	0.0	3.0	9.27481856E8	45.273658752441406	0.0	0.0	1.062289408E9	1.050116096E9	0.0	null	0.07450000196695328	0.05525000020861626	0.04600000008940697	0.9919999837875366	0.7474785447120667	0.0	244.0	371.0	0.0	0.0	0.0	0.0	0.0	0.0	null	null	null	null	null	null	null	null	331.0	335.0	333.0	339.0	334.0	334.0	339.0	335.0	335.0	336.0	335.0	
Sun Jun 04 08:49:00 UTC 2017	0.0	1.047281664E9	2503.197509765625	0.0	2.5731072E7	0.0	2.0	9.27391744E8	45.273658752441406	0.0	0.0	1.062289408E9	1.050116096E9	0.0	null	0.07325000315904617	0.048500001430511475	0.04724999889731407	0.9922500252723694	0.7451745867729187	0.0	244.0	371.0	0.0	0.0	0.0	0.0	0.0	0.0	null	null	null	null	null	null	null	null	336.0	335.0	339.0	333.0	330.0	335.0	335.0	333.0	335.0	335.0	332.0	
Sun Jun 04 08:48:00 UTC 2017	0.0	1.048293376E9	2503.197509765625	0.0	2.5731072E7	0.0	2.0	9.27391744E8	59.678443908691406	0.0	0.0	1.062289408E9	1.050116096E9	0.0	0.0	0.07524999976158142	0.04924999922513962	0.04675000160932541	0.9919999837875366	0.7451569437980652	0.0	244.0	371.0	0.0	0.0	0.0	0.0	0.0	0.0	null	null	null	null	null	null	null	null	336.0	334.0	332.0	336.0	337.0	339.0	335.0	339.0	333.0	332.0	337.0	
Sun Jun 04 08:47:00 UTC 2017	0.0	1.048293376E9	2865.32177734375	0.0	2.5731072E7	0.0	3.0	9.27391744E8	42.78874206542969	0.0	0.0	1.062289408E9	1.050116096E9	0.0	0.0	0.07599999755620956	0.0507499985396862	0.0507499985396862	0.9919999837875366	0.745140790939331	0.0	244.0	371.0	0.0	0.0	0.0	0.0	0.0	0.0	null	null	null	null	null	null	null	null	334.0	335.0	334.0	335.0	335.0	334.0	333.0	336.0	336.0	337.0	333.0	
Sun Jun 04 08:46:00 UTC 2017	0.0	1.048293376E9	2409.1396484375	0.0	2.5731072E7	0.0	2.0	9.2727296E8	42.78874206542969	0.0	0.0	1.062289408E9	1.050116096E9	0.0	null	0.07699999958276749	0.052000001072883606	0.04399999976158142	0.9919999837875366	0.7451232075691223	0.0	244.0	371.0	0.0	0.0	0.0	0.0	0.0	0.0	null	null	null	null	null	null	null	null	333.0	339.0	336.0	334.0	331.0	333.0	334.0	331.0	336.0	333.0	338.0	
Sun Jun 04 08:45:00 UTC 2017	0.0	1.048293376E9	2441.27490234375	0.0	2.5731072E7	0.0	2.0	9.2727296E8	42.66021728515625	0.0	0.0	1.062289408E9	1.050116096E9	0.0	0.0	0.07925000041723251	0.04650000110268593	0.0494999997317791	0.9919999837875366	0.7450957894325256	0.0	244.0	371.0	0.0	0.0	0.0	0.0	0.0	0.0	null	null	null	null	null	null	null	null	338.0	331.0	335.0	337.0	336.0	336.0	336.0	338.0	337.0	334.0	335.0	
Sun Jun 04 08:44:00 UTC 2017	0.0	1.047281664E9	2441.27490234375	0.0	2.5731072E7	0.0	2.0	9.27182848E8	42.66021728515625	0.0	0.0	1.061277696E9	1.050116096E9	0.0	0.0	0.06724999845027924	0.051750000566244125	0.05225000157952309	0.9919999837875366	0.7446549534797668	0.0	244.0	371.0	0.0	0.0	0.0	0.0	0.0	0.0	null	null	null	null	null	null	null	null	334.0	335.0	330.0	332.0	331.0	335.0	335.0	334.0	331.0	334.0	333.0	
Sun Jun 04 08:43:00 UTC 2017	0.0	1.047281664E9	2578.77001953125	0.0	2.5731072E7	0.0	3.0	9.27182848E8	56.9693603515625	0.0	0.0	1.062289408E9	1.050116096E9	0.0	0.0	0.07349999994039536	0.04899999871850014	0.04625000059604645	0.9917500019073486	0.7446480989456177	0.0	244.0	371.0	0.0	0.0	0.0	0.0	0.0	0.0	null	null	null	null	null	null	null	null	333.0	335.0	334.0	338.0	335.0	336.0	332.0	337.0	335.0	335.0	335.0	
Sun Jun 04 08:42:00 UTC 2017	0.0	1.048293376E9	2578.77001953125	0.0	2.5731072E7	0.0	5.0	9.27182848E8	56.9693603515625	0.0	0.0	1.061277696E9	1.050116096E9	0.0	0.0	0.0767500028014183	0.05050000175833702	0.05249999836087227	0.9919999837875366	0.7447019219398499	0.0	244.0	371.0	0.0	0.0	0.0	0.0	0.0	0.0	null	null	null	null	null	null	null	null	337.0	335.0	336.0	333.0	335.0	331.0	332.0	334.0	334.0	333.0	332.0	
Sun Jun 04 08:41:00 UTC 2017	0.0	1.047281664E9	2578.77001953125	0.0	2.5731072E7	0.0	3.0	9.2696576E8	56.9693603515625	0.0	0.0	1.061277696E9	1.050116096E9	0.0	0.0	0.10050000250339508	0.05575000122189522	0.0442500002682209	0.9919999837875366	0.7446505427360535	0.0	244.0	371.0	0.0	0.0	0.0	0.0	0.0	0.0	null	null	null	null	null	null	null	null	335.0	333.0	339.0	333.0	335.0	339.0	334.0	333.0	334.0	335.0	335.0	
Sun Jun 04 08:40:00 UTC 2017	0.0	1.047281664E9	3459.35693359375	0.0	2.5731072E7	0.0	3.0	9.27055872E8	56.9693603515625	0.0	0.0	1.061277696E9	1.050116096E9	0.0	0.0	0.08250000327825546	0.051500000059604645	0.048500001430511475	0.9919999837875366	0.7445840239524841	0.0	244.0	371.0	0.0	0.0	0.0	0.0	0.0	0.0	null	null	null	null	null	null	null	null	338.0	337.0	333.0	338.0	334.0	331.0	334.0	333.0	338.0	337.0	336.0	
Sun Jun 04 08:39:00 UTC 2017	0.0	1.047281664E9	2570.326904296875	0.0	2.5731072E7	0.0	2.0	9.2696576E8	56.9693603515625	0.0	0.0	1.061277696E9	1.050116096E9	0.0	0.0	0.07124999910593033	0.04675000160932541	0.04625000059604645	0.9922500252723694	0.7445629835128784	0.0	244.0	371.0	0.0	0.0	0.0	0.0	0.0	0.0	null	null	null	null	null	null	null	null	334.0	333.0	333.0	333.0	335.0	336.0	334.0	336.0	331.0	333.0	336.0	
Sun Jun 04 08:38:00 UTC 2017	0.0	1.047281664E9	2330.956298828125	0.0	2.5731072E7	0.0	2.0	9.2696576E8	45.62913131713867	0.0	0.0	1.062289408E9	1.050116096E9	0.0	0.0	0.07050000131130219	0.04675000160932541	0.05050000175833702	0.9919999837875366	0.7444807887077332	0.0	244.0	371.0	0.0	0.0	0.0	0.0	0.0	0.0	null	null	null	null	null	null	null	null	334.0	332.0	336.0	335.0	336.0	333.0	335.0	333.0	333.0	334.0	334.0	
Sun Jun 04 08:37:00 UTC 2017	0.0	1.048293376E9	2330.956298828125	0.0	2.5731072E7	0.0	3.0	9.2696576E8	41.90888977050781	0.0	0.0	1.061277696E9	1.050116096E9	0.0	0.0	0.0767500028014183	0.050999999046325684	0.0430000014603138	0.9922500252723694	0.7444655895233154	0.0	244.0	371.0	0.0	0.0	0.0	0.0	0.0	0.0	null	null	null	null	null	null	null	null	337.0	336.0	334.0	333.0	335.0	334.0	332.0	333.0	335.0	339.0	333.0	
Sun Jun 04 08:36:00 UTC 2017	0.0	1.047281664E9	2330.956298828125	0.0	2.5731072E7	0.0	2.0	9.26736384E8	45.14659881591797	0.0	0.0	1.062289408E9	1.050116096E9	0.0	0.0	0.07199999690055847	0.054749999195337296	0.04899999871850014	0.9922500252723694	0.7459661960601807	0.0	244.0	371.0	0.0	0.0	0.0	0.0	0.0	0.0	null	null	null	null	null	null	null	null	337.0	334.0	338.0	334.0	333.0	335.0	335.0	336.0	336.0	335.0	336.0	
Sun Jun 04 08:35:00 UTC 2017	0.0	1.047281664E9	3401.935791015625	0.0	2.5731072E7	0.0	2.0	9.26826496E8	54.12502670288086	0.0	0.0	1.061277696E9	1.050116096E9	0.0	0.0	0.07599999755620956	0.04774999991059303	0.05025000125169754	0.9919999837875366	0.7444460391998291	0.0	244.0	371.0	0.0	0.0	0.0	0.0	0.0	0.0	null	null	null	null	null	null	null	null	334.0	334.0	334.0	336.0	337.0	335.0	334.0	333.0	336.0	336.0	337.0	
Sun Jun 04 08:34:00 UTC 2017	0.0	1.047281664E9	3044.353271484375	0.0	2.5731072E7	0.0	2.0	9.26736384E8	50.438053131103516	0.0	1.0	1.062289408E9	1.050116096E9	0.0	0.0	0.08174999803304672	0.052000001072883606	0.04349999874830246	0.9922500252723694	0.7444289326667786	0.0	244.0	371.0	0.0	0.0	0.0	0.0	0.0	0.0	null	null	null	null	null	null	null	null	335.0	333.0	332.0	332.0	336.0	336.0	335.0	334.0	335.0	332.0	335.0	
Sun Jun 04 08:33:00 UTC 2017	0.0	1.048293376E9	3044.353271484375	0.0	2.5731072E7	0.0	4.0	9.26736384E8	50.438053131103516	0.0	0.0	1.061277696E9	1.050116096E9	0.0	0.0	0.07349999994039536	0.05674999952316284	0.05000000074505806	0.9922500252723694	0.7444127798080444	0.0	244.0	371.0	0.0	0.0	0.0	0.0	0.0	0.0	null	null	null	null	null	null	null	null	335.0	335.0	337.0	334.0	333.0	334.0	336.0	335.0	331.0	335.0	335.0	
Sun Jun 04 08:32:00 UTC 2017	0.0	1.048293376E9	2747.595947265625	0.0	2.5731072E7	0.0	2.0	9.26736384E8	50.438053131103516	0.0	0.0	1.062289408E9	1.050116096E9	0.0	0.0	0.06650000065565109	0.051500000059604645	0.04774999991059303	0.9922500252723694	0.7443902492523193	0.0	244.0	371.0	0.0	0.0	0.0	0.0	0.0	0.0	null	null	null	null	null	null	null	null	335.0	332.0	335.0	336.0	336.0	335.0	336.0	335.0	336.0	337.0	333.0	
Sun Jun 04 08:31:00 UTC 2017	0.0	1.048293376E9	2625.151123046875	0.0	2.5731072E7	0.0	2.0	9.26527488E8	50.438053131103516	0.0	0.0	1.062289408E9	1.050116096E9	0.0	0.0	0.1042499989271164	0.041749998927116394	0.048250000923871994	0.9922500252723694	0.7443740963935852	0.0	244.0	371.0	0.0	0.0	0.0	0.0	0.0	0.0	null	null	null	null	null	null	null	null	335.0	334.0	333.0	336.0	333.0	334.0	333.0	333.0	333.0	336.0	338.0	
Sun Jun 04 08:30:00 UTC 2017	0.0	1.047281664E9	2625.151123046875	0.0	2.5731072E7	0.0	2.0	9.266176E8	50.438053131103516	0.0	0.0	1.062289408E9	1.050116096E9	0.0	0.0	0.06750000268220901	0.05249999836087227	0.04975000023841858	0.9919999837875366	0.7444054484367371	0.0	244.0	371.0	0.0	0.0	0.0	0.0	0.0	0.0	null	null	null	null	null	null	null	null	333.0	336.0	335.0	338.0	337.0	337.0	335.0	336.0	332.0	335.0	332.0	
Sun Jun 04 08:29:00 UTC 2017	0.0	1.047281664E9	2451.71484375	0.0	2.5731072E7	0.0	2.0	9.26527488E8	50.438053131103516	0.0	0.0	1.061277696E9	1.050116096E9	0.0	0.0	0.08550000190734863	0.04774999991059303	0.048250000923871994	0.9922500252723694	0.7443560361862183	0.0	244.0	371.0	0.0	0.0	0.0	0.0	0.0	0.0	null	null	null	null	null	null	null	null	333.0	335.0	334.0	332.0	334.0	333.0	337.0	330.0	335.0	335.0	335.0	
Sun Jun 04 08:28:00 UTC 2017	0.0	1.048293376E9	2451.71484375	0.0	2.5731072E7	0.0	3.0	9.26527488E8	60.7638053894043	0.0	0.0	1.062289408E9	1.050116096E9	0.0	0.0	0.07000000029802322	0.05350000038743019	0.042750000953674316	0.9922500252723694	0.7443912625312805	0.0	244.0	371.0	0.0	0.0	0.0	0.0	0.0	0.0	null	null	null	null	null	null	null	null	337.0	335.0	334.0	339.0	336.0	334.0	335.0	336.0	333.0	334.0	331.0	
Sun Jun 04 08:27:00 UTC 2017	0.0	1.048293376E9	2949.2861328125	0.0	2.5731072E7	0.0	4.0	9.26527488E8	60.7638053894043	0.0	0.0	1.062289408E9	1.050116096E9	0.0	0.0	0.07724999636411667	0.045249998569488525	0.05225000157952309	0.9917500019073486	0.744376540184021	0.0	244.0	371.0	0.0	0.0	0.0	0.0	0.0	0.0	null	null	null	null	null	null	null	null	334.0	333.0	333.0	334.0	331.0	332.0	333.0	334.0	334.0	335.0	337.0	
Sun Jun 04 08:26:00 UTC 2017	0.0	1.048293376E9	2507.906005859375	0.0	2.5731072E7	0.0	3.0	9.26404608E8	60.7638053894043	0.0	0.0	1.062289408E9	1.050116096E9	0.0	null	0.07750000059604645	0.05324999988079071	0.05025000125169754	0.9922500252723694	0.7443604469299316	0.0	244.0	371.0	0.0	0.0	0.0	0.0	0.0	0.0	null	null	null	null	null	null	null	null	336.0	337.0	338.0	335.0	338.0	336.0	337.0	337.0	336.0	333.0	334.0	
Sun Jun 04 08:25:00 UTC 2017	0.0	1.048293376E9	2640.095703125	0.0	2.5731072E7	0.0	2.0	9.26404608E8	41.57498550415039	0.0	0.0	1.061277696E9	1.050116096E9	0.0	null	0.06925000250339508	0.051750000566244125	0.04625000059604645	0.9915000200271606	0.7466384768486023	0.0	244.0	371.0	0.0	0.0	0.0	0.0	0.0	0.0	null	null	null	null	null	null	null	null	331.0	337.0	332.0	333.0	333.0	335.0	335.0	333.0	334.0	333.0	333.0	
Sun Jun 04 08:24:00 UTC 2017	1.0	1.047281664E9	2640.095703125	0.0	2.5731072E7	0.0	2.0	9.26314496E8	41.57498550415039	0.0	0.0	1.061277696E9	1.050116096E9	0.0	0.0	0.0729999989271164	0.04800000041723251	0.04500000178813934	0.9919999837875366	0.744335949420929	0.0	244.0	371.0	0.0	0.0	0.0	0.0	0.0	0.0	null	null	null	null	null	null	null	null	338.0	331.0	335.0	336.0	334.0	335.0	333.0	336.0	334.0	335.0	333.0	
Sun Jun 04 08:23:00 UTC 2017	0.0	1.047281664E9	2571.774169921875	0.0	2.5731072E7	0.0	2.0	9.26314496E8	41.57498550415039	0.0	0.0	1.061277696E9	1.050116096E9	0.0	0.0	0.06875000149011612	0.048250000923871994	0.05050000175833702	0.9919999837875366	0.7443349957466125	0.0	244.0	371.0	0.0	0.0	0.0	0.0	0.0	0.0	null	null	null	null	null	null	null	null	331.0	337.0	332.0	338.0	339.0	335.0	340.0	332.0	331.0	335.0	331.0	
Sun Jun 04 08:22:00 UTC 2017	0.0	1.048293376E9	2571.774169921875	0.0	2.5731072E7	0.0	3.0	9.26314496E8	32.41694641113281	0.0	1.0	1.061277696E9	1.050116096E9	0.0	0.0	0.0794999971985817	0.05575000122189522	0.048250000923871994	0.9922500252723694	0.7443315386772156	0.0	244.0	371.0	0.0	0.0	0.0	0.0	0.0	0.0	null	null	null	null	null	null	null	null	337.0	337.0	333.0	334.0	334.0	336.0	335.0	336.0	336.0	334.0	335.0	
Sun Jun 04 08:21:00 UTC 2017	0.0	1.048293376E9	2756.967529296875	0.0	2.5731072E7	0.0	2.0	9.26101504E8	32.41694641113281	0.0	0.0	1.061277696E9	1.050116096E9	0.0	0.0	0.10275000333786011	0.04600000008940697	0.04475000128149986	0.9919999837875366	0.7443149089813232	0.0	244.0	371.0	0.0	0.0	0.0	0.0	0.0	0.0	null	null	null	null	null	null	null	null	336.0	334.0	338.0	336.0	335.0	334.0	334.0	332.0	331.0	335.0	336.0	
Sun Jun 04 08:20:00 UTC 2017	0.0	1.047281664E9	2756.967529296875	0.0	2.5731072E7	0.0	2.0	9.26191616E8	32.41694641113281	0.0	0.0	1.061277696E9	1.050116096E9	0.0	0.0	0.07925000041723251	0.052000001072883606	0.05025000125169754	0.9917500019073486	0.7458292245864868	0.0	244.0	371.0	0.0	0.0	0.0	0.0	0.0	0.0	null	null	null	null	null	null	null	null	331.0	335.0	336.0	334.0	334.0	332.0	334.0	339.0	334.0	335.0	333.0	
Sun Jun 04 08:19:00 UTC 2017	0.0	1.048293376E9	2756.967529296875	0.0	2.5731072E7	0.0	2.0	9.26101504E8	34.06093978881836	0.0	0.0	1.062289408E9	1.050116096E9	0.0	0.0	0.07275000214576721	0.048250000923871994	0.04899999871850014	0.9919999837875366	0.7442620992660522	0.0	244.0	371.0	0.0	0.0	0.0	0.0	0.0	0.0	null	null	null	null	null	null	null	null	335.0	334.0	332.0	337.0	336.0	334.0	335.0	334.0	333.0	334.0	331.0	
Sun Jun 04 08:18:00 UTC 2017	0.0	1.047281664E9	2756.967529296875	0.0	2.5731072E7	0.0	3.0	9.26101504E8	49.02689743041992	1.0	1.0	1.062289408E9	1.050116096E9	0.0	0.0	0.061250001192092896	0.05249999836087227	0.04675000160932541	0.9917500019073486	0.7452229857444763	0.0	244.0	371.0	0.0	0.0	0.0	0.0	0.0	0.0	null	null	null	null	null	null	null	null	336.0	336.0	336.0	333.0	331.0	334.0	334.0	334.0	335.0	332.0	334.0	
Sun Jun 04 08:17:00 UTC 2017	0.0	1.047281664E9	2925.75732421875	0.0	2.5731072E7	0.0	3.0	9.26101504E8	49.02689743041992	0.0	0.0	1.062289408E9	1.050116096E9	0.0	0.0	0.08025000244379044	0.05249999836087227	0.04450000077486038	0.9919999837875366	0.7454872131347656	0.0	244.0	371.0	0.0	0.0	0.0	0.0	0.0	0.0	null	null	null	null	null	null	null	null	335.0	336.0	332.0	334.0	335.0	333.0	335.0	337.0	335.0	335.0	338.0	
Sun Jun 04 08:16:00 UTC 2017	0.0	1.048293376E9	2925.75732421875	0.0	2.5731072E7	0.0	4.0	9.25888512E8	37.853919982910156	0.0	0.0	1.062289408E9	1.050116096E9	0.0	0.0	0.07400000095367432	0.04800000041723251	0.04650000110268593	0.9919999837875366	0.7443017363548279	0.0	244.0	371.0	0.0	0.0	0.0	0.0	0.0	0.0	null	null	null	null	null	null	null	null	333.0	335.0	338.0	332.0	339.0	334.0	334.0	333.0	335.0	336.0	334.0	
Sun Jun 04 08:15:00 UTC 2017	0.0	1.047281664E9	2925.75732421875	0.0	2.5731072E7	0.0	2.0	9.25978624E8	37.853919982910156	0.0	1.0	1.061277696E9	1.050116096E9	0.0	0.0	0.06925000250339508	0.05624999850988388	0.051249999552965164	0.9919999837875366	0.7442209720611572	0.0	244.0	371.0	0.0	0.0	0.0	0.0	0.0	0.0	null	null	null	null	null	null	null	null	339.0	331.0	332.0	338.0	336.0	334.0	333.0	340.0	332.0	334.0	333.0	
Sun Jun 04 08:14:00 UTC 2017	0.0	1.047281664E9	3433.525390625	0.0	2.5731072E7	0.0	2.0	9.25884416E8	37.853919982910156	2.0	3.0	1.061277696E9	1.050116096E9	0.0	0.0	0.08174999803304672	0.0560000017285347	0.048250000923871994	0.9917500019073486	0.7441808581352234	0.0	244.0	371.0	0.0	0.0	0.0	0.0	0.0	0.0	null	null	null	null	null	null	null	null	334.0	337.0	335.0	333.0	331.0	331.0	332.0	334.0	337.0	335.0	334.0	
Sun Jun 04 08:13:00 UTC 2017	0.0	1.048293376E9	3433.525390625	0.0	2.5731072E7	0.0	2.0	9.25884416E8	45.96566390991211	1.0	1.0	1.061277696E9	1.050116096E9	0.0	0.0	0.0625	0.0494999997317791	0.0430000014603138	0.9919999837875366	0.7456232309341431	0.0	244.0	371.0	0.0	0.0	0.0	0.0	0.0	0.0	null	null	null	null	null	null	null	null	332.0	334.0	330.0	335.0	337.0	336.0	333.0	334.0	332.0	332.0	331.0	
Sun Jun 04 08:12:00 UTC 2017	0.0	1.048293376E9	2147.944580078125	0.0	2.5731072E7	0.0	3.0	9.25884416E8	45.96566390991211	0.0	1.0	1.062289408E9	1.050116096E9	0.0	0.0	0.08425000309944153	0.05324999988079071	0.045499999076128006	0.9922500252723694	0.7441475987434387	0.0	244.0	371.0	0.0	0.0	0.0	0.0	0.0	0.0	null	null	null	null	null	null	null	null	338.0	333.0	334.0	338.0	337.0	336.0	333.0	336.0	338.0	337.0	339.0	
Sun Jun 04 08:11:00 UTC 2017	0.0	1.048293376E9	3732.228271484375	0.0	2.5731072E7	0.0	2.0	9.2567552E8	45.96566390991211	0.0	0.0	1.062289408E9	1.050116096E9	0.0	0.0	0.09274999797344208	0.05249999836087227	0.051249999552965164	0.9917500019073486	0.7464368939399719	0.0	244.0	371.0	0.0	0.0	0.0	0.0	0.0	0.0	null	null	null	null	null	null	null	null	335.0	336.0	334.0	336.0	337.0	332.0	333.0	333.0	331.0	337.0	331.0	
Sun Jun 04 08:10:00 UTC 2017	0.0	1.048293376E9	2488.86376953125	0.0	2.5731072E7	0.0	3.0	9.26027776E8	45.96566390991211	0.0	0.0	1.062289408E9	1.050116096E9	0.0	0.0	0.07400000095367432	0.04475000128149986	0.04500000178813934	0.9917500019073486	0.7440986633300781	0.0	244.0	371.0	0.0	0.0	0.0	0.0	0.0	0.0	null	null	null	null	null	null	null	null	331.0	332.0	337.0	336.0	334.0	338.0	332.0	333.0	332.0	335.0	338.0	
Sun Jun 04 08:09:00 UTC 2017	0.0	1.048293376E9	2568.813232421875	0.0	2.5731072E7	0.0	3.0	9.2573696E8	55.47187805175781	0.0	0.0	1.062289408E9	1.050116096E9	0.0	0.0	0.07724999636411667	0.054749999195337296	0.05000000074505806	0.9917500019073486	0.7440751791000366	0.0	244.0	371.0	0.0	0.0	0.0	0.0	0.0	0.0	null	null	null	null	null	null	null	null	333.0	334.0	335.0	331.0	332.0	333.0	334.0	335.0	332.0	333.0	333.0	
Sun Jun 04 08:08:00 UTC 2017	0.0	1.048293376E9	2486.56787109375	0.0	2.5731072E7	0.0	2.0	9.2573696E8	55.47187805175781	1.0	1.0	1.061277696E9	1.050116096E9	0.0	0.0	0.07275000214576721	0.05000000074505806	0.04899999871850014	0.9919999837875366	0.7440472841262817	0.0	244.0	371.0	0.0	0.0	0.0	0.0	0.0	0.0	null	null	null	null	null	null	null	null	336.0	340.0	334.0	335.0	336.0	331.0	336.0	335.0	335.0	334.0	333.0	
Sun Jun 04 08:07:00 UTC 2017	0.0	1.047281664E9	2486.56787109375	0.0	2.5731072E7	0.0	3.0	9.2573696E8	52.71013641357422	0.0	0.0	1.062289408E9	1.050116096E9	0.0	0.0	0.0754999965429306	0.051750000566244125	0.0442500002682209	0.9917500019073486	0.7440311312675476	0.0	244.0	371.0	0.0	0.0	0.0	0.0	0.0	0.0	null	null	null	null	null	null	null	null	334.0	331.0	338.0	336.0	336.0	336.0	330.0	330.0	335.0	338.0	334.0	
Sun Jun 04 08:06:00 UTC 2017	0.0	1.047281664E9	2759.03173828125	0.0	2.5731072E7	0.0	2.0	9.25523968E8	51.54343795776367	0.0	0.0	1.062289408E9	1.050116096E9	0.0	0.0	0.07374999672174454	0.04749999940395355	0.052000001072883606	0.9922500252723694	0.7440179586410522	0.0	244.0	371.0	0.0	0.0	0.0	0.0	0.0	0.0	null	null	null	null	null	null	null	null	333.0	337.0	334.0	333.0	335.0	335.0	336.0	336.0	333.0	333.0	337.0	
Sun Jun 04 08:05:00 UTC 2017	0.0	1.047281664E9	2833.553466796875	0.0	2.5731072E7	0.0	4.0	9.2561408E8	39.39994430541992	0.0	1.0	1.061277696E9	1.050116096E9	0.0	0.0	0.07524999976158142	0.05274999886751175	0.04699999839067459	0.9922500252723694	0.7463008761405945	0.0	244.0	371.0	0.0	0.0	0.0	0.0	0.0	0.0	null	null	null	null	null	null	null	null	336.0	334.0	330.0	334.0	333.0	332.0	334.0	337.0	336.0	336.0	334.0	
Sun Jun 04 08:04:00 UTC 2017	0.0	1.048293376E9	2833.553466796875	0.0	2.5731072E7	0.0	4.0	9.25523968E8	51.73353958129883	0.0	0.0	1.061277696E9	1.050116096E9	0.0	0.0	0.06724999845027924	0.051249999552965164	0.04650000110268593	0.9919999837875366	0.7439959049224854	0.0	244.0	371.0	0.0	0.0	0.0	0.0	0.0	0.0	null	null	null	null	null	null	null	null	335.0	335.0	337.0	336.0	333.0	334.0	334.0	333.0	335.0	332.0	336.0	
Sun Jun 04 08:03:00 UTC 2017	0.0	1.048293376E9	2674.5244140625	0.0	2.5731072E7	0.0	2.0	9.25523968E8	53.75131607055664	0.0	0.0	1.062289408E9	1.050116096E9	0.0	0.0	0.07275000214576721	0.0507499985396862	0.04625000059604645	0.9919999837875366	0.743979275226593	0.0	244.0	371.0	0.0	0.0	0.0	0.0	0.0	0.0	null	null	null	null	null	null	null	null	333.0	334.0	330.0	334.0	333.0	335.0	336.0	334.0	332.0	338.0	335.0	
Sun Jun 04 08:02:00 UTC 2017	0.0	1.048293376E9	3174.38623046875	0.0	2.5731072E7	0.0	2.0	9.2553216E8	53.75131607055664	0.0	0.0	1.062289408E9	1.050116096E9	0.0	0.0	0.07524999976158142	0.05000000074505806	0.04574999958276749	0.9919999837875366	0.7439797520637512	0.0	244.0	371.0	0.0	0.0	0.0	0.0	0.0	0.0	null	null	null	null	null	null	null	null	335.0	336.0	335.0	334.0	336.0	333.0	331.0	334.0	335.0	333.0	334.0	
Sun Jun 04 08:01:00 UTC 2017	0.0	1.047281664E9	3174.38623046875	0.0	2.5731072E7	0.0	2.0	9.25319168E8	56.17020797729492	0.0	0.0	1.061277696E9	1.050116096E9	0.0	0.0	0.11275000125169754	0.05324999988079071	0.05249999836087227	0.9917500019073486	0.7439606785774231	0.0	244.0	371.0	0.0	0.0	0.0	0.0	0.0	0.0	null	null	null	null	null	null	null	null	334.0	333.0	335.0	333.0	331.0	335.0	335.0	334.0	337.0	337.0	333.0	
Sun Jun 04 08:00:00 UTC 2017	0.0	1.047281664E9	2833.68212890625	0.0	2.5731072E7	0.0	2.0	9.2540928E8	45.72848892211914	0.0	0.0	1.062289408E9	1.050116096E9	0.0	0.0	0.0742499977350235	0.04650000110268593	0.0442500002682209	0.9917500019073486	0.7439440488815308	0.0	244.0	371.0	0.0	0.0	0.0	0.0	0.0	0.0	null	null	null	null	null	null	null	null	333.0	333.0	337.0	333.0	334.0	335.0	335.0	336.0	336.0	335.0	334.0	
Sun Jun 04 07:59:00 UTC 2017	0.0	1.048293376E9	2833.68212890625	0.0	2.5731072E7	0.0	3.0	9.25319168E8	37.72188949584961	0.0	0.0	1.061277696E9	1.050116096E9	0.0	0.0	0.07850000262260437	0.04924999922513962	0.04675000160932541	0.9917500019073486	0.7439460158348083	0.0	244.0	371.0	0.0	0.0	0.0	0.0	0.0	0.0	null	null	null	null	null	null	null	null	336.0	333.0	334.0	336.0	333.0	336.0	332.0	333.0	332.0	332.0	334.0	
Sun Jun 04 07:58:00 UTC 2017	0.0	1.048293376E9	2450.03271484375	0.0	2.5731072E7	0.0	2.0	9.25319168E8	37.72188949584961	0.0	0.0	1.061277696E9	1.050116096E9	0.0	0.0	0.07199999690055847	0.04749999940395355	0.04699999839067459	0.9917500019073486	0.7439739108085632	0.0	244.0	371.0	0.0	0.0	0.0	0.0	0.0	0.0	null	null	null	null	null	null	null	null	334.0	334.0	334.0	334.0	332.0	333.0	332.0	334.0	337.0	336.0	333.0	
Sun Jun 04 07:57:00 UTC 2017	0.0	1.047281664E9	2450.03271484375	0.0	2.5731072E7	0.0	3.0	9.25319168E8	37.72188949584961	0.0	0.0	1.061277696E9	1.050116096E9	0.0	0.0	0.07699999958276749	0.0507499985396862	0.045499999076128006	0.9922500252723694	0.7439577579498291	0.0	244.0	371.0	0.0	0.0	0.0	0.0	0.0	0.0	null	null	null	null	null	null	null	null	335.0	331.0	335.0	335.0	335.0	334.0	335.0	335.0	338.0	333.0	339.0	
Sun Jun 04 07:56:00 UTC 2017	0.0	1.047281664E9	2699.507568359375	0.0	2.5731072E7	0.0	2.0	9.25106176E8	37.72188949584961	0.0	0.0	1.061277696E9	1.050116096E9	0.0	0.0	0.0742499977350235	0.05299999937415123	0.04724999889731407	0.9919999837875366	0.7439518570899963	0.0	244.0	371.0	0.0	0.0	0.0	0.0	0.0	0.0	null	null	null	null	null	null	null	null	336.0	335.0	335.0	334.0	336.0	335.0	332.0	333.0	334.0	331.0	335.0	
Sun Jun 04 07:55:00 UTC 2017	0.0	1.047281664E9	2648.273193359375	0.0	2.5731072E7	0.0	2.0	9.25196288E8	37.72188949584961	0.0	0.0	1.062289408E9	1.050116096E9	0.0	0.0	0.07275000214576721	0.04874999821186066	0.05000000074505806	0.9919999837875366	0.7439391613006592	0.0	244.0	371.0	0.0	0.0	0.0	0.0	0.0	0.0	null	null	null	null	null	null	null	null	331.0	335.0	336.0	335.0	333.0	333.0	336.0	334.0	335.0	335.0	337.0	
Sun Jun 04 07:54:00 UTC 2017	0.0	1.047281664E9	3227.150390625	0.0	2.5731072E7	0.0	3.0	9.25106176E8	36.00452423095703	0.0	0.0	1.061277696E9	1.050116096E9	0.0	0.0	0.07175000011920929	0.05550000071525574	0.04899999871850014	0.9922500252723694	0.7462230920791626	0.0	244.0	371.0	0.0	0.0	0.0	0.0	0.0	0.0	null	null	null	null	null	null	null	null	335.0	335.0	335.0	333.0	335.0	335.0	333.0	334.0	336.0	333.0	334.0	
Sun Jun 04 07:53:00 UTC 2017	0.0	1.047281664E9	2625.579833984375	0.0	2.5731072E7	0.0	2.0	9.25106176E8	36.00452423095703	0.0	0.0	1.062289408E9	1.050116096E9	0.0	0.0	0.07349999994039536	0.0442500002682209	0.04125000163912773	0.9922500252723694	0.7439327836036682	0.0	244.0	371.0	0.0	0.0	0.0	0.0	0.0	0.0	null	null	null	null	null	null	null	null	334.0	335.0	333.0	334.0	334.0	336.0	333.0	334.0	337.0	335.0	335.0	
Sun Jun 04 07:52:00 UTC 2017	0.0	1.048293376E9	2625.579833984375	0.0	2.5731072E7	0.0	3.0	9.25106176E8	38.2555046081543	0.0	0.0	1.062289408E9	1.050116096E9	0.0	0.0	0.07850000262260437	0.05824999883770943	0.05274999886751175	0.9922500252723694	0.7439156770706177	0.0	244.0	371.0	0.0	0.0	0.0	0.0	0.0	0.0	null	null	null	null	null	null	null	null	333.0	334.0	334.0	337.0	337.0	330.0	336.0	338.0	334.0	334.0	335.0	
Sun Jun 04 07:51:00 UTC 2017	0.0	1.047281664E9	2625.579833984375	0.0	2.5731072E7	0.0	3.0	9.24893184E8	38.2555046081543	0.0	0.0	1.061277696E9	1.050116096E9	0.0	0.0	0.09200000017881393	0.04399999976158142	0.042750000953674316	0.9919999837875366	0.7438970804214478	0.0	244.0	371.0	0.0	0.0	0.0	0.0	0.0	0.0	null	null	null	null	null	null	null	null	336.0	335.0	339.0	335.0	334.0	335.0	332.0	333.0	336.0	335.0	335.0	
Sun Jun 04 07:50:00 UTC 2017	0.0	1.048293376E9	2625.579833984375	0.0	2.5731072E7	0.0	2.0	9.24983296E8	46.06111526489258	0.0	1.0	1.061277696E9	1.050116096E9	0.0	0.0	0.07925000041723251	0.051750000566244125	0.050999999046325684	0.9919999837875366	0.743894636631012	0.0	244.0	371.0	0.0	0.0	0.0	0.0	0.0	0.0	null	null	null	null	null	null	null	null	333.0	336.0	334.0	335.0	333.0	334.0	335.0	334.0	336.0	333.0	337.0	
Sun Jun 04 07:49:00 UTC 2017	0.0	1.047281664E9	2625.579833984375	0.0	2.5731072E7	0.0	2.0	9.24893184E8	46.06111526489258	0.0	0.0	1.061277696E9	1.050116096E9	0.0	0.0	0.07999999821186066	0.05225000157952309	0.04600000008940697	0.9919999837875366	0.7461717128753662	0.0	244.0	371.0	0.0	0.0	0.0	0.0	0.0	0.0	null	null	null	null	null	null	null	null	332.0	334.0	334.0	334.0	334.0	334.0	334.0	334.0	331.0	334.0	334.0	
Sun Jun 04 07:48:00 UTC 2017	1.0	1.047281664E9	3042.732666015625	0.0	2.5731072E7	0.0	2.0	9.24893184E8	46.06111526489258	0.0	0.0	1.061277696E9	1.050116096E9	0.0	0.0	0.07199999690055847	0.051249999552965164	0.0507499985396862	0.9919999837875366	0.745209813117981	0.0	244.0	371.0	0.0	0.0	0.0	0.0	0.0	0.0	null	null	null	null	null	null	null	null	337.0	332.0	331.0	334.0	333.0	338.0	334.0	334.0	336.0	335.0	333.0	
Sun Jun 04 07:47:00 UTC 2017	0.0	1.047281664E9	2652.49169921875	0.0	2.5731072E7	0.0	3.0	9.24893184E8	63.828147888183594	1.0	1.0	1.061277696E9	1.050116096E9	0.0	0.0	0.06599999964237213	0.057750001549720764	0.04574999958276749	0.9919999837875366	0.7438589334487915	0.0	244.0	371.0	0.0	0.0	0.0	0.0	0.0	0.0	null	null	null	null	null	null	null	null	335.0	338.0	338.0	338.0	336.0	335.0	335.0	331.0	338.0	334.0	337.0	
Sun Jun 04 07:46:00 UTC 2017	0.0	1.047281664E9	2654.814453125	0.0	2.5731072E7	0.0	2.0	9.24680192E8	63.828147888183594	1.0	1.0	1.061277696E9	1.050116096E9	0.0	0.0	0.07824999839067459	0.05050000175833702	0.05225000157952309	0.9922500252723694	0.7438295483589172	0.0	244.0	371.0	0.0	0.0	0.0	0.0	0.0	0.0	null	null	null	null	null	null	null	null	334.0	334.0	332.0	332.0	334.0	331.0	333.0	335.0	334.0	334.0	335.0	
Sun Jun 04 07:45:00 UTC 2017	0.0	1.048293376E9	2654.814453125	0.0	2.5731072E7	0.0	2.0	9.24770304E8	49.98795700073242	0.0	0.0	1.061277696E9	1.050116096E9	0.0	0.0	0.07199999690055847	0.04975000023841858	0.042750000953674316	0.9919999837875366	0.7449964880943298	0.0	244.0	371.0	0.0	0.0	0.0	0.0	0.0	0.0	null	null	null	null	null	null	null	null	332.0	336.0	335.0	338.0	335.0	336.0	335.0	335.0	336.0	333.0	334.0	
Sun Jun 04 07:44:00 UTC 2017	0.0	1.047281664E9	2654.814453125	0.0	2.5731072E7	0.0	2.0	9.24680192E8	33.96126937866211	0.0	0.0	1.061277696E9	1.050116096E9	0.0	0.0	0.07774999737739563	0.048250000923871994	0.051249999552965164	0.9922500252723694	0.7460797429084778	0.0	244.0	371.0	0.0	0.0	0.0	0.0	0.0	0.0	null	null	null	null	null	null	null	null	333.0	333.0	333.0	335.0	334.0	334.0	332.0	333.0	339.0	333.0	335.0	
Sun Jun 04 07:43:00 UTC 2017	0.0	1.048293376E9	2654.814453125	0.0	2.5731072E7	0.0	3.0	9.24680192E8	68.14788818359375	0.0	0.0	1.061277696E9	1.050116096E9	0.0	0.0	0.0689999982714653	0.05649999901652336	0.05025000125169754	0.9919999837875366	0.7437424659729004	0.0	244.0	371.0	0.0	0.0	0.0	0.0	0.0	0.0	null	null	null	null	null	null	null	null	335.0	338.0	338.0	332.0	332.0	334.0	338.0	335.0	331.0	337.0	331.0	
Sun Jun 04 07:42:00 UTC 2017	0.0	1.048293376E9	2793.882568359375	0.0	2.5731072E7	0.0	2.0	9.24680192E8	43.283447265625	0.0	0.0	1.061277696E9	1.050116096E9	0.0	0.0	0.07750000059604645	0.04675000160932541	0.04975000023841858	0.9919999837875366	0.7437243461608887	0.0	244.0	371.0	0.0	0.0	0.0	0.0	0.0	0.0	null	null	null	null	null	null	null	null	339.0	336.0	335.0	335.0	336.0	334.0	332.0	338.0	337.0	332.0	329.0	
Sun Jun 04 07:41:00 UTC 2017	0.0	1.047281664E9	2793.882568359375	0.0	2.5731072E7	0.0	2.0	9.244672E8	43.283447265625	0.0	0.0	1.062289408E9	1.050116096E9	0.0	0.0	0.09700000286102295	0.05375000089406967	0.04749999940395355	0.9922500252723694	0.7460141777992249	0.0	244.0	371.0	0.0	0.0	0.0	0.0	0.0	0.0	null	null	null	null	null	null	null	null	334.0	331.0	332.0	335.0	337.0	335.0	339.0	333.0	333.0	338.0	335.0	
Sun Jun 04 07:40:00 UTC 2017	0.0	1.047281664E9	2456.129150390625	0.0	2.5731072E7	0.0	2.0	9.24557312E8	43.283447265625	0.0	0.0	1.061277696E9	1.050116096E9	0.0	0.0	0.07374999672174454	0.05050000175833702	0.05050000175833702	0.9922500252723694	0.7443222403526306	0.0	244.0	371.0	0.0	0.0	0.0	0.0	0.0	0.0	null	null	null	null	null	null	null	null	332.0	336.0	336.0	335.0	336.0	336.0	335.0	337.0	338.0	333.0	333.0	
Sun Jun 04 07:39:00 UTC 2017	0.0	1.047281664E9	2924.9794921875	0.0	2.5731072E7	0.0	4.0	9.244672E8	41.97327423095703	0.0	0.0	1.061277696E9	1.050116096E9	0.0	null	0.07800000160932541	0.04600000008940697	0.04699999839067459	0.9917500019073486	0.743691086769104	0.0	244.0	371.0	0.0	0.0	0.0	0.0	0.0	0.0	null	null	null	null	null	null	null	null	334.0	332.0	335.0	337.0	332.0	334.0	334.0	334.0	333.0	333.0	336.0	
Sun Jun 04 07:38:00 UTC 2017	0.0	1.047281664E9	2427.773681640625	0.0	2.5731072E7	0.0	2.0	9.244672E8	41.97327423095703	0.0	0.0	1.061277696E9	1.050116096E9	0.0	0.0	0.07474999874830246	0.0572500005364418	0.045499999076128006	0.9917500019073486	0.7436822652816772	0.0	244.0	371.0	0.0	0.0	0.0	0.0	0.0	0.0	null	null	null	null	null	null	null	null	335.0	336.0	338.0	336.0	339.0	331.0	334.0	333.0	336.0	338.0	333.0	
Sun Jun 04 07:37:00 UTC 2017	0.0	1.048293376E9	2427.773681640625	0.0	2.5731072E7	0.0	3.0	9.244672E8	41.97327423095703	0.0	0.0	1.061277696E9	1.050116096E9	0.0	0.0	0.07400000095367432	0.05000000074505806	0.04749999940395355	0.9919999837875366	0.7436631917953491	0.0	244.0	371.0	0.0	0.0	0.0	0.0	0.0	0.0	null	null	null	null	null	null	null	null	334.0	334.0	336.0	332.0	334.0	332.0	335.0	335.0	334.0	334.0	334.0	
Sun Jun 04 07:36:00 UTC 2017	0.0	1.047281664E9	2427.773681640625	0.0	2.5731072E7	0.0	2.0	9.24258304E8	45.858455657958984	0.0	0.0	1.062289408E9	1.050116096E9	0.0	0.0	0.07474999874830246	0.05324999988079071	0.05050000175833702	0.9922500252723694	0.7436328530311584	0.0	244.0	371.0	0.0	0.0	0.0	0.0	0.0	0.0	null	null	null	null	null	null	null	null	339.0	339.0	333.0	334.0	334.0	333.0	332.0	337.0	336.0	334.0	333.0	
Sun Jun 04 07:35:00 UTC 2017	0.0	1.048293376E9	2427.773681640625	0.0	2.5731072E7	0.0	2.0	9.24348416E8	43.16935729980469	0.0	0.0	1.061277696E9	1.050116096E9	0.0	0.0	0.07374999672174454	0.04600000008940697	0.04749999940395355	0.9922500252723694	0.7458458542823792	0.0	244.0	371.0	0.0	0.0	0.0	0.0	0.0	0.0	null	null	null	null	null	null	null	null	333.0	334.0	336.0	337.0	332.0	335.0	332.0	337.0	334.0	335.0	337.0	
Sun Jun 04 07:34:00 UTC 2017	0.0	1.048293376E9	2688.2265625	0.0	2.5731072E7	0.0	4.0	9.24258304E8	51.87553787231445	0.0	0.0	1.061277696E9	1.050116096E9	0.0	0.0	0.07225000113248825	0.052000001072883606	0.04475000128149986	0.9919999837875366	0.7435864210128784	0.0	244.0	371.0	0.0	0.0	0.0	0.0	0.0	0.0	null	null	null	null	null	null	null	null	333.0	333.0	335.0	334.0	336.0	333.0	336.0	331.0	336.0	333.0	333.0	
Sun Jun 04 07:33:00 UTC 2017	0.0	1.048293376E9	3432.8623046875	0.0	2.5731072E7	0.0	2.0	9.24258304E8	51.87553787231445	0.0	0.0	1.062289408E9	1.050116096E9	0.0	0.0	0.07900000363588333	0.04899999871850014	0.045499999076128006	0.9919999837875366	0.7435668110847473	0.0	244.0	371.0	0.0	0.0	0.0	0.0	0.0	0.0	null	null	null	null	null	null	null	null	333.0	335.0	337.0	332.0	333.0	334.0	334.0	335.0	335.0	334.0	334.0	
Sun Jun 04 07:32:00 UTC 2017	0.0	1.047281664E9	3432.8623046875	0.0	2.5731072E7	0.0	3.0	9.24258304E8	51.87553787231445	0.0	0.0	1.061277696E9	1.050116096E9	0.0	0.0	0.06525000184774399	0.04874999821186066	0.0494999997317791	0.9922500252723694	0.7435658574104309	0.0	244.0	371.0	0.0	0.0	0.0	0.0	0.0	0.0	null	null	null	null	null	null	null	null	337.0	332.0	332.0	337.0	336.0	337.0	336.0	335.0	334.0	333.0	336.0	
Sun Jun 04 07:31:00 UTC 2017	0.0	1.047281664E9	3044.729736328125	0.0	2.5731072E7	0.0	2.0	9.24045312E8	51.87553787231445	0.0	0.0	1.062289408E9	1.050116096E9	0.0	0.0	0.10750000178813934	0.05350000038743019	0.0494999997317791	0.9919999837875366	0.7435492277145386	0.0	244.0	371.0	0.0	0.0	0.0	0.0	0.0	0.0	null	null	null	null	null	null	null	null	335.0	335.0	336.0	335.0	333.0	336.0	335.0	335.0	334.0	333.0	333.0	
Sun Jun 04 07:30:00 UTC 2017	0.0	1.048293376E9	3044.729736328125	0.0	2.5731072E7	0.0	2.0	9.24135424E8	51.87553787231445	0.0	0.0	1.061277696E9	1.050116096E9	0.0	0.0	0.06875000149011612	0.04774999991059303	0.05000000074505806	0.9919999837875366	0.7435389161109924	0.0	244.0	371.0	0.0	0.0	0.0	0.0	0.0	0.0	null	null	null	null	null	null	null	null	336.0	336.0	334.0	334.0	336.0	333.0	332.0	336.0	335.0	333.0	336.0	
Sun Jun 04 07:29:00 UTC 2017	0.0	1.047281664E9	3044.729736328125	0.0	2.5731072E7	0.0	4.0	9.24045312E8	48.906829833984375	0.0	0.0	1.062289408E9	1.050116096E9	0.0	0.0	0.0754999965429306	0.054749999195337296	0.0442500002682209	0.9919999837875366	0.7435374855995178	0.0	244.0	371.0	0.0	0.0	0.0	0.0	0.0	0.0	null	null	null	null	null	null	null	null	333.0	335.0	333.0	330.0	335.0	334.0	335.0	333.0	334.0	334.0	332.0	
Sun Jun 04 07:28:00 UTC 2017	0.0	1.047281664E9	2165.394775390625	0.0	2.5731072E7	0.0	2.0	9.24045312E8	48.906829833984375	0.0	0.0	1.062289408E9	1.050116096E9	0.0	0.0	0.07925000041723251	0.05025000125169754	0.05025000125169754	0.9919999837875366	0.7435242533683777	0.0	244.0	371.0	0.0	0.0	0.0	0.0	0.0	0.0	null	null	null	null	null	null	null	null	335.0	332.0	337.0	334.0	336.0	336.0	337.0	334.0	331.0	338.0	334.0	
Sun Jun 04 07:27:00 UTC 2017	0.0	1.048293376E9	2165.394775390625	0.0	2.5731072E7	0.0	2.0	9.24045312E8	61.20512390136719	0.0	0.0	1.062289408E9	1.050116096E9	0.0	0.0	0.06800000369548798	0.04724999889731407	0.04324999824166298	0.9919999837875366	0.743503212928772	0.0	244.0	371.0	0.0	0.0	0.0	0.0	0.0	0.0	null	null	null	null	null	null	null	null	334.0	336.0	333.0	334.0	333.0	337.0	333.0	334.0	337.0	334.0	335.0	
Sun Jun 04 07:26:00 UTC 2017	0.0	1.048293376E9	2816.95703125	0.0	2.5731072E7	0.0	2.0	9.23922432E8	36.728267669677734	0.0	0.0	1.061277696E9	1.050116096E9	0.0	0.0	0.07900000363588333	0.05525000020861626	0.0494999997317791	0.9922500252723694	0.7434998154640198	0.0	244.0	371.0	0.0	0.0	0.0	0.0	0.0	0.0	null	null	null	null	null	null	null	null	335.0	336.0	334.0	336.0	338.0	334.0	335.0	336.0	331.0	336.0	335.0	
Sun Jun 04 07:25:00 UTC 2017	0.0	1.047281664E9	2816.95703125	0.0	2.5731072E7	0.0	2.0	9.23922432E8	36.728267669677734	0.0	0.0	1.061277696E9	1.050116096E9	0.0	0.0	0.07450000196695328	0.04749999940395355	0.04899999871850014	0.9922500252723694	0.7434772849082947	0.0	244.0	371.0	0.0	0.0	0.0	0.0	0.0	0.0	null	null	null	null	null	null	null	null	335.0	335.0	336.0	337.0	335.0	332.0	336.0	336.0	336.0	333.0	336.0	
Sun Jun 04 07:24:00 UTC 2017	0.0	1.047281664E9	2645.185302734375	0.0	2.5731072E7	0.0	2.0	9.2383232E8	36.728267669677734	0.0	0.0	1.061277696E9	1.050116096E9	0.0	0.0	0.07500000298023224	0.045499999076128006	0.04500000178813934	0.9922500252723694	0.7434626221656799	0.0	244.0	371.0	0.0	0.0	0.0	0.0	0.0	0.0	null	null	null	null	null	null	null	null	334.0	334.0	331.0	336.0	332.0	334.0	330.0	334.0	336.0	333.0	332.0	
Sun Jun 04 07:23:00 UTC 2017	0.0	1.048293376E9	2645.185302734375	0.0	2.5731072E7	0.0	5.0	9.2383232E8	47.688621520996094	0.0	0.0	1.061277696E9	1.050116096E9	0.0	0.0	0.07100000232458115	0.05249999836087227	0.04924999922513962	0.9925000071525574	0.7457284331321716	0.0	244.0	371.0	0.0	0.0	0.0	0.0	0.0	0.0	null	null	null	null	null	null	null	null	334.0	337.0	336.0	333.0	333.0	332.0	335.0	335.0	335.0	334.0	336.0	
Sun Jun 04 07:22:00 UTC 2017	0.0	1.048293376E9	2811.086669921875	0.0	2.5731072E7	0.0	3.0	9.2383232E8	47.688621520996094	0.0	0.0	1.062289408E9	1.050116096E9	0.0	0.0	0.08250000327825546	0.048250000923871994	0.04899999871850014	0.9919999837875366	0.7434303164482117	0.0	244.0	371.0	0.0	0.0	0.0	0.0	0.0	0.0	null	null	null	null	null	null	null	null	338.0	336.0	335.0	339.0	338.0	338.0	338.0	336.0	334.0	335.0	332.0	
Sun Jun 04 07:21:00 UTC 2017	0.0	1.047281664E9	2811.086669921875	0.0	2.5731072E7	0.0	2.0	9.23623424E8	47.688621520996094	1.0	0.0	1.061277696E9	1.050116096E9	0.0	0.0	0.08950000256299973	0.05400000140070915	0.04749999940395355	0.9925000071525574	0.7434327602386475	0.0	244.0	371.0	0.0	0.0	0.0	0.0	0.0	0.0	null	null	null	null	null	null	null	null	334.0	331.0	335.0	333.0	333.0	334.0	333.0	337.0	338.0	331.0	334.0	
Sun Jun 04 07:20:00 UTC 2017	0.0	1.048293376E9	2811.086669921875	0.0	2.5731072E7	0.0	2.0	9.23713536E8	47.688621520996094	1.0	2.0	1.061277696E9	1.050116096E9	0.0	0.0	0.07575000077486038	0.05925000086426735	0.04450000077486038	0.9922500252723694	0.7433373332023621	0.0	244.0	371.0	0.0	0.0	0.0	0.0	0.0	0.0	null	null	null	null	null	null	null	null	329.0	336.0	333.0	333.0	335.0	334.0	335.0	337.0	333.0	331.0	340.0	
Sun Jun 04 07:19:00 UTC 2017	0.0	1.048293376E9	3206.88037109375	0.0	2.5731072E7	0.0	2.0	9.23623424E8	37.33137512207031	0.0	0.0	1.062289408E9	1.050116096E9	0.0	0.0	0.08174999803304672	0.0494999997317791	0.051249999552965164	0.9917500019073486	0.7433403134346008	0.0	244.0	371.0	0.0	0.0	0.0	0.0	0.0	0.0	null	null	null	null	null	null	null	null	332.0	338.0	336.0	334.0	336.0	337.0	333.0	335.0	333.0	335.0	334.0	
Sun Jun 04 07:18:00 UTC 2017	0.0	1.047281664E9	3206.88037109375	0.0	2.5731072E7	0.0	2.0	9.23623424E8	37.33137512207031	0.0	0.0	1.062289408E9	1.050116096E9	0.0	0.0	0.0625	0.04374999925494194	0.045249998569488525	0.9919999837875366	0.743397057056427	0.0	244.0	371.0	0.0	0.0	0.0	0.0	0.0	0.0	null	null	null	null	null	null	null	null	337.0	337.0	333.0	332.0	332.0	334.0	339.0	334.0	335.0	331.0	332.0	
Sun Jun 04 07:17:00 UTC 2017	0.0	1.048293376E9	3206.88037109375	0.0	2.5731072E7	0.0	3.0	9.23623424E8	37.33137512207031	0.0	0.0	1.062289408E9	1.050116096E9	0.0	0.0	0.08174999803304672	0.05375000089406967	0.04675000160932541	0.9919999837875366	0.7433045506477356	0.0	244.0	371.0	0.0	0.0	0.0	0.0	0.0	0.0	null	null	null	null	null	null	null	null	334.0	334.0	338.0	336.0	334.0	333.0	333.0	337.0	335.0	334.0	335.0	
Sun Jun 04 07:16:00 UTC 2017	0.0	1.047281664E9	3206.88037109375	0.0	2.5731072E7	0.0	4.0	9.23500544E8	47.79646682739258	0.0	0.0	1.062289408E9	1.050116096E9	0.0	null	0.07249999791383743	0.051500000059604645	0.04975000023841858	0.9917500019073486	0.7433799505233765	0.0	244.0	371.0	0.0	0.0	0.0	0.0	0.0	0.0	null	null	null	null	null	null	null	null	333.0	335.0	333.0	337.0	336.0	335.0	334.0	331.0	335.0	333.0	335.0	
Sun Jun 04 07:15:00 UTC 2017	0.0	1.047281664E9	2854.447998046875	0.0	2.5731072E7	0.0	2.0	9.23500544E8	38.65630340576172	0.0	0.0	1.062289408E9	1.050116096E9	0.0	0.0	0.06800000369548798	0.05299999937415123	0.045499999076128006	0.9917500019073486	0.7455742955207825	0.0	244.0	371.0	0.0	0.0	0.0	0.0	0.0	0.0	null	null	null	null	null	null	null	null	335.0	334.0	333.0	333.0	336.0	331.0	335.0	340.0	335.0	333.0	333.0	
Sun Jun 04 07:14:00 UTC 2017	0.0	1.048293376E9	2854.447998046875	0.0	2.5731072E7	0.0	2.0	9.23410432E8	53.09262466430664	0.0	0.0	1.062289408E9	1.050116096E9	0.0	0.0	0.07474999874830246	0.04675000160932541	0.048500001430511475	0.9917500019073486	0.7432761788368225	0.0	244.0	371.0	0.0	0.0	0.0	0.0	0.0	0.0	null	null	null	null	null	null	null	null	330.0	333.0	336.0	334.0	337.0	337.0	332.0	334.0	334.0	333.0	334.0	
Sun Jun 04 07:13:00 UTC 2017	0.0	1.047281664E9	2854.447998046875	0.0	2.5731072E7	0.0	2.0	9.23410432E8	53.09262466430664	0.0	0.0	1.062289408E9	1.050116096E9	0.0	0.0	0.08100000023841858	0.05324999988079071	0.04574999958276749	0.9917500019073486	0.7455601096153259	0.0	244.0	371.0	0.0	0.0	0.0	0.0	0.0	0.0	null	null	null	null	null	null	null	null	335.0	334.0	337.0	337.0	332.0	334.0	334.0	333.0	333.0	335.0	331.0	
Sun Jun 04 07:12:00 UTC 2017	0.0	1.047281664E9	2715.711181640625	0.0	2.5731072E7	0.0	3.0	9.23410432E8	53.09262466430664	0.0	0.0	1.062289408E9	1.050116096E9	0.0	0.0	0.07175000011920929	0.0442500002682209	0.051750000566244125	0.9917500019073486	0.743256151676178	0.0	244.0	371.0	0.0	0.0	0.0	0.0	0.0	0.0	null	null	null	null	null	null	null	null	336.0	338.0	332.0	338.0	333.0	332.0	328.0	333.0	338.0	338.0	337.0	
Sun Jun 04 07:11:00 UTC 2017	0.0	1.048293376E9	2715.711181640625	0.0	2.5731072E7	0.0	4.0	9.2319744E8	53.09262466430664	0.0	0.0	1.062289408E9	1.050116096E9	0.0	0.0	0.09600000083446503	0.051249999552965164	0.04450000077486038	0.9919999837875366	0.7432414293289185	0.0	244.0	371.0	0.0	0.0	0.0	0.0	0.0	0.0	null	null	null	null	null	null	null	null	333.0	332.0	336.0	336.0	336.0	336.0	337.0	337.0	335.0	333.0	333.0	
Sun Jun 04 07:10:00 UTC 2017	0.0	1.047281664E9	2715.711181640625	0.0	2.5731072E7	0.0	6.0	9.23549696E8	53.09262466430664	0.0	0.0	1.061277696E9	1.050116096E9	0.0	0.0	0.07575000077486038	0.0560000017285347	0.048500001430511475	0.9919999837875366	0.7432424426078796	0.0	244.0	371.0	0.0	0.0	0.0	0.0	0.0	0.0	null	null	null	null	null	null	null	null	334.0	335.0	332.0	340.0	333.0	336.0	330.0	332.0	333.0	341.0	337.0	
Sun Jun 04 07:09:00 UTC 2017	0.0	1.047281664E9	2413.037841796875	0.0	2.5731072E7	0.0	2.0	9.23189248E8	67.05625915527344	0.0	0.0	1.061277696E9	1.050116096E9	0.0	0.0	0.07649999856948853	0.04800000041723251	0.04899999871850014	0.9919999837875366	0.7432238459587097	0.0	244.0	371.0	0.0	0.0	0.0	0.0	0.0	0.0	null	null	null	null	null	null	null	null	334.0	339.0	333.0	332.0	335.0	333.0	336.0	338.0	336.0	334.0	337.0	
Sun Jun 04 07:08:00 UTC 2017	0.0	1.048293376E9	2413.037841796875	0.0	2.5731072E7	0.0	5.0	9.23189248E8	67.05625915527344	0.0	0.0	1.061277696E9	1.050116096E9	0.0	0.0	0.08275000005960464	0.05025000125169754	0.04800000041723251	0.9922500252723694	0.7432072162628174	0.0	244.0	371.0	0.0	0.0	0.0	0.0	0.0	0.0	null	null	null	null	null	null	null	null	336.0	332.0	335.0	334.0	336.0	335.0	332.0	333.0	333.0	331.0	332.0	
Sun Jun 04 07:07:00 UTC 2017	0.0	1.048293376E9	3473.539794921875	0.0	2.5731072E7	0.0	3.0	9.23189248E8	67.05625915527344	0.0	0.0	1.062289408E9	1.050116096E9	0.0	0.0	0.06599999964237213	0.051500000059604645	0.04800000041723251	0.9922500252723694	0.7432023286819458	0.0	244.0	371.0	0.0	0.0	0.0	0.0	0.0	0.0	null	null	null	null	null	null	null	null	333.0	334.0	334.0	335.0	335.0	335.0	333.0	338.0	336.0	337.0	336.0	
Sun Jun 04 07:06:00 UTC 2017	0.0	1.047281664E9	3473.539794921875	0.0	2.5731072E7	0.0	3.0	9.22976256E8	49.04009246826172	0.0	0.0	1.062289408E9	1.050116096E9	0.0	0.0	0.0742499977350235	0.05274999886751175	0.05025000125169754	0.9922500252723694	0.7431680560112	0.0	244.0	371.0	0.0	0.0	0.0	0.0	0.0	0.0	null	null	null	null	null	null	null	null	336.0	335.0	335.0	342.0	332.0	334.0	335.0	331.0	335.0	338.0	332.0	
Sun Jun 04 07:05:00 UTC 2017	0.0	1.048293376E9	3473.539794921875	0.0	2.5731072E7	0.0	3.0	9.23066368E8	45.49992752075195	0.0	0.0	1.061277696E9	1.050116096E9	0.0	0.0	0.07575000077486038	0.04500000178813934	0.04699999839067459	0.9919999837875366	0.7431519031524658	0.0	244.0	371.0	0.0	0.0	0.0	0.0	0.0	0.0	null	null	null	null	null	null	null	null	333.0	334.0	335.0	332.0	334.0	334.0	334.0	335.0	336.0	334.0	338.0	
Sun Jun 04 07:04:00 UTC 2017	0.0	1.047281664E9	3473.539794921875	0.0	2.5731072E7	0.0	2.0	9.22976256E8	42.89562225341797	0.0	0.0	1.062289408E9	1.050116096E9	0.0	0.0	0.0742499977350235	0.05324999988079071	0.0442500002682209	0.9917500019073486	0.7431196570396423	0.0	244.0	371.0	0.0	0.0	0.0	0.0	0.0	0.0	null	null	null	null	null	null	null	null	334.0	336.0	333.0	333.0	335.0	333.0	330.0	335.0	338.0	334.0	333.0	
Sun Jun 04 07:03:00 UTC 2017	0.0	1.047281664E9	2268.666748046875	0.0	2.5731072E7	0.0	4.0	9.22976256E8	42.89562225341797	0.0	0.0	1.062289408E9	1.050116096E9	0.0	0.0	0.07599999755620956	0.052000001072883606	0.048500001430511475	0.9922500252723694	0.743099570274353	0.0	244.0	371.0	0.0	0.0	0.0	0.0	0.0	0.0	null	null	null	null	null	null	null	null	336.0	334.0	335.0	339.0	334.0	337.0	334.0	334.0	334.0	339.0	335.0	
Sun Jun 04 07:02:00 UTC 2017	0.0	1.048293376E9	2268.666748046875	0.0	2.5731072E7	0.0	2.0	9.22976256E8	62.55950927734375	0.0	0.0	1.061277696E9	1.050116096E9	0.0	0.0	0.07750000059604645	0.04874999821186066	0.04924999922513962	0.9919999837875366	0.7430565357208252	0.0	244.0	371.0	0.0	0.0	0.0	0.0	0.0	0.0	null	null	null	null	null	null	null	null	332.0	333.0	334.0	334.0	333.0	333.0	335.0	334.0	334.0	332.0	337.0	
Sun Jun 04 07:01:00 UTC 2017	0.0	1.047281664E9	2268.666748046875	0.0	2.5731072E7	0.0	2.0	9.22853376E8	35.244266510009766	0.0	0.0	1.061277696E9	1.050116096E9	0.0	0.0	0.09674999862909317	0.05324999988079071	0.045499999076128006	0.9917500019073486	0.7430276274681091	0.0	244.0	371.0	0.0	0.0	0.0	0.0	0.0	0.0	null	null	null	null	null	null	null	null	334.0	337.0	336.0	331.0	332.0	338.0	334.0	336.0	333.0	331.0	332.0	
Sun Jun 04 07:00:00 UTC 2017	0.0	1.048293376E9	2268.666748046875	0.0	2.5731072E7	0.0	2.0	9.22853376E8	48.6546745300293	0.0	0.0	1.061277696E9	1.050116096E9	0.0	0.0	0.07275000214576721	0.04874999821186066	0.04874999821186066	0.9919999837875366	0.7430643439292908	0.0	244.0	371.0	0.0	0.0	0.0	0.0	0.0	0.0	null	null	null	null	null	null	null	null	334.0	332.0	330.0	335.0	338.0	333.0	339.0	331.0	335.0	336.0	334.0	
Sun Jun 04 06:59:00 UTC 2017	0.0	1.047281664E9	2268.666748046875	0.0	2.5731072E7	0.0	5.0	9.22763264E8	48.6546745300293	0.0	0.0	1.061277696E9	1.050116096E9	0.0	0.0	0.07925000041723251	0.05350000038743019	0.04975000023841858	0.9917500019073486	0.7435325980186462	0.0	244.0	371.0	0.0	0.0	0.0	0.0	0.0	0.0	null	null	null	null	null	null	null	null	334.0	334.0	334.0	331.0	336.0	335.0	333.0	335.0	334.0	331.0	334.0	
Sun Jun 04 06:58:00 UTC 2017	0.0	1.047281664E9	2838.17578125	0.0	2.5731072E7	0.0	4.0	9.22763264E8	41.2843132019043	0.0	0.0	1.062289408E9	1.050116096E9	0.0	0.0	0.06875000149011612	0.04699999839067459	0.04675000160932541	0.9919999837875366	0.7429845929145813	0.0	244.0	371.0	0.0	0.0	0.0	0.0	0.0	0.0	null	null	null	null	null	null	null	null	332.0	336.0	334.0	333.0	333.0	333.0	338.0	333.0	335.0	331.0	329.0	
Sun Jun 04 06:57:00 UTC 2017	0.0	1.047281664E9	2316.72998046875	0.0	2.5731072E7	0.0	3.0	9.22763264E8	41.2843132019043	0.0	0.0	1.062289408E9	1.050116096E9	0.0	0.0	0.07724999636411667	0.04675000160932541	0.04749999940395355	0.9919999837875366	0.7429850697517395	0.0	244.0	371.0	0.0	0.0	0.0	0.0	0.0	0.0	null	null	null	null	null	null	null	null	333.0	336.0	334.0	334.0	337.0	336.0	335.0	335.0	336.0	335.0	334.0	
Sun Jun 04 06:56:00 UTC 2017	0.0	1.048293376E9	2316.72998046875	0.0	2.5731072E7	0.0	2.0	9.22550272E8	41.2843132019043	0.0	0.0	1.061277696E9	1.050116096E9	0.0	0.0	0.07349999994039536	0.057500001043081284	0.04650000110268593	0.9917500019073486	0.7429508566856384	0.0	244.0	371.0	0.0	0.0	0.0	0.0	0.0	0.0	null	null	null	null	null	null	null	null	336.0	333.0	337.0	336.0	331.0	335.0	333.0	335.0	334.0	336.0	335.0	
Sun Jun 04 06:55:00 UTC 2017	0.0	1.047281664E9	2316.72998046875	0.0	2.5731072E7	0.0	2.0	9.22640384E8	39.527549743652344	0.0	0.0	1.062289408E9	1.050116096E9	0.0	0.0	0.07750000059604645	0.05000000074505806	0.051500000059604645	0.9917500019073486	0.7430222630500793	0.0	244.0	371.0	0.0	0.0	0.0	0.0	0.0	0.0	null	null	null	null	null	null	null	null	337.0	334.0	335.0	335.0	333.0	336.0	334.0	335.0	335.0	334.0	334.0	
Sun Jun 04 06:54:00 UTC 2017	0.0	1.047281664E9	2715.77587890625	0.0	2.5731072E7	0.0	2.0	9.22550272E8	39.527549743652344	0.0	0.0	1.061277696E9	1.050116096E9	0.0	0.0	0.06925000250339508	0.051249999552965164	0.04800000041723251	0.9917500019073486	0.7430105209350586	0.0	244.0	371.0	0.0	0.0	0.0	0.0	0.0	0.0	null	null	null	null	null	null	null	null	333.0	335.0	333.0	332.0	336.0	334.0	338.0	331.0	333.0	335.0	332.0	
Sun Jun 04 06:53:00 UTC 2017	0.0	1.048293376E9	2715.77587890625	0.0	2.5731072E7	0.0	2.0	9.22550272E8	39.527549743652344	0.0	0.0	1.062289408E9	1.050116096E9	0.0	0.0	0.07249999791383743	0.048250000923871994	0.04349999874830246	0.9915000200271606	0.7429938912391663	0.0	244.0	371.0	0.0	0.0	0.0	0.0	0.0	0.0	null	null	null	null	null	null	null	null	332.0	337.0	336.0	334.0	330.0	336.0	332.0	337.0	334.0	333.0	332.0	
Sun Jun 04 06:52:00 UTC 2017	0.0	1.048293376E9	2487.72509765625	0.0	2.5731072E7	0.0	3.0	9.22550272E8	39.527549743652344	0.0	0.0	1.061277696E9	1.050116096E9	0.0	0.0	0.07625000178813934	0.052000001072883606	0.0494999997317791	0.9917500019073486	0.7452753782272339	0.0	244.0	371.0	0.0	0.0	0.0	0.0	0.0	0.0	null	null	null	null	null	null	null	null	333.0	333.0	329.0	335.0	335.0	333.0	338.0	330.0	332.0	334.0	334.0	
Sun Jun 04 06:51:00 UTC 2017	1.0	1.048293376E9	3561.447021484375	0.0	2.5731072E7	0.0	7.0	9.2233728E8	39.527549743652344	0.0	0.0	1.062289408E9	1.050116096E9	0.0	0.0	0.10225000232458115	0.051249999552965164	0.04800000041723251	0.9917500019073486	0.7429782152175903	0.0	244.0	371.0	0.0	0.0	0.0	0.0	0.0	0.0	null	null	null	null	null	null	null	null	336.0	338.0	336.0	332.0	335.0	336.0	332.0	333.0	335.0	331.0	331.0	
Sun Jun 04 06:50:00 UTC 2017	0.0	1.047281664E9	3561.447021484375	0.0	2.5731072E7	0.0	2.0	9.22427392E8	39.589351654052734	0.0	0.0	1.062289408E9	1.050116096E9	0.0	0.0	0.07925000041723251	0.045499999076128006	0.04600000008940697	0.9917500019073486	0.7429596185684204	0.0	244.0	371.0	0.0	0.0	0.0	0.0	0.0	0.0	null	null	null	null	null	null	null	null	335.0	334.0	332.0	337.0	336.0	332.0	337.0	337.0	333.0	333.0	336.0	
Sun Jun 04 06:49:00 UTC 2017	0.0	1.048293376E9	3561.447021484375	0.0	2.5731072E7	0.0	3.0	9.2233728E8	38.50992202758789	0.0	0.0	1.061277696E9	1.050116096E9	0.0	0.0	0.07249999791383743	0.052000001072883606	0.04800000041723251	0.9915000200271606	0.7429640293121338	0.0	244.0	371.0	0.0	0.0	0.0	0.0	0.0	0.0	null	null	null	null	null	null	null	null	332.0	332.0	333.0	333.0	333.0	335.0	333.0	335.0	335.0	335.0	334.0	
Sun Jun 04 06:48:00 UTC 2017	0.0	1.048293376E9	2374.94189453125	0.0	2.5731072E7	0.0	3.0	9.2233728E8	38.50992202758789	0.0	0.0	1.062289408E9	1.050116096E9	0.0	0.0	0.07975000143051147	0.05375000089406967	0.04724999889731407	0.9915000200271606	0.7429513335227966	0.0	244.0	371.0	0.0	0.0	0.0	0.0	0.0	0.0	null	null	null	null	null	null	null	null	333.0	336.0	334.0	334.0	334.0	335.0	333.0	335.0	334.0	333.0	336.0	
Sun Jun 04 06:47:00 UTC 2017	1.0	1.047281664E9	2374.94189453125	0.0	2.5731072E7	0.0	3.0	9.2233728E8	37.115882873535156	0.0	0.0	1.061277696E9	1.050116096E9	0.0	0.0	0.06674999743700027	0.05249999836087227	0.050999999046325684	0.9915000200271606	0.7429302930831909	0.0	244.0	371.0	0.0	0.0	0.0	0.0	0.0	0.0	null	null	null	null	null	null	null	null	333.0	334.0	332.0	334.0	334.0	334.0	334.0	330.0	333.0	334.0	332.0	
Sun Jun 04 06:46:00 UTC 2017	1.0	1.047281664E9	2798.62841796875	0.0	2.5731072E7	0.0	2.0	9.22128384E8	41.77352523803711	0.0	0.0	1.061277696E9	1.050116096E9	0.0	0.0	0.07699999958276749	0.04675000160932541	0.04874999821186066	0.9915000200271606	0.7429014444351196	0.0	244.0	371.0	0.0	0.0	0.0	0.0	0.0	0.0	null	null	null	null	null	null	null	null	336.0	333.0	333.0	333.0	334.0	333.0	335.0	337.0	334.0	337.0	332.0	
Sun Jun 04 06:45:00 UTC 2017	1.0	1.047281664E9	2780.26025390625	0.0	2.5731072E7	0.0	2.0	9.222144E8	42.535953521728516	0.0	0.0	1.061277696E9	1.050116096E9	0.0	0.0	0.07175000011920929	0.05950000137090683	0.04574999958276749	0.9917500019073486	0.7428842782974243	0.0	244.0	371.0	0.0	0.0	0.0	0.0	0.0	0.0	null	null	null	null	null	null	null	null	332.0	333.0	334.0	333.0	334.0	335.0	331.0	333.0	332.0	334.0	334.0	
Sun Jun 04 06:44:00 UTC 2017	0.0	1.047281664E9	2140.500732421875	0.0	2.5731072E7	0.0	2.0	9.22124288E8	50.814998626708984	0.0	0.0	1.062289408E9	1.050116096E9	0.0	0.0	0.07774999737739563	0.04600000008940697	0.048500001430511475	0.9919999837875366	0.7428637146949768	0.0	244.0	371.0	0.0	0.0	0.0	0.0	0.0	0.0	null	null	null	null	null	null	null	null	337.0	335.0	336.0	338.0	333.0	334.0	338.0	335.0	337.0	333.0	336.0	
Sun Jun 04 06:43:00 UTC 2017	0.0	1.048293376E9	2140.500732421875	0.0	2.5731072E7	0.0	2.0	9.22124288E8	50.814998626708984	0.0	0.0	1.062289408E9	1.050116096E9	0.0	0.0	0.07750000059604645	0.051750000566244125	0.04749999940395355	0.9922500252723694	0.742855429649353	0.0	244.0	371.0	0.0	0.0	0.0	0.0	0.0	0.0	null	null	null	null	null	null	null	null	332.0	333.0	333.0	335.0	336.0	334.0	333.0	334.0	335.0	338.0	335.0	
Sun Jun 04 06:42:00 UTC 2017	0.0	1.047281664E9	2140.500732421875	0.0	2.5731072E7	0.0	2.0	9.22124288E8	50.814998626708984	0.0	0.0	1.062289408E9	1.050116096E9	0.0	0.0	0.06949999928474426	0.05050000175833702	0.045499999076128006	0.9919999837875366	0.7442346811294556	0.0	244.0	371.0	0.0	0.0	0.0	0.0	0.0	0.0	null	null	null	null	null	null	null	null	339.0	333.0	337.0	335.0	334.0	335.0	336.0	336.0	337.0	336.0	336.0	
Sun Jun 04 06:41:00 UTC 2017	0.0	1.047281664E9	3077.51220703125	0.0	2.5731072E7	0.0	3.0	9.22005504E8	50.814998626708984	0.0	0.0	1.061277696E9	1.050116096E9	0.0	0.0	0.1002499982714653	0.054249998182058334	0.0442500002682209	0.9922500252723694	0.7444480061531067	0.0	244.0	371.0	0.0	0.0	0.0	0.0	0.0	0.0	null	null	null	null	null	null	null	null	332.0	338.0	334.0	334.0	332.0	333.0	332.0	333.0	335.0	333.0	332.0	
Sun Jun 04 06:40:00 UTC 2017	0.0	1.047281664E9	2950.092041015625	0.0	2.5731072E7	0.0	3.0	9.22005504E8	52.72612380981445	0.0	0.0	1.061277696E9	1.050116096E9	0.0	0.0	0.0807500034570694	0.05400000140070915	0.052000001072883606	0.9919999837875366	0.7428157925605774	0.0	244.0	371.0	0.0	0.0	0.0	0.0	0.0	0.0	null	null	null	null	null	null	null	null	336.0	337.0	338.0	335.0	334.0	333.0	332.0	338.0	332.0	337.0	338.0	
Sun Jun 04 06:39:00 UTC 2017	0.0	1.047281664E9	3108.556396484375	0.0	2.5731072E7	0.0	2.0	9.21915392E8	52.72612380981445	0.0	0.0	1.061277696E9	1.050116096E9	0.0	0.0	0.07349999994039536	0.04600000008940697	0.04675000160932541	0.9922500252723694	0.7446226477622986	0.0	244.0	371.0	0.0	0.0	0.0	0.0	0.0	0.0	null	null	null	null	null	null	null	null	335.0	335.0	334.0	333.0	338.0	335.0	335.0	331.0	339.0	337.0	331.0	
Sun Jun 04 06:38:00 UTC 2017	0.0	1.047281664E9	1835.762451171875	0.0	2.5731072E7	0.0	2.0	9.21915392E8	52.72612380981445	0.0	0.0	1.062289408E9	1.050116096E9	0.0	0.0	0.07275000214576721	0.05299999937415123	0.045499999076128006	0.9919999837875366	0.7427771687507629	0.0	244.0	371.0	0.0	0.0	0.0	0.0	0.0	0.0	null	null	null	null	null	null	null	null	330.0	330.0	332.0	337.0	334.0	336.0	333.0	334.0	332.0	331.0	339.0	
Sun Jun 04 06:37:00 UTC 2017	0.0	1.047281664E9	3350.82080078125	0.0	2.5731072E7	0.0	3.0	9.21915392E8	57.74761199951172	0.0	0.0	1.062289408E9	1.050116096E9	0.0	0.0	0.07874999940395355	0.054249998182058334	0.045499999076128006	0.9919999837875366	0.7428319454193115	0.0	244.0	371.0	0.0	0.0	0.0	0.0	0.0	0.0	null	null	null	null	null	null	null	null	340.0	338.0	336.0	333.0	333.0	335.0	336.0	336.0	334.0	337.0	332.0	
Sun Jun 04 06:36:00 UTC 2017	0.0	1.047281664E9	3410.930419921875	0.0	2.5731072E7	0.0	2.0	9.217024E8	57.74761199951172	0.0	0.0	1.061277696E9	1.050116096E9	0.0	0.0	0.06650000065565109	0.04874999821186066	0.04774999991059303	0.9915000200271606	0.7427570819854736	0.0	244.0	371.0	0.0	0.0	0.0	0.0	0.0	0.0	null	null	null	null	null	null	null	null	330.0	331.0	336.0	338.0	334.0	337.0	337.0	334.0	336.0	334.0	336.0	
Sun Jun 04 06:35:00 UTC 2017	0.0	1.048293376E9	3410.930419921875	0.0	2.5731072E7	0.0	2.0	9.21792512E8	44.14439392089844	0.0	0.0	1.062289408E9	1.050116096E9	0.0	0.0	0.07999999821186066	0.054249998182058334	0.0494999997317791	0.9919999837875366	0.7427384853363037	0.0	244.0	371.0	0.0	0.0	0.0	0.0	0.0	0.0	null	null	null	null	null	null	null	null	335.0	338.0	336.0	330.0	336.0	334.0	332.0	335.0	334.0	338.0	333.0	
Sun Jun 04 06:34:00 UTC 2017	0.0	1.047281664E9	3410.930419921875	0.0	2.5731072E7	0.0	4.0	9.217024E8	39.30778121948242	1.0	1.0	1.062289408E9	1.050116096E9	0.0	0.0	0.07325000315904617	0.04924999922513962	0.04450000077486038	0.9917500019073486	0.742720365524292	0.0	244.0	371.0	0.0	0.0	0.0	0.0	0.0	0.0	null	null	null	null	null	null	null	null	336.0	331.0	331.0	339.0	334.0	331.0	336.0	332.0	334.0	335.0	333.0	
Sun Jun 04 06:33:00 UTC 2017	0.0	1.047281664E9	3151.788330078125	0.0	2.5731072E7	0.0	3.0	9.217024E8	48.95242691040039	1.0	0.0	1.062289408E9	1.050116096E9	0.0	0.0	0.07000000029802322	0.048500001430511475	0.050999999046325684	0.9919999837875366	0.7426930069923401	0.0	244.0	371.0	0.0	0.0	0.0	0.0	0.0	0.0	null	null	null	null	null	null	null	null	334.0	337.0	336.0	331.0	334.0	335.0	333.0	334.0	335.0	332.0	335.0	
Sun Jun 04 06:32:00 UTC 2017	0.0	1.048293376E9	3151.788330078125	0.0	2.5731072E7	0.0	2.0	9.217024E8	48.95242691040039	0.0	0.0	1.061277696E9	1.050116096E9	0.0	0.0	0.07374999672174454	0.05649999901652336	0.04774999991059303	0.9917500019073486	0.7427071928977966	0.0	244.0	371.0	0.0	0.0	0.0	0.0	0.0	0.0	null	null	null	null	null	null	null	null	334.0	335.0	334.0	336.0	334.0	334.0	337.0	337.0	335.0	333.0	334.0	
Sun Jun 04 06:31:00 UTC 2017	0.0	1.047281664E9	3151.788330078125	0.0	2.5731072E7	0.0	2.0	9.21489408E8	46.1915397644043	0.0	0.0	1.061277696E9	1.050116096E9	0.0	0.0	0.10400000214576721	0.04324999824166298	0.04399999976158142	0.9919999837875366	0.7446123957633972	0.0	244.0	371.0	0.0	0.0	0.0	0.0	0.0	0.0	null	null	null	null	null	null	null	null	334.0	333.0	335.0	331.0	333.0	334.0	333.0	335.0	337.0	335.0	335.0	
Sun Jun 04 06:30:00 UTC 2017	0.0	1.048293376E9	3151.788330078125	0.0	2.5731072E7	0.0	2.0	9.2157952E8	36.682220458984375	0.0	0.0	1.061277696E9	1.050116096E9	0.0	null	0.07850000262260437	0.0560000017285347	0.04625000059604645	0.9917500019073486	0.7426964044570923	0.0	244.0	371.0	0.0	0.0	0.0	0.0	0.0	0.0	null	null	null	null	null	null	null	null	336.0	333.0	336.0	337.0	335.0	332.0	335.0	330.0	334.0	332.0	337.0	
Sun Jun 04 06:29:00 UTC 2017	0.0	1.047281664E9	3151.788330078125	0.0	2.5731072E7	0.0	2.0	9.21489408E8	75.4791259765625	0.0	0.0	1.061277696E9	1.050116096E9	0.0	null	0.06674999743700027	0.045499999076128006	0.05025000125169754	0.9915000200271606	0.7446354031562805	0.0	244.0	371.0	0.0	0.0	0.0	0.0	0.0	0.0	null	null	null	null	null	null	null	null	336.0	335.0	332.0	336.0	332.0	334.0	337.0	335.0	334.0	336.0	331.0	
Sun Jun 04 06:28:00 UTC 2017	0.0	1.047281664E9	2644.222900390625	0.0	2.5731072E7	0.0	2.0	9.21489408E8	37.90830612182617	0.0	0.0	1.061277696E9	1.050116096E9	0.0	0.0	0.08649999648332596	0.05249999836087227	0.04399999976158142	0.9917500019073486	0.7426210641860962	0.0	244.0	371.0	0.0	0.0	0.0	0.0	0.0	0.0	null	null	null	null	null	null	null	null	332.0	332.0	335.0	331.0	335.0	333.0	330.0	335.0	336.0	334.0	333.0	
Sun Jun 04 06:27:00 UTC 2017	0.0	1.047281664E9	2377.454345703125	0.0	2.5731072E7	0.0	5.0	9.21489408E8	37.90830612182617	0.0	0.0	1.062289408E9	1.050116096E9	0.0	0.0	0.06599999964237213	0.051249999552965164	0.051750000566244125	0.9917500019073486	0.7448394298553467	0.0	244.0	371.0	0.0	0.0	0.0	0.0	0.0	0.0	null	null	null	null	null	null	null	null	334.0	335.0	329.0	334.0	334.0	335.0	335.0	333.0	333.0	331.0	333.0	
Sun Jun 04 06:26:00 UTC 2017	0.0	1.048293376E9	2377.454345703125	0.0	2.5731072E7	0.0	4.0	9.21280512E8	37.99388122558594	1.0	2.0	1.062289408E9	1.050116096E9	0.0	null	0.07649999856948853	0.057500001043081284	0.048500001430511475	0.9922500252723694	0.7425882816314697	0.0	244.0	371.0	0.0	0.0	0.0	0.0	0.0	0.0	null	null	null	null	null	null	null	null	335.0	335.0	335.0	338.0	335.0	337.0	335.0	334.0	334.0	338.0	338.0	
Sun Jun 04 06:25:00 UTC 2017	0.0	1.048293376E9	2435.314697265625	0.0	2.5731072E7	0.0	2.0	9.21370624E8	37.99388122558594	2.0	2.0	1.061277696E9	1.050116096E9	0.0	null	0.07225000113248825	0.05925000086426735	0.04374999925494194	0.9922500252723694	0.7425873279571533	0.0	244.0	371.0	0.0	0.0	0.0	0.0	0.0	0.0	null	null	null	null	null	null	null	null	336.0	333.0	334.0	334.0	335.0	331.0	332.0	334.0	337.0	331.0	329.0	
Sun Jun 04 06:24:00 UTC 2017	0.0	1.047281664E9	2435.314697265625	0.0	2.5731072E7	0.0	2.0	9.21280512E8	37.99388122558594	0.0	0.0	1.062289408E9	1.050116096E9	0.0	null	0.08025000244379044	0.051249999552965164	0.05050000175833702	0.9919999837875366	0.7448487281799316	0.0	244.0	371.0	0.0	0.0	0.0	0.0	0.0	0.0	null	null	null	null	null	null	null	null	331.0	335.0	335.0	332.0	334.0	335.0	335.0	337.0	334.0	336.0	337.0	
Sun Jun 04 06:23:00 UTC 2017	0.0	1.048293376E9	2435.314697265625	0.0	2.5731072E7	0.0	2.0	9.21280512E8	37.99388122558594	0.0	0.0	1.061277696E9	1.050116096E9	0.0	null	0.06650000065565109	0.04724999889731407	0.045249998569488525	0.9919999837875366	0.7425428032875061	0.0	244.0	371.0	0.0	0.0	0.0	0.0	0.0	0.0	null	null	null	null	null	null	null	null	333.0	333.0	335.0	337.0	336.0	335.0	335.0	337.0	334.0	333.0	336.0	
Sun Jun 04 06:22:00 UTC 2017	0.0	1.048293376E9	2813.99951171875	0.0	2.5731072E7	0.0	5.0	9.21280512E8	37.99388122558594	0.0	0.0	1.061277696E9	1.050116096E9	0.0	0.0	0.07699999958276749	0.05025000125169754	0.0507499985396862	0.9917500019073486	0.7425990700721741	0.0	244.0	371.0	0.0	0.0	0.0	0.0	0.0	0.0	null	null	null	null	null	null	null	null	334.0	332.0	334.0	330.0	332.0	333.0	335.0	333.0	336.0	336.0	334.0	
Sun Jun 04 06:21:00 UTC 2017	0.0	1.047281664E9	2813.99951171875	0.0	2.5731072E7	0.0	2.0	9.2106752E8	37.99388122558594	0.0	0.0	1.061277696E9	1.050116096E9	0.0	0.0	0.10575000196695328	0.04774999991059303	0.04675000160932541	0.9919999837875366	0.7425369024276733	0.0	244.0	371.0	0.0	0.0	0.0	0.0	0.0	0.0	null	null	null	null	null	null	null	null	334.0	335.0	336.0	335.0	337.0	333.0	335.0	338.0	334.0	334.0	330.0	
Sun Jun 04 06:20:00 UTC 2017	0.0	1.047281664E9	2780.27197265625	0.0	2.5731072E7	0.0	2.0	9.21157632E8	35.867374420166016	0.0	0.0	1.061277696E9	1.050116096E9	0.0	0.0	0.07100000232458115	0.05350000038743019	0.04675000160932541	0.9922500252723694	0.7425393462181091	0.0	244.0	371.0	0.0	0.0	0.0	0.0	0.0	0.0	null	null	null	null	null	null	null	null	336.0	334.0	334.0	336.0	332.0	336.0	333.0	334.0	336.0	332.0	336.0	
Sun Jun 04 06:19:00 UTC 2017	0.0	1.048293376E9	2780.27197265625	0.0	2.5731072E7	0.0	2.0	9.2106752E8	48.01865005493164	0.0	0.0	1.062289408E9	1.050116096E9	0.0	0.0	0.07150000333786011	0.0494999997317791	0.050999999046325684	0.9917500019073486	0.7425246834754944	0.0	244.0	371.0	0.0	0.0	0.0	0.0	0.0	0.0	null	null	null	null	null	null	null	null	332.0	334.0	332.0	332.0	334.0	333.0	334.0	336.0	331.0	333.0	333.0	
Sun Jun 04 06:18:00 UTC 2017	0.0	1.047281664E9	2780.27197265625	0.0	2.5731072E7	0.0	3.0	9.2106752E8	101.79662322998047	0.0	0.0	1.061277696E9	1.050116096E9	0.0	0.0	0.07800000160932541	0.05575000122189522	0.04625000059604645	0.9919999837875366	0.7425011992454529	0.0	244.0	371.0	0.0	0.0	0.0	0.0	0.0	0.0	null	null	null	null	null	null	null	null	338.0	333.0	335.0	331.0	333.0	335.0	337.0	333.0	335.0	333.0	332.0	
Sun Jun 04 06:17:00 UTC 2017	0.0	1.047281664E9	2466.77294921875	0.0	2.5731072E7	0.0	3.0	9.2106752E8	101.79662322998047	0.0	0.0	1.061277696E9	1.050116096E9	0.0	null	0.07199999690055847	0.04675000160932541	0.05000000074505806	0.9919999837875366	0.7424845695495605	0.0	244.0	371.0	0.0	0.0	0.0	0.0	0.0	0.0	null	null	null	null	null	null	null	null	334.0	334.0	334.0	337.0	335.0	339.0	336.0	335.0	335.0	333.0	336.0	
Sun Jun 04 06:16:00 UTC 2017	0.0	1.047281664E9	2659.36474609375	0.0	2.5731072E7	0.0	3.0	9.20854528E8	39.30896759033203	0.0	0.0	1.062289408E9	1.050116096E9	0.0	null	0.07900000363588333	0.04975000023841858	0.048250000923871994	0.9919999837875366	0.7424889802932739	0.0	244.0	371.0	0.0	0.0	0.0	0.0	0.0	0.0	null	null	null	null	null	null	null	null	334.0	335.0	334.0	333.0	334.0	335.0	338.0	333.0	331.0	336.0	333.0	
Sun Jun 04 06:15:00 UTC 2017	0.0	1.048293376E9	2659.36474609375	0.0	2.5731072E7	0.0	2.0	9.2094464E8	39.30896759033203	0.0	0.0	1.062289408E9	1.050116096E9	0.0	0.0	0.06750000268220901	0.05324999988079071	0.04574999958276749	0.9917500019073486	0.7447640895843506	0.0	244.0	371.0	0.0	0.0	0.0	0.0	0.0	0.0	null	null	null	null	null	null	null	null	336.0	334.0	334.0	334.0	336.0	337.0	336.0	333.0	333.0	333.0	335.0	
Sun Jun 04 06:14:00 UTC 2017	0.0	1.047281664E9	2659.36474609375	0.0	2.5731072E7	0.0	2.0	9.20854528E8	51.62372970581055	0.0	0.0	1.061277696E9	1.050116096E9	0.0	0.0	0.0754999965429306	0.051500000059604645	0.04600000008940697	0.9922500252723694	0.7424556612968445	0.0	244.0	371.0	0.0	0.0	0.0	0.0	0.0	0.0	null	null	null	null	null	null	null	null	337.0	333.0	336.0	338.0	333.0	335.0	335.0	335.0	332.0	338.0	336.0	
Sun Jun 04 06:13:00 UTC 2017	0.0	1.047281664E9	2539.385986328125	0.0	2.5731072E7	0.0	2.0	9.20854528E8	53.33964538574219	0.0	0.0	1.062289408E9	1.050116096E9	0.0	0.0	0.07474999874830246	0.050999999046325684	0.04500000178813934	0.9915000200271606	0.7424390316009521	0.0	244.0	371.0	0.0	0.0	0.0	0.0	0.0	0.0	null	null	null	null	null	null	null	null	334.0	334.0	335.0	335.0	334.0	335.0	334.0	335.0	336.0	335.0	332.0	
Sun Jun 04 06:12:00 UTC 2017	0.0	1.048293376E9	2539.385986328125	0.0	2.5731072E7	0.0	3.0	9.20850432E8	53.33964538574219	0.0	0.0	1.062289408E9	1.050116096E9	0.0	null	0.08349999785423279	0.051750000566244125	0.0494999997317791	0.9919999837875366	0.7424204349517822	0.0	244.0	371.0	0.0	0.0	0.0	0.0	0.0	0.0	null	null	null	null	null	null	null	null	334.0	333.0	333.0	335.0	336.0	334.0	333.0	334.0	333.0	335.0	334.0	
Sun Jun 04 06:11:00 UTC 2017	0.0	1.048293376E9	2579.2373046875	0.0	2.5731072E7	0.0	3.0	9.2063744E8	53.20881652832031	0.0	0.0	1.061277696E9	1.050116096E9	0.0	null	0.08824999630451202	0.04899999871850014	0.05050000175833702	0.9919999837875366	0.7424008846282959	0.0	244.0	371.0	0.0	0.0	0.0	0.0	0.0	0.0	null	null	null	null	null	null	null	null	337.0	333.0	332.0	331.0	335.0	335.0	335.0	332.0	337.0	335.0	335.0	
Sun Jun 04 06:10:00 UTC 2017	0.0	1.047281664E9	2579.2373046875	0.0	2.5731072E7	0.0	3.0	9.20989696E8	53.20881652832031	0.0	0.0	1.061277696E9	1.050116096E9	0.0	0.0	0.07774999737739563	0.051750000566244125	0.045499999076128006	0.9917500019073486	0.7424111366271973	0.0	244.0	371.0	0.0	0.0	0.0	0.0	0.0	0.0	null	null	null	null	null	null	null	null	335.0	335.0	334.0	338.0	333.0	335.0	334.0	336.0	334.0	334.0	331.0	
Sun Jun 04 06:09:00 UTC 2017	0.0	1.047281664E9	2781.31591796875	0.0	2.5731072E7	0.0	2.0	9.20576E8	42.41032028198242	0.0	0.0	1.062289408E9	1.050116096E9	0.0	0.0	0.07850000262260437	0.051750000566244125	0.05025000125169754	0.9919999837875366	0.7423915863037109	0.0	244.0	371.0	0.0	0.0	0.0	0.0	0.0	0.0	null	null	null	null	null	null	null	null	334.0	334.0	336.0	336.0	336.0	336.0	337.0	333.0	333.0	334.0	339.0	
Sun Jun 04 06:08:00 UTC 2017	0.0	1.047281664E9	2678.20166015625	0.0	2.5731072E7	0.0	2.0	9.20576E8	42.41032028198242	0.0	0.0	1.062289408E9	1.050116096E9	0.0	0.0	0.06925000250339508	0.04774999991059303	0.04749999940395355	0.9919999837875366	0.7423583269119263	0.0	244.0	371.0	0.0	0.0	0.0	0.0	0.0	0.0	null	null	null	null	null	null	null	null	334.0	336.0	334.0	335.0	335.0	334.0	333.0	338.0	335.0	333.0	333.0	
Sun Jun 04 06:07:00 UTC 2017	0.0	1.048293376E9	2678.20166015625	0.0	2.5731072E7	0.0	3.0	9.20576E8	47.23874282836914	0.0	0.0	1.062289408E9	1.050116096E9	0.0	0.0	0.07900000363588333	0.04975000023841858	0.04500000178813934	0.9919999837875366	0.7423098683357239	0.0	244.0	371.0	0.0	0.0	0.0	0.0	0.0	0.0	null	null	null	null	null	null	null	null	331.0	333.0	337.0	331.0	336.0	336.0	335.0	334.0	338.0	334.0	333.0	
Sun Jun 04 06:06:00 UTC 2017	0.0	1.048293376E9	2304.797607421875	0.0	2.5731072E7	0.0	3.0	9.20367104E8	38.065406799316406	0.0	1.0	1.062289408E9	1.050116096E9	0.0	0.0	0.0729999989271164	0.05649999901652336	0.045499999076128006	0.9922500252723694	0.7423000931739807	0.0	244.0	371.0	0.0	0.0	0.0	0.0	0.0	0.0	null	null	null	null	null	null	null	null	338.0	341.0	336.0	335.0	335.0	333.0	334.0	335.0	336.0	334.0	332.0	
Sun Jun 04 06:05:00 UTC 2017	0.0	1.048293376E9	3426.220458984375	0.0	2.5731072E7	0.0	2.0	9.20457216E8	39.93980026245117	0.0	0.0	1.061277696E9	1.050116096E9	0.0	0.0	0.07349999994039536	0.05299999937415123	0.04874999821186066	0.9919999837875366	0.7422947287559509	0.0	244.0	371.0	0.0	0.0	0.0	0.0	0.0	0.0	null	null	null	null	null	null	null	null	335.0	335.0	334.0	334.0	333.0	336.0	330.0	333.0	335.0	332.0	339.0	
Sun Jun 04 06:04:00 UTC 2017	0.0	1.048293376E9	2320.1025390625	0.0	2.5731072E7	0.0	3.0	9.20367104E8	39.93980026245117	0.0	0.0	1.061277696E9	1.050116096E9	0.0	0.0	0.07124999910593033	0.04574999958276749	0.051500000059604645	0.9919999837875366	0.7422795295715332	0.0	244.0	371.0	0.0	0.0	0.0	0.0	0.0	0.0	null	null	null	null	null	null	null	null	334.0	333.0	334.0	332.0	334.0	335.0	339.0	336.0	335.0	338.0	334.0	
Sun Jun 04 06:03:00 UTC 2017	0.0	1.048293376E9	2728.413818359375	0.0	2.5731072E7	0.0	3.0	9.20367104E8	39.93980026245117	0.0	0.0	1.062289408E9	1.050116096E9	0.0	0.0	0.07750000059604645	0.04800000041723251	0.04675000160932541	0.9922500252723694	0.7422609329223633	0.0	244.0	371.0	0.0	0.0	0.0	0.0	0.0	0.0	null	null	null	null	null	null	null	null	337.0	338.0	334.0	334.0	333.0	333.0	335.0	334.0	334.0	333.0	334.0	
Sun Jun 04 06:02:00 UTC 2017	0.0	1.047281664E9	2728.413818359375	0.0	2.5731072E7	0.0	3.0	9.20367104E8	56.722110748291016	0.0	0.0	1.061277696E9	1.050116096E9	0.0	0.0	0.08025000244379044	0.05575000122189522	0.045499999076128006	0.9919999837875366	0.7423025369644165	0.0	244.0	371.0	0.0	0.0	0.0	0.0	0.0	0.0	null	null	null	null	null	null	null	null	335.0	332.0	332.0	334.0	336.0	332.0	333.0	332.0	334.0	336.0	338.0	
Sun Jun 04 06:01:00 UTC 2017	0.0	1.048293376E9	2728.413818359375	0.0	2.5731072E7	0.0	2.0	9.20154112E8	42.469886779785156	0.0	0.0	1.061277696E9	1.050116096E9	0.0	0.0	0.09549999982118607	0.051500000059604645	0.04675000160932541	0.9922500252723694	0.7422433495521545	0.0	244.0	371.0	0.0	0.0	0.0	0.0	0.0	0.0	null	null	null	null	null	null	null	null	333.0	336.0	335.0	336.0	335.0	339.0	334.0	335.0	335.0	335.0	331.0	
Sun Jun 04 06:00:00 UTC 2017	0.0	1.047281664E9	2728.413818359375	0.0	2.5731072E7	0.0	2.0	9.20244224E8	50.324195861816406	0.0	0.0	1.061277696E9	1.050116096E9	0.0	0.0	0.0625	0.051500000059604645	0.04774999991059303	0.9925000071525574	0.7422267198562622	0.0	244.0	371.0	0.0	0.0	0.0	0.0	0.0	0.0	null	null	null	null	null	null	null	null	336.0	337.0	338.0	334.0	337.0	333.0	332.0	335.0	333.0	334.0	336.0	
Sun Jun 04 05:59:00 UTC 2017	0.0	1.047281664E9	2770.896240234375	0.0	2.5731072E7	0.0	3.0	9.20154112E8	50.324195861816406	0.0	0.0	1.061277696E9	1.050116096E9	0.0	0.0	0.08349999785423279	0.051249999552965164	0.05000000074505806	0.9919999837875366	0.7445013523101807	0.0	244.0	371.0	0.0	0.0	0.0	0.0	0.0	0.0	null	null	null	null	null	null	null	null	332.0	337.0	334.0	335.0	337.0	337.0	339.0	337.0	339.0	335.0	332.0	
Sun Jun 04 05:58:00 UTC 2017	0.0	1.048293376E9	2770.896240234375	0.0	2.5731072E7	0.0	3.0	9.20154112E8	35.67396545410156	0.0	0.0	1.061277696E9	1.050116096E9	0.0	0.0	0.07649999856948853	0.04399999976158142	0.04399999976158142	0.9919999837875366	0.7421875596046448	0.0	244.0	371.0	0.0	0.0	0.0	0.0	0.0	0.0	null	null	null	null	null	null	null	null	334.0	335.0	334.0	333.0	332.0	334.0	331.0	334.0	334.0	334.0	339.0	
Sun Jun 04 05:57:00 UTC 2017	0.0	1.048293376E9	2504.943603515625	0.0	2.5731072E7	0.0	5.0	9.20154112E8	86.60507202148438	0.0	0.0	1.062289408E9	1.050116096E9	0.0	0.0	0.06724999845027924	0.05375000089406967	0.051750000566244125	0.9919999837875366	0.7421875596046448	0.0	244.0	371.0	0.0	0.0	0.0	0.0	0.0	0.0	null	null	null	null	null	null	null	null	335.0	332.0	331.0	336.0	338.0	333.0	335.0	337.0	332.0	335.0	332.0	
Sun Jun 04 05:56:00 UTC 2017	0.0	1.048293376E9	2571.492431640625	0.0	2.5731072E7	0.0	10.0	9.1994112E8	86.60507202148438	0.0	0.0	1.061277696E9	1.050116096E9	0.0	0.0	0.07724999636411667	0.051249999552965164	0.045499999076128006	0.9917500019073486	0.7421665191650391	0.0	244.0	371.0	0.0	0.0	0.0	0.0	0.0	0.0	null	null	null	null	null	null	null	null	337.0	334.0	335.0	337.0	330.0	337.0	338.0	331.0	338.0	333.0	334.0	
Sun Jun 04 05:55:00 UTC 2017	0.0	1.048293376E9	2767.216064453125	0.0	2.5731072E7	0.0	3.0	9.18142976E8	86.60507202148438	0.0	0.0	1.061277696E9	1.050116096E9	0.0	0.0	0.07325000315904617	0.04975000023841858	0.05225000157952309	0.9917500019073486	0.7421474456787109	0.0	244.0	371.0	0.0	0.0	0.0	0.0	0.0	0.0	null	null	null	null	null	null	null	null	331.0	338.0	336.0	332.0	338.0	332.0	335.0	337.0	335.0	335.0	336.0	
Sun Jun 04 05:54:00 UTC 2017	0.0	1.048293376E9	2629.159423828125	0.0	2.5731072E7	0.0	4.0	9.18052864E8	81.32135772705078	0.0	0.0	1.062289408E9	1.050116096E9	0.0	0.0	0.08349999785423279	0.04975000023841858	0.048500001430511475	0.9922500252723694	0.7421435117721558	0.0	244.0	371.0	0.0	0.0	0.0	0.0	0.0	0.0	null	null	null	null	null	null	null	null	337.0	330.0	332.0	335.0	331.0	333.0	333.0	334.0	332.0	336.0	334.0	
Sun Jun 04 05:53:00 UTC 2017	0.0	1.047281664E9	2629.159423828125	0.0	2.5731072E7	0.0	2.0	9.18052864E8	77.91707611083984	0.0	0.0	1.062289408E9	1.050116096E9	0.0	0.0	0.07474999874830246	0.05575000122189522	0.0442500002682209	0.9919999837875366	0.7422096133232117	0.0	244.0	371.0	0.0	0.0	0.0	0.0	0.0	0.0	null	null	null	null	null	null	null	null	333.0	337.0	336.0	334.0	334.0	335.0	335.0	335.0	333.0	335.0	335.0	
Sun Jun 04 05:52:00 UTC 2017	0.0	1.048293376E9	2629.159423828125	0.0	2.5731072E7	0.0	2.0	9.18052864E8	77.91707611083984	0.0	0.0	1.062289408E9	1.050116096E9	0.0	0.0	0.06199999898672104	0.04699999839067459	0.05000000074505806	0.9922500252723694	0.744423508644104	0.0	244.0	371.0	0.0	0.0	0.0	0.0	0.0	0.0	null	null	null	null	null	null	null	null	333.0	332.0	334.0	333.0	335.0	337.0	332.0	336.0	335.0	335.0	336.0	
Sun Jun 04 05:51:00 UTC 2017	0.0	1.048293376E9	2498.767822265625	0.0	2.5731072E7	0.0	2.0	9.17843968E8	56.335567474365234	0.0	0.0	1.062289408E9	1.050116096E9	0.0	null	0.10875000059604645	0.05400000140070915	0.04749999940395355	0.9922500252723694	0.7444822192192078	0.0	244.0	371.0	0.0	0.0	0.0	0.0	0.0	0.0	null	null	null	null	null	null	null	null	335.0	335.0	334.0	336.0	333.0	334.0	335.0	335.0	337.0	335.0	335.0	
Sun Jun 04 05:50:00 UTC 2017	0.0	1.047281664E9	2498.767822265625	0.0	2.5731072E7	0.0	3.0	9.1793408E8	56.335567474365234	0.0	0.0	1.061277696E9	1.050116096E9	0.0	null	0.06949999928474426	0.04699999839067459	0.04774999991059303	0.9919999837875366	0.7435687780380249	0.0	244.0	371.0	0.0	0.0	0.0	0.0	0.0	0.0	null	null	null	null	null	null	null	null	336.0	333.0	337.0	336.0	339.0	336.0	334.0	333.0	330.0	337.0	335.0	
Sun Jun 04 05:49:00 UTC 2017	0.0	1.047281664E9	2701.88720703125	0.0	2.5731072E7	0.0	4.0	9.17843968E8	41.36891555786133	0.0	0.0	1.062289408E9	1.050116096E9	0.0	null	0.0794999971985817	0.04975000023841858	0.048250000923871994	0.9919999837875366	0.742081880569458	0.0	244.0	371.0	0.0	0.0	0.0	0.0	0.0	0.0	null	null	null	null	null	null	null	null	332.0	336.0	334.0	335.0	333.0	334.0	338.0	335.0	335.0	333.0	334.0	
Sun Jun 04 05:48:00 UTC 2017	0.0	1.048293376E9	2701.88720703125	0.0	2.5731072E7	0.0	4.0	9.17843968E8	41.36891555786133	0.0	0.0	1.062289408E9	1.050116096E9	0.0	0.0	0.07150000333786011	0.05375000089406967	0.04774999991059303	0.9922500252723694	0.742081880569458	0.0	244.0	371.0	0.0	0.0	0.0	0.0	0.0	0.0	null	null	null	null	null	null	null	null	336.0	333.0	333.0	332.0	334.0	333.0	332.0	335.0	336.0	335.0	336.0	
Sun Jun 04 05:47:00 UTC 2017	0.0	1.047281664E9	2701.88720703125	0.0	2.5731072E7	0.0	3.0	9.17843968E8	41.36891555786133	0.0	0.0	1.062289408E9	1.050116096E9	0.0	0.0	0.06875000149011612	0.05025000125169754	0.04450000077486038	0.9919999837875366	0.7420647740364075	0.0	244.0	371.0	0.0	0.0	0.0	0.0	0.0	0.0	null	null	null	null	null	null	null	null	331.0	335.0	335.0	334.0	335.0	337.0	337.0	335.0	336.0	331.0	334.0	
Sun Jun 04 05:46:00 UTC 2017	0.0	1.048293376E9	2701.88720703125	0.0	2.5731072E7	0.0	3.0	9.17630976E8	41.36891555786133	0.0	0.0	1.061277696E9	1.050116096E9	0.0	0.0	0.07249999791383743	0.051249999552965164	0.051249999552965164	0.9919999837875366	0.7420505881309509	0.0	244.0	371.0	0.0	0.0	0.0	0.0	0.0	0.0	null	null	null	null	null	null	null	null	336.0	334.0	336.0	338.0	335.0	334.0	333.0	333.0	331.0	336.0	335.0	
Sun Jun 04 05:45:00 UTC 2017	0.0	1.048293376E9	2416.643798828125	0.0	2.5731072E7	0.0	2.0	9.17721088E8	44.155765533447266	0.0	0.0	1.062289408E9	1.050116096E9	0.0	0.0	0.07649999856948853	0.050999999046325684	0.04924999922513962	0.9919999837875366	0.7420457005500793	0.0	244.0	371.0	0.0	0.0	0.0	0.0	0.0	0.0	null	null	null	null	null	null	null	null	336.0	333.0	336.0	333.0	333.0	335.0	334.0	337.0	334.0	336.0	335.0	
Sun Jun 04 05:44:00 UTC 2017	0.0	1.048293376E9	2750.07080078125	0.0	2.5731072E7	0.0	2.0	9.17630976E8	44.155765533447266	0.0	0.0	1.061277696E9	1.050116096E9	0.0	0.0	0.07150000333786011	0.04800000041723251	0.0442500002682209	0.9922500252723694	0.7419952750205994	0.0	244.0	371.0	0.0	0.0	0.0	0.0	0.0	0.0	null	null	null	null	null	null	null	null	334.0	335.0	335.0	334.0	334.0	337.0	333.0	332.0	336.0	333.0	334.0	
Sun Jun 04 05:43:00 UTC 2017	0.0	1.048293376E9	3119.912841796875	0.0	2.5731072E7	0.0	2.0	9.17630976E8	42.920536041259766	0.0	0.0	1.062289408E9	1.050116096E9	0.0	0.0	0.07649999856948853	0.05624999850988388	0.05025000125169754	0.9917500019073486	0.7442547082901001	0.0	244.0	371.0	0.0	0.0	0.0	0.0	0.0	0.0	null	null	null	null	null	null	null	null	334.0	335.0	334.0	330.0	336.0	331.0	336.0	335.0	335.0	336.0	333.0	
Sun Jun 04 05:42:00 UTC 2017	0.0	1.048293376E9	2762.911376953125	0.0	2.5731072E7	0.0	4.0	9.17630976E8	55.35798263549805	0.0	1.0	1.062289408E9	1.050116096E9	0.0	0.0	0.07349999994039536	0.048500001430511475	0.04399999976158142	0.9919999837875366	0.7419629693031311	0.0	244.0	371.0	0.0	0.0	0.0	0.0	0.0	0.0	null	null	null	null	null	null	null	null	333.0	331.0	333.0	336.0	331.0	335.0	332.0	335.0	334.0	334.0	335.0	
Sun Jun 04 05:41:00 UTC 2017	0.0	1.047281664E9	2762.911376953125	0.0	2.5731072E7	0.0	2.0	9.17417984E8	66.73047637939453	0.0	0.0	1.062289408E9	1.050116096E9	0.0	0.0	0.10225000232458115	0.04774999991059303	0.05225000157952309	0.9917500019073486	0.7419463396072388	0.0	244.0	371.0	0.0	0.0	0.0	0.0	0.0	0.0	null	null	null	null	null	null	null	null	335.0	335.0	335.0	331.0	337.0	334.0	338.0	335.0	336.0	334.0	334.0	
Sun Jun 04 05:40:00 UTC 2017	0.0	1.047281664E9	2781.147705078125	0.0	2.5731072E7	0.0	2.0	9.17508096E8	46.93385314941406	0.0	0.0	1.062289408E9	1.050116096E9	0.0	0.0	0.0807500034570694	0.051750000566244125	0.04675000160932541	0.9917500019073486	0.7419238686561584	0.0	244.0	371.0	0.0	0.0	0.0	0.0	0.0	0.0	null	null	null	null	null	null	null	null	336.0	337.0	331.0	335.0	334.0	335.0	334.0	334.0	334.0	336.0	335.0	
Sun Jun 04 05:39:00 UTC 2017	0.0	1.048293376E9	2781.147705078125	0.0	2.5731072E7	0.0	3.0	9.17417984E8	46.0137825012207	0.0	0.0	1.061277696E9	1.050116096E9	0.0	0.0	0.07124999910593033	0.04724999889731407	0.050999999046325684	0.9917500019073486	0.7419214248657227	0.0	244.0	371.0	0.0	0.0	0.0	0.0	0.0	0.0	null	null	null	null	null	null	null	null	334.0	333.0	337.0	334.0	336.0	334.0	333.0	334.0	332.0	334.0	332.0	
Sun Jun 04 05:38:00 UTC 2017	0.0	1.048293376E9	2585.865966796875	0.0	2.5731072E7	0.0	2.0	9.17417984E8	46.0137825012207	0.0	0.0	1.061277696E9	1.050116096E9	0.0	null	0.07925000041723251	0.05950000137090683	0.042750000953674316	0.9917500019073486	0.7419042587280273	0.0	244.0	371.0	0.0	0.0	0.0	0.0	0.0	0.0	null	null	null	null	null	null	null	null	330.0	331.0	335.0	335.0	329.0	335.0	333.0	335.0	334.0	335.0	333.0	
Sun Jun 04 05:37:00 UTC 2017	0.0	1.047281664E9	2585.865966796875	0.0	2.5731072E7	0.0	3.0	9.17417984E8	70.11125183105469	0.0	0.0	1.062289408E9	1.050116096E9	0.0	null	0.07500000298023224	0.045249998569488525	0.051500000059604645	0.9915000200271606	0.7441651821136475	0.0	244.0	371.0	0.0	0.0	0.0	0.0	0.0	0.0	null	null	null	null	null	null	null	null	336.0	334.0	332.0	335.0	337.0	329.0	333.0	333.0	335.0	330.0	332.0	
Sun Jun 04 05:36:00 UTC 2017	0.0	1.047281664E9	3542.22021484375	0.0	2.5731072E7	0.0	3.0	9.17209088E8	70.11125183105469	0.0	0.0	1.061277696E9	1.050116096E9	0.0	null	0.07575000077486038	0.05249999836087227	0.04800000041723251	0.9919999837875366	0.7438711524009705	0.0	244.0	371.0	0.0	0.0	0.0	0.0	0.0	0.0	null	null	null	null	null	null	null	null	331.0	335.0	333.0	333.0	334.0	335.0	339.0	335.0	335.0	334.0	334.0	
Sun Jun 04 05:35:00 UTC 2017	0.0	1.048293376E9	3542.22021484375	0.0	2.5731072E7	0.0	4.0	9.172992E8	70.11125183105469	0.0	0.0	1.061277696E9	1.050116096E9	0.0	0.0	0.07524999976158142	0.05050000175833702	0.04600000008940697	0.9917500019073486	0.7418979406356812	0.0	244.0	371.0	0.0	0.0	0.0	0.0	0.0	0.0	null	null	null	null	null	null	null	null	337.0	334.0	335.0	334.0	332.0	336.0	335.0	334.0	333.0	332.0	336.0	
Sun Jun 04 05:34:00 UTC 2017	0.0	1.047281664E9	3542.22021484375	0.0	2.5731072E7	0.0	3.0	9.17209088E8	45.916011810302734	0.0	0.0	1.062289408E9	1.050116096E9	0.0	0.0	0.07000000029802322	0.04800000041723251	0.048500001430511475	0.9915000200271606	0.7418974041938782	0.0	244.0	371.0	0.0	0.0	0.0	0.0	0.0	0.0	null	null	null	null	null	null	null	null	333.0	331.0	333.0	330.0	333.0	336.0	336.0	332.0	334.0	333.0	333.0	
Sun Jun 04 05:33:00 UTC 2017	0.0	1.048293376E9	3542.22021484375	0.0	2.5731072E7	0.0	2.0	9.17209088E8	45.916011810302734	0.0	0.0	1.062289408E9	1.050116096E9	0.0	0.0	0.07699999958276749	0.05324999988079071	0.05050000175833702	0.9909999966621399	0.7418807744979858	0.0	244.0	371.0	0.0	0.0	0.0	0.0	0.0	0.0	null	null	null	null	null	null	null	null	334.0	337.0	334.0	334.0	334.0	330.0	333.0	331.0	334.0	334.0	330.0	
Sun Jun 04 05:32:00 UTC 2017	0.0	1.047281664E9	3542.22021484375	0.0	2.5731072E7	0.0	2.0	9.17209088E8	56.69823455810547	0.0	1.0	1.062289408E9	1.050116096E9	0.0	null	0.08124999701976776	0.05299999937415123	0.04324999824166298	0.9854999780654907	0.7418617010116577	0.0	244.0	371.0	0.0	0.0	0.0	0.0	0.0	0.0	null	null	null	null	null	null	null	null	331.0	332.0	330.0	328.0	331.0	333.0	333.0	336.0	333.0	332.0	333.0	
Sun Jun 04 05:31:00 UTC 2017	1.0	1.048293376E9	3542.22021484375	0.0	2.5731072E7	0.0	2.0	9.17086208E8	56.69823455810547	0.0	0.0	1.062289408E9	1.050116096E9	0.0	null	0.09224999696016312	0.05299999937415123	0.04975000023841858	0.9897500276565552	0.741847038269043	0.0	244.0	371.0	0.0	0.0	0.0	0.0	0.0	0.0	null	null	null	null	null	null	null	null	333.0	332.0	332.0	337.0	333.0	332.0	329.0	333.0	332.0	333.0	334.0	
Sun Jun 04 05:30:00 UTC 2017	0.0	1.047281664E9	3542.22021484375	0.0	2.5731072E7	0.0	2.0	9.17086208E8	59.84790802001953	0.0	0.0	1.062289408E9	1.050116096E9	0.0	null	0.08399999886751175	0.052000001072883606	0.04500000178813934	0.9890000224113464	0.7418460845947266	0.0	244.0	371.0	0.0	0.0	0.0	0.0	0.0	0.0	null	null	null	null	null	null	null	null	334.0	334.0	331.0	333.0	333.0	333.0	335.0	330.0	334.0	332.0	330.0	
Sun Jun 04 05:29:00 UTC 2017	0.0	1.047281664E9	2400.992919921875	0.0	2.5731072E7	0.0	2.0	9.16996096E8	60.082763671875	0.0	0.0	1.062289408E9	1.050116096E9	0.0	null	0.06925000250339508	0.04749999940395355	0.04899999871850014	0.9884999990463257	0.7418127655982971	0.0	244.0	371.0	0.0	0.0	0.0	0.0	0.0	0.0	null	null	null	null	null	null	null	null	334.0	330.0	336.0	334.0	332.0	330.0	331.0	334.0	332.0	334.0	334.0	
Sun Jun 04 05:28:00 UTC 2017	0.0	1.047281664E9	2794.435302734375	0.0	2.5731072E7	0.0	4.0	9.16996096E8	60.082763671875	0.0	0.0	1.061277696E9	1.050116096E9	0.0	null	0.07824999839067459	0.05025000125169754	0.04975000023841858	0.9912499785423279	0.7417985796928406	0.0	244.0	371.0	0.0	0.0	0.0	0.0	0.0	0.0	null	null	null	null	null	null	null	null	332.0	333.0	330.0	334.0	332.0	336.0	335.0	334.0	334.0	333.0	331.0	
Sun Jun 04 05:27:00 UTC 2017	1.0	1.048293376E9	2794.435302734375	0.0	2.5731072E7	0.0	3.0	9.16996096E8	60.082763671875	0.0	0.0	1.062289408E9	1.050116096E9	0.0	null	0.07100000232458115	0.05375000089406967	0.04450000077486038	0.9912499785423279	0.7417956590652466	0.0	244.0	371.0	0.0	0.0	0.0	0.0	0.0	0.0	null	null	null	null	null	null	null	null	333.0	337.0	335.0	331.0	332.0	332.0	332.0	332.0	332.0	334.0	337.0	
Sun Jun 04 05:26:00 UTC 2017	0.0	1.047281664E9	2794.435302734375	0.0	2.5731072E7	0.0	2.0	9.16783104E8	60.082763671875	0.0	1.0	1.062289408E9	1.050116096E9	0.0	0.0	0.08349999785423279	0.05575000122189522	0.04675000160932541	0.9915000200271606	0.7417761087417603	0.0	244.0	371.0	0.0	0.0	0.0	0.0	0.0	0.0	null	null	null	null	null	null	null	null	332.0	331.0	335.0	335.0	334.0	331.0	335.0	332.0	334.0	334.0	333.0	
Sun Jun 04 05:25:00 UTC 2017	0.0	1.047281664E9	2667.99169921875	0.0	2.5731072E7	0.0	2.0	9.16873216E8	60.082763671875	1.0	1.0	1.061277696E9	1.050116096E9	0.0	0.0	0.06800000369548798	0.048250000923871994	0.0494999997317791	0.9917500019073486	0.7417902946472168	0.0	244.0	371.0	0.0	0.0	0.0	0.0	0.0	0.0	null	null	null	null	null	null	null	null	333.0	336.0	333.0	335.0	336.0	338.0	336.0	331.0	331.0	334.0	336.0	
Sun Jun 04 05:24:00 UTC 2017	0.0	1.047281664E9	2351.751953125	0.0	2.5731072E7	0.0	2.0	9.16783104E8	61.422088623046875	0.0	0.0	1.061277696E9	1.050116096E9	0.0	null	0.08275000005960464	0.05324999988079071	0.04749999940395355	0.9917500019073486	0.7417741417884827	0.0	244.0	371.0	0.0	0.0	0.0	0.0	0.0	0.0	null	null	null	null	null	null	null	null	337.0	335.0	332.0	334.0	335.0	331.0	334.0	337.0	334.0	334.0	333.0	
Sun Jun 04 05:23:00 UTC 2017	0.0	1.047281664E9	3070.83642578125	0.0	2.5731072E7	0.0	3.0	9.16783104E8	47.48938751220703	0.0	0.0	1.062289408E9	1.050116096E9	0.0	null	0.07199999690055847	0.05249999836087227	0.04574999958276749	0.9919999837875366	0.7417790293693542	0.0	244.0	371.0	0.0	0.0	0.0	0.0	0.0	0.0	null	null	null	null	null	null	null	null	334.0	334.0	333.0	335.0	335.0	339.0	332.0	334.0	336.0	334.0	337.0	
Sun Jun 04 05:22:00 UTC 2017	0.0	1.047281664E9	2905.60400390625	0.0	2.5731072E7	0.0	3.0	9.16783104E8	51.75977325439453	0.0	0.0	1.062289408E9	1.050116096E9	0.0	0.0	0.08150000125169754	0.04625000059604645	0.04625000059604645	0.9917500019073486	0.7417721748352051	0.0	244.0	371.0	0.0	0.0	0.0	0.0	0.0	0.0	null	null	null	null	null	null	null	null	333.0	334.0	335.0	331.0	333.0	334.0	336.0	335.0	335.0	333.0	335.0	
Sun Jun 04 05:21:00 UTC 2017	0.0	1.047281664E9	2570.808837890625	0.0	2.5731072E7	0.0	2.0	9.13276928E8	58.43610763549805	0.0	0.0	1.061277696E9	1.050116096E9	0.0	0.0	0.0925000011920929	0.054749999195337296	0.04924999922513962	0.9919999837875366	0.7425848841667175	0.0	244.0	371.0	0.0	0.0	0.0	0.0	0.0	0.0	null	null	null	null	null	null	null	null	337.0	334.0	333.0	338.0	333.0	335.0	335.0	336.0	335.0	334.0	335.0	
Sun Jun 04 05:20:00 UTC 2017	0.0	1.047281664E9	2854.369384765625	0.0	2.5731072E7	0.0	2.0	9.13362944E8	58.43610763549805	0.0	0.0	1.062289408E9	1.050116096E9	0.0	0.0	0.07124999910593033	0.04774999991059303	0.05050000175833702	0.9922500252723694	0.7417379021644592	0.0	244.0	371.0	0.0	0.0	0.0	0.0	0.0	0.0	null	null	null	null	null	null	null	null	332.0	332.0	332.0	335.0	338.0	335.0	335.0	335.0	334.0	337.0	333.0	
Sun Jun 04 05:19:00 UTC 2017	0.0	1.048293376E9	2854.369384765625	0.0	2.5731072E7	0.0	2.0	9.13272832E8	58.43610763549805	0.0	0.0	1.061277696E9	1.050116096E9	0.0	0.0	0.07400000095367432	0.051500000059604645	0.04574999958276749	0.9917500019073486	0.741737425327301	0.0	244.0	371.0	0.0	0.0	0.0	0.0	0.0	0.0	null	null	null	null	null	null	null	null	332.0	338.0	337.0	332.0	335.0	332.0	334.0	334.0	334.0	334.0	339.0	
Sun Jun 04 05:18:00 UTC 2017	0.0	1.047281664E9	2854.369384765625	0.0	2.5731072E7	0.0	2.0	9.13272832E8	51.887393951416016	0.0	0.0	1.062289408E9	1.050116096E9	0.0	0.0	0.08624999970197678	0.05299999937415123	0.04774999991059303	0.9919999837875366	0.7417227625846863	0.0	244.0	371.0	0.0	0.0	0.0	0.0	0.0	0.0	null	null	null	null	null	null	null	null	335.0	335.0	331.0	336.0	333.0	336.0	331.0	337.0	333.0	336.0	331.0	
Sun Jun 04 05:17:00 UTC 2017	0.0	1.048293376E9	2854.369384765625	0.0	2.5731072E7	0.0	3.0	9.13272832E8	42.52124786376953	0.0	0.0	1.061277696E9	1.050116096E9	0.0	0.0	0.06949999928474426	0.04574999958276749	0.04924999922513962	0.9919999837875366	0.7417012453079224	0.0	244.0	371.0	0.0	0.0	0.0	0.0	0.0	0.0	null	null	null	null	null	null	null	null	333.0	332.0	333.0	334.0	333.0	332.0	340.0	331.0	336.0	332.0	336.0	
Sun Jun 04 05:16:00 UTC 2017	0.0	1.047281664E9	2854.369384765625	0.0	2.5731072E7	0.0	2.0	9.13063936E8	62.69078826904297	0.0	0.0	1.061277696E9	1.050116096E9	0.0	0.0	0.08124999701976776	0.050999999046325684	0.04574999958276749	0.9917500019073486	0.7416977882385254	0.0	244.0	371.0	0.0	0.0	0.0	0.0	0.0	0.0	null	null	null	null	null	null	null	null	334.0	335.0	336.0	334.0	338.0	334.0	331.0	337.0	336.0	335.0	337.0	
Sun Jun 04 05:15:00 UTC 2017	0.0	1.047281664E9	2412.528564453125	0.0	2.5731072E7	0.0	2.0	9.13154048E8	62.69078826904297	0.0	0.0	1.062289408E9	1.050116096E9	0.0	0.0	0.06724999845027924	0.05400000140070915	0.04749999940395355	0.9922500252723694	0.7416660189628601	0.0	244.0	371.0	0.0	0.0	0.0	0.0	0.0	0.0	null	null	null	null	null	null	null	null	339.0	335.0	335.0	335.0	333.0	337.0	335.0	336.0	337.0	338.0	335.0	
Sun Jun 04 05:14:00 UTC 2017	0.0	1.048293376E9	2412.528564453125	0.0	2.5731072E7	0.0	3.0	9.13063936E8	75.9582748413086	0.0	0.0	1.061277696E9	1.050116096E9	0.0	0.0	0.08224999904632568	0.04975000023841858	0.0507499985396862	0.9919999837875366	0.7416508197784424	0.0	244.0	371.0	0.0	0.0	0.0	0.0	0.0	0.0	null	null	null	null	null	null	null	null	332.0	333.0	333.0	335.0	332.0	331.0	339.0	334.0	333.0	336.0	333.0	
Sun Jun 04 05:13:00 UTC 2017	0.0	1.048293376E9	3421.36328125	0.0	2.5731072E7	0.0	3.0	9.13063936E8	60.6869010925293	0.0	0.0	1.062289408E9	1.050116096E9	0.0	0.0	0.07575000077486038	0.042750000953674316	0.04574999958276749	0.9919999837875366	0.7416474223136902	0.0	244.0	371.0	0.0	0.0	0.0	0.0	0.0	0.0	null	null	null	null	null	null	null	null	334.0	336.0	332.0	333.0	333.0	339.0	331.0	337.0	333.0	332.0	336.0	
Sun Jun 04 05:12:00 UTC 2017	0.0	1.047281664E9	3421.36328125	0.0	2.5731072E7	0.0	3.0	9.12433152E8	60.6869010925293	1.0	1.0	1.061277696E9	1.050116096E9	0.0	0.0	0.07575000077486038	0.05674999952316284	0.04774999991059303	0.9919999837875366	0.7416307926177979	0.0	244.0	371.0	0.0	0.0	0.0	0.0	0.0	0.0	null	null	null	null	null	null	null	null	331.0	336.0	332.0	333.0	337.0	334.0	334.0	334.0	334.0	336.0	334.0	
Sun Jun 04 05:11:00 UTC 2017	0.0	1.047281664E9	3107.65478515625	0.0	2.5731072E7	0.0	3.0	9.1222016E8	60.6869010925293	0.0	0.0	1.061277696E9	1.050116096E9	0.0	0.0	0.09075000137090683	0.05324999988079071	0.045249998569488525	0.9922500252723694	0.7416175603866577	0.0	244.0	371.0	0.0	0.0	0.0	0.0	0.0	0.0	null	null	null	null	null	null	null	null	336.0	334.0	336.0	336.0	333.0	334.0	332.0	334.0	334.0	333.0	336.0	
Sun Jun 04 05:10:00 UTC 2017	0.0	1.048293376E9	3107.65478515625	0.0	2.5731072E7	0.0	5.0	9.12572416E8	60.6869010925293	0.0	0.0	1.061277696E9	1.050116096E9	0.0	null	0.0767500028014183	0.04924999922513962	0.04975000023841858	0.9919999837875366	0.7422839403152466	0.0	244.0	371.0	0.0	0.0	0.0	0.0	0.0	0.0	null	null	null	null	null	null	null	null	335.0	335.0	338.0	335.0	334.0	337.0	335.0	336.0	335.0	335.0	335.0	
Sun Jun 04 05:09:00 UTC 2017	0.0	1.047281664E9	3107.65478515625	0.0	2.5731072E7	0.0	2.0	9.12277504E8	32.806663513183594	0.0	0.0	1.061277696E9	1.050116096E9	0.0	null	0.07699999958276749	0.0494999997317791	0.0507499985396862	0.9919999837875366	0.7415989637374878	0.0	244.0	371.0	0.0	0.0	0.0	0.0	0.0	0.0	null	null	null	null	null	null	null	null	332.0	333.0	333.0	334.0	334.0	335.0	331.0	335.0	333.0	337.0	332.0	
Sun Jun 04 05:08:00 UTC 2017	0.0	1.048293376E9	3107.65478515625	0.0	2.5731072E7	0.0	2.0	9.12277504E8	32.806663513183594	0.0	0.0	1.061277696E9	1.050116096E9	0.0	0.0	0.07474999874830246	0.05000000074505806	0.04749999940395355	0.9919999837875366	0.7415808439254761	0.0	244.0	371.0	0.0	0.0	0.0	0.0	0.0	0.0	null	null	null	null	null	null	null	null	336.0	336.0	334.0	332.0	339.0	332.0	336.0	334.0	332.0	331.0	336.0	
Sun Jun 04 05:07:00 UTC 2017	0.0	1.047281664E9	3107.65478515625	0.0	2.5731072E7	0.0	3.0	9.12277504E8	57.93055725097656	0.0	0.0	1.062289408E9	1.050116096E9	0.0	0.0	0.06800000369548798	0.054499998688697815	0.04975000023841858	0.9922500252723694	0.7425016760826111	0.0	244.0	371.0	0.0	0.0	0.0	0.0	0.0	0.0	null	null	null	null	null	null	null	null	332.0	333.0	338.0	337.0	334.0	337.0	331.0	336.0	336.0	336.0	333.0	
Sun Jun 04 05:06:00 UTC 2017	0.0	1.048293376E9	3107.65478515625	0.0	2.5731072E7	0.0	2.0	9.12064512E8	59.052345275878906	0.0	0.0	1.062289408E9	1.050116096E9	0.0	0.0	0.08275000005960464	0.048500001430511475	0.04349999874830246	0.9922500252723694	0.741561770439148	0.0	244.0	371.0	0.0	0.0	0.0	0.0	0.0	0.0	null	null	null	null	null	null	null	null	334.0	332.0	332.0	332.0	333.0	334.0	334.0	336.0	335.0	333.0	332.0	
Sun Jun 04 05:05:00 UTC 2017	0.0	1.048293376E9	2978.593017578125	0.0	2.5731072E7	0.0	2.0	9.12154624E8	59.052345275878906	0.0	0.0	1.062289408E9	1.050116096E9	0.0	0.0	0.07874999940395355	0.051750000566244125	0.051249999552965164	0.9917500019073486	0.741543173789978	0.0	244.0	371.0	0.0	0.0	0.0	0.0	0.0	0.0	null	null	null	null	null	null	null	null	333.0	334.0	336.0	337.0	333.0	335.0	335.0	333.0	337.0	337.0	335.0	
Sun Jun 04 05:04:00 UTC 2017	0.0	1.048293376E9	2205.244384765625	0.0	2.5731072E7	0.0	2.0	9.12064512E8	58.99517822265625	0.0	0.0	1.062289408E9	1.050116096E9	0.0	null	0.0742499977350235	0.04774999991059303	0.04450000077486038	0.9922500252723694	0.7415422201156616	0.0	244.0	371.0	0.0	0.0	0.0	0.0	0.0	0.0	null	null	null	null	null	null	null	null	334.0	336.0	334.0	335.0	337.0	336.0	333.0	336.0	334.0	331.0	336.0	
Sun Jun 04 05:03:00 UTC 2017	0.0	1.048293376E9	2975.453369140625	0.0	2.5731072E7	0.0	2.0	9.12064512E8	49.619537353515625	0.0	0.0	1.061277696E9	1.050116096E9	0.0	null	0.07699999958276749	0.054749999195337296	0.05025000125169754	0.9922500252723694	0.7415255904197693	0.0	244.0	371.0	0.0	0.0	0.0	0.0	0.0	0.0	null	null	null	null	null	null	null	null	334.0	334.0	334.0	330.0	334.0	333.0	334.0	334.0	337.0	336.0	330.0	
Sun Jun 04 05:02:00 UTC 2017	0.0	1.047281664E9	2975.453369140625	0.0	2.5731072E7	0.0	2.0	9.12064512E8	45.65119552612305	0.0	0.0	1.061277696E9	1.050116096E9	0.0	0.0	0.07175000011920929	0.04450000077486038	0.045249998569488525	0.9919999837875366	0.741506040096283	0.0	244.0	371.0	0.0	0.0	0.0	0.0	0.0	0.0	null	null	null	null	null	null	null	null	336.0	339.0	337.0	333.0	332.0	337.0	332.0	333.0	328.0	335.0	336.0	
Sun Jun 04 05:01:00 UTC 2017	0.0	1.047281664E9	2585.408935546875	0.0	2.5731072E7	0.0	4.0	9.11945728E8	61.40924835205078	0.0	0.0	1.062289408E9	1.050116096E9	0.0	0.0	0.09574999660253525	0.054499998688697815	0.04874999821186066	0.9919999837875366	0.741496741771698	0.0	244.0	371.0	0.0	0.0	0.0	0.0	0.0	0.0	null	null	null	null	null	null	null	null	330.0	332.0	334.0	335.0	337.0	334.0	335.0	335.0	336.0	336.0	331.0	
Sun Jun 04 05:00:00 UTC 2017	0.0	1.047281664E9	2377.85205078125	0.0	2.5731072E7	0.0	2.0	9.10893056E8	61.40924835205078	2.0	2.0	1.062289408E9	1.050116096E9	0.0	0.0	0.07474999874830246	0.057750001549720764	0.04450000077486038	0.9919999837875366	0.7421327829360962	0.0	244.0	371.0	0.0	0.0	0.0	0.0	0.0	0.0	null	null	null	null	null	null	null	null	338.0	337.0	334.0	335.0	335.0	332.0	336.0	335.0	336.0	334.0	334.0	
Sun Jun 04 04:59:00 UTC 2017	0.0	1.047281664E9	2664.020263671875	0.0	2.5731072E7	0.0	2.0	9.10802944E8	46.444679260253906	0.0	0.0	1.061277696E9	1.050116096E9	0.0	0.0	0.07575000077486038	0.04349999874830246	0.05324999988079071	0.9917500019073486	0.7414839863777161	0.0	244.0	371.0	0.0	0.0	0.0	0.0	0.0	0.0	null	null	null	null	null	null	null	null	332.0	335.0	332.0	333.0	331.0	335.0	333.0	336.0	334.0	336.0	336.0	
Sun Jun 04 04:58:00 UTC 2017	0.0	1.048293376E9	2664.020263671875	0.0	2.5731072E7	0.0	2.0	9.10802944E8	47.46493911743164	0.0	0.0	1.062289408E9	1.050116096E9	0.0	0.0	0.07750000059604645	0.05050000175833702	0.04475000128149986	0.9925000071525574	0.7414575815200806	0.0	244.0	371.0	0.0	0.0	0.0	0.0	0.0	0.0	null	null	null	null	null	null	null	null	334.0	336.0	335.0	337.0	334.0	335.0	333.0	332.0	333.0	334.0	335.0	
Sun Jun 04 04:57:00 UTC 2017	0.0	1.048293376E9	2751.1240234375	0.0	2.5731072E7	0.0	2.0	9.10802944E8	47.46493911743164	0.0	0.0	1.062289408E9	1.050116096E9	0.0	0.0	0.0677499994635582	0.04899999871850014	0.0507499985396862	0.9919999837875366	0.7414991855621338	0.0	244.0	371.0	0.0	0.0	0.0	0.0	0.0	0.0	null	null	null	null	null	null	null	null	336.0	333.0	336.0	333.0	335.0	335.0	337.0	335.0	334.0	333.0	332.0	
Sun Jun 04 04:56:00 UTC 2017	0.0	1.047281664E9	2751.1240234375	0.0	2.5731072E7	0.0	2.0	9.10589952E8	45.911773681640625	0.0	0.0	1.061277696E9	1.050116096E9	0.0	0.0	0.07500000298023224	0.0572500005364418	0.04675000160932541	0.9922500252723694	0.7414218783378601	0.0	244.0	371.0	0.0	0.0	0.0	0.0	0.0	0.0	null	null	null	null	null	null	null	null	334.0	334.0	335.0	337.0	336.0	336.0	335.0	336.0	335.0	336.0	333.0	
Sun Jun 04 04:55:00 UTC 2017	0.0	1.047281664E9	2841.87646484375	0.0	2.5731072E7	0.0	7.0	9.10680064E8	45.660343170166016	0.0	0.0	1.061277696E9	1.050116096E9	0.0	0.0	0.08250000327825546	0.04650000110268593	0.048500001430511475	0.9922500252723694	0.7437081933021545	0.0	244.0	371.0	0.0	0.0	0.0	0.0	0.0	0.0	null	null	null	null	null	null	null	null	336.0	332.0	337.0	336.0	334.0	335.0	336.0	334.0	334.0	333.0	334.0	
Sun Jun 04 04:54:00 UTC 2017	0.0	1.048293376E9	2841.87646484375	0.0	2.5731072E7	0.0	2.0	9.1019264E8	45.660343170166016	0.0	1.0	1.062289408E9	1.050116096E9	0.0	0.0	0.0677499994635582	0.050999999046325684	0.04774999991059303	0.9919999837875366	0.7414037585258484	0.0	244.0	371.0	0.0	0.0	0.0	0.0	0.0	0.0	null	null	null	null	null	null	null	null	335.0	334.0	336.0	337.0	334.0	336.0	331.0	334.0	338.0	337.0	332.0	
Sun Jun 04 04:53:00 UTC 2017	0.0	1.047281664E9	2841.87646484375	0.0	2.5731072E7	0.0	2.0	9.1019264E8	45.660343170166016	1.0	1.0	1.062289408E9	1.050116096E9	0.0	null	0.07400000095367432	0.0507499985396862	0.04574999958276749	0.9919999837875366	0.7436876893043518	0.0	244.0	371.0	0.0	0.0	0.0	0.0	0.0	0.0	null	null	null	null	null	null	null	null	333.0	332.0	334.0	336.0	335.0	331.0	335.0	335.0	334.0	332.0	336.0	
Sun Jun 04 04:52:00 UTC 2017	0.0	1.048293376E9	2841.87646484375	0.0	2.5731072E7	0.0	3.0	9.1019264E8	45.660343170166016	1.0	1.0	1.062289408E9	1.050116096E9	0.0	0.0	0.07599999755620956	0.057999998331069946	0.051249999552965164	0.9919999837875366	0.7413915395736694	0.0	244.0	371.0	0.0	0.0	0.0	0.0	0.0	0.0	null	null	null	null	null	null	null	null	334.0	338.0	337.0	333.0	336.0	335.0	336.0	334.0	330.0	338.0	335.0	
Sun Jun 04 04:51:00 UTC 2017	0.0	1.047281664E9	2841.87646484375	0.0	2.5731072E7	0.0	3.0	9.09979648E8	45.660343170166016	0.0	0.0	1.061277696E9	1.050116096E9	0.0	0.0	0.10575000196695328	0.045249998569488525	0.04399999976158142	0.9922500252723694	0.7413743734359741	0.0	244.0	371.0	0.0	0.0	0.0	0.0	0.0	0.0	null	null	null	null	null	null	null	null	336.0	331.0	332.0	336.0	337.0	337.0	333.0	334.0	335.0	336.0	334.0	
Sun Jun 04 04:50:00 UTC 2017	0.0	1.047281664E9	2523.1298828125	0.0	2.5731072E7	0.0	2.0	9.1006976E8	51.77893829345703	1.0	2.0	1.061277696E9	1.050116096E9	0.0	null	0.06849999725818634	0.05575000122189522	0.05225000157952309	0.9922500252723694	0.7413734197616577	0.0	244.0	371.0	0.0	0.0	0.0	0.0	0.0	0.0	null	null	null	null	null	null	null	null	334.0	338.0	339.0	335.0	334.0	335.0	338.0	334.0	337.0	332.0	333.0	
Sun Jun 04 04:49:00 UTC 2017	0.0	1.048293376E9	2523.1298828125	0.0	2.5731072E7	0.0	3.0	9.09979648E8	51.77893829345703	3.0	3.0	1.062289408E9	1.050116096E9	0.0	null	0.08500000089406967	0.05824999883770943	0.04675000160932541	0.9919999837875366	0.7413690090179443	0.0	244.0	371.0	0.0	0.0	0.0	0.0	0.0	0.0	null	null	null	null	null	null	null	null	334.0	337.0	333.0	333.0	336.0	336.0	332.0	335.0	333.0	335.0	332.0	
Sun Jun 04 04:48:00 UTC 2017	0.0	1.048293376E9	2944.18798828125	0.0	2.5731072E7	0.0	2.0	9.09979648E8	43.22800827026367	0.0	1.0	1.061277696E9	1.050116096E9	0.0	null	0.07074999809265137	0.054749999195337296	0.04625000059604645	0.9919999837875366	0.7413508892059326	0.0	244.0	371.0	0.0	0.0	0.0	0.0	0.0	0.0	null	null	null	null	null	null	null	null	333.0	334.0	334.0	334.0	332.0	331.0	335.0	334.0	335.0	335.0	338.0	
Sun Jun 04 04:47:00 UTC 2017	0.0	1.047281664E9	2944.18798828125	0.0	2.5731072E7	0.0	2.0	9.09979648E8	54.96471405029297	1.0	2.0	1.061277696E9	1.050116096E9	0.0	null	0.07575000077486038	0.04975000023841858	0.04699999839067459	0.9922500252723694	0.741352379322052	0.0	244.0	371.0	0.0	0.0	0.0	0.0	0.0	0.0	null	null	null	null	null	null	null	null	334.0	332.0	336.0	336.0	336.0	336.0	333.0	333.0	333.0	336.0	332.0	
Sun Jun 04 04:46:00 UTC 2017	0.0	1.048293376E9	2944.18798828125	0.0	2.5731072E7	0.0	2.0	9.09766656E8	55.65159225463867	0.0	0.0	1.062289408E9	1.050116096E9	0.0	null	0.07750000059604645	0.051249999552965164	0.04874999821186066	0.9922500252723694	0.7413333058357239	0.0	244.0	371.0	0.0	0.0	0.0	0.0	0.0	0.0	null	null	null	null	null	null	null	null	337.0	336.0	336.0	335.0	337.0	337.0	336.0	336.0	335.0	334.0	335.0	
Sun Jun 04 04:45:00 UTC 2017	0.0	1.048293376E9	3140.4501953125	0.0	2.5731072E7	0.0	4.0	9.09856768E8	54.41402053833008	0.0	0.0	1.061277696E9	1.050116096E9	0.0	null	0.07225000113248825	0.05000000074505806	0.04899999871850014	0.9919999837875366	0.7413200736045837	0.0	244.0	371.0	0.0	0.0	0.0	0.0	0.0	0.0	null	null	null	null	null	null	null	null	335.0	334.0	337.0	336.0	331.0	335.0	334.0	336.0	334.0	334.0	334.0	
Sun Jun 04 04:44:00 UTC 2017	0.0	1.048293376E9	2677.223388671875	0.0	2.5731072E7	0.0	3.0	9.09479936E8	80.86305236816406	0.0	0.0	1.061277696E9	1.050116096E9	0.0	0.0	0.0702499970793724	0.05274999886751175	0.04600000008940697	0.9922500252723694	0.7435888648033142	0.0	244.0	371.0	0.0	0.0	0.0	0.0	0.0	0.0	null	null	null	null	null	null	null	null	333.0	332.0	331.0	337.0	337.0	333.0	337.0	332.0	333.0	334.0	333.0	
Sun Jun 04 04:43:00 UTC 2017	0.0	1.048293376E9	2694.51220703125	0.0	2.5731072E7	0.0	4.0	9.09479936E8	69.19388580322266	0.0	0.0	1.062289408E9	1.050116096E9	0.0	0.0	0.08500000089406967	0.054999999701976776	0.05225000157952309	0.9922500252723694	0.743582010269165	0.0	244.0	371.0	0.0	0.0	0.0	0.0	0.0	0.0	null	null	null	null	null	null	null	null	334.0	334.0	337.0	334.0	334.0	334.0	332.0	332.0	334.0	339.0	335.0	
Sun Jun 04 04:42:00 UTC 2017	0.0	1.047281664E9	2694.51220703125	0.0	2.5731072E7	0.0	3.0	9.09479936E8	69.19388580322266	0.0	0.0	1.061277696E9	1.050116096E9	0.0	0.0	0.07349999994039536	0.04774999991059303	0.045249998569488525	0.9919999837875366	0.7412834167480469	0.0	244.0	371.0	0.0	0.0	0.0	0.0	0.0	0.0	null	null	null	null	null	null	null	null	333.0	333.0	333.0	332.0	332.0	335.0	338.0	338.0	335.0	332.0	334.0	
Sun Jun 04 04:41:00 UTC 2017	0.0	1.047281664E9	2662.348876953125	0.0	2.5731072E7	0.0	2.0	9.088E8	59.06911849975586	0.0	0.0	1.062289408E9	1.050116096E9	0.0	0.0	0.10050000250339508	0.05025000125169754	0.04699999839067459	0.9922500252723694	0.7412721514701843	0.0	244.0	371.0	0.0	0.0	0.0	0.0	0.0	0.0	null	null	null	null	null	null	null	null	337.0	338.0	336.0	338.0	334.0	340.0	335.0	333.0	331.0	335.0	336.0	
Sun Jun 04 04:40:00 UTC 2017	0.0	1.048293376E9	2662.348876953125	0.0	2.5731072E7	0.0	2.0	9.08890112E8	59.06911849975586	0.0	0.0	1.061277696E9	1.050116096E9	0.0	0.0	0.07150000333786011	0.054749999195337296	0.05350000038743019	0.9919999837875366	0.7412686944007874	0.0	244.0	371.0	0.0	0.0	0.0	0.0	0.0	0.0	null	null	null	null	null	null	null	null	335.0	334.0	334.0	335.0	335.0	330.0	335.0	332.0	333.0	334.0	332.0	
Sun Jun 04 04:39:00 UTC 2017	0.0	1.048293376E9	2662.797607421875	0.0	2.5731072E7	0.0	3.0	9.088E8	52.51060485839844	0.0	0.0	1.062289408E9	1.050116096E9	0.0	0.0	0.07100000232458115	0.051500000059604645	0.04625000059604645	0.9919999837875366	0.7412452101707458	0.0	244.0	371.0	0.0	0.0	0.0	0.0	0.0	0.0	null	null	null	null	null	null	null	null	341.0	333.0	332.0	336.0	337.0	337.0	341.0	335.0	332.0	337.0	330.0	
Sun Jun 04 04:38:00 UTC 2017	0.0	1.047281664E9	2662.797607421875	0.0	2.5731072E7	0.0	5.0	9.088E8	52.51060485839844	0.0	0.0	1.061277696E9	1.050116096E9	0.0	0.0	0.07249999791383743	0.04924999922513962	0.05000000074505806	0.9922500252723694	0.7412285804748535	0.0	244.0	371.0	0.0	0.0	0.0	0.0	0.0	0.0	null	null	null	null	null	null	null	null	332.0	336.0	337.0	334.0	332.0	335.0	333.0	335.0	339.0	335.0	338.0	
Sun Jun 04 04:37:00 UTC 2017	0.0	1.047281664E9	2395.361083984375	0.0	2.5731072E7	0.0	4.0	9.088E8	38.73515319824219	0.0	1.0	1.061277696E9	1.050116096E9	0.0	0.0	0.08025000244379044	0.04675000160932541	0.04500000178813934	0.9922500252723694	0.7412271499633789	0.0	244.0	371.0	0.0	0.0	0.0	0.0	0.0	0.0	null	null	null	null	null	null	null	null	337.0	337.0	333.0	335.0	335.0	331.0	339.0	335.0	335.0	331.0	330.0	
Sun Jun 04 04:36:00 UTC 2017	0.0	1.047281664E9	2885.633544921875	0.0	2.5731072E7	0.0	4.0	9.0867712E8	57.107120513916016	0.0	0.0	1.061277696E9	1.050116096E9	0.0	null	0.07874999940395355	0.05674999952316284	0.04975000023841858	0.9917500019073486	0.7412080764770508	0.0	244.0	371.0	0.0	0.0	0.0	0.0	0.0	0.0	null	null	null	null	null	null	null	null	335.0	333.0	336.0	332.0	335.0	333.0	334.0	334.0	331.0	340.0	333.0	
Sun Jun 04 04:35:00 UTC 2017	0.0	1.047281664E9	3134.35888671875	0.0	2.5731072E7	0.0	2.0	9.0867712E8	57.107120513916016	0.0	0.0	1.061277696E9	1.050116096E9	0.0	0.0	0.07050000131130219	0.048250000923871994	0.04500000178813934	0.9919999837875366	0.7411913871765137	0.0	244.0	371.0	0.0	0.0	0.0	0.0	0.0	0.0	null	null	null	null	null	null	null	null	337.0	339.0	335.0	333.0	336.0	331.0	332.0	330.0	340.0	331.0	336.0	
Sun Jun 04 04:34:00 UTC 2017	0.0	1.047281664E9	3114.212158203125	0.0	2.5731072E7	0.0	2.0	9.08587008E8	57.107120513916016	0.0	0.0	1.062289408E9	1.050116096E9	0.0	0.0	0.07199999690055847	0.04899999871850014	0.04800000041723251	0.9922500252723694	0.7411919236183167	0.0	244.0	371.0	0.0	0.0	0.0	0.0	0.0	0.0	null	null	null	null	null	null	null	null	338.0	333.0	335.0	334.0	332.0	335.0	335.0	338.0	334.0	335.0	334.0	
Sun Jun 04 04:33:00 UTC 2017	0.0	1.048293376E9	3114.212158203125	0.0	2.5731072E7	0.0	2.0	9.08587008E8	44.814788818359375	0.0	0.0	1.061277696E9	1.050116096E9	0.0	0.0	0.07374999672174454	0.05274999886751175	0.05000000074505806	0.9919999837875366	0.7411728501319885	0.0	244.0	371.0	0.0	0.0	0.0	0.0	0.0	0.0	null	null	null	null	null	null	null	null	336.0	333.0	336.0	335.0	334.0	334.0	333.0	332.0	332.0	335.0	333.0	
Sun Jun 04 04:32:00 UTC 2017	0.0	1.047281664E9	3114.212158203125	0.0	2.5731072E7	0.0	2.0	9.08587008E8	49.930660247802734	0.0	0.0	1.062289408E9	1.050116096E9	0.0	0.0	0.0754999965429306	0.04574999958276749	0.048500001430511475	0.9922500252723694	0.741158127784729	0.0	244.0	371.0	0.0	0.0	0.0	0.0	0.0	0.0	null	null	null	null	null	null	null	null	333.0	337.0	333.0	337.0	336.0	335.0	338.0	333.0	335.0	336.0	336.0	
Sun Jun 04 04:31:00 UTC 2017	0.0	1.048293376E9	3114.212158203125	0.0	2.5731072E7	0.0	2.0	9.0836992E8	49.930660247802734	0.0	0.0	1.061277696E9	1.050116096E9	0.0	0.0	0.09825000166893005	0.05575000122189522	0.04349999874830246	0.9922500252723694	0.7411527633666992	0.0	244.0	371.0	0.0	0.0	0.0	0.0	0.0	0.0	null	null	null	null	null	null	null	null	332.0	330.0	339.0	330.0	335.0	337.0	336.0	337.0	335.0	334.0	332.0	
Sun Jun 04 04:30:00 UTC 2017	0.0	1.048293376E9	2688.614013671875	0.0	2.5731072E7	0.0	2.0	9.08460032E8	49.930660247802734	0.0	0.0	1.062289408E9	1.050116096E9	0.0	0.0	0.07450000196695328	0.04650000110268593	0.04800000041723251	0.9922500252723694	0.7411395311355591	0.0	244.0	371.0	0.0	0.0	0.0	0.0	0.0	0.0	null	null	null	null	null	null	null	null	338.0	336.0	332.0	336.0	334.0	332.0	335.0	336.0	336.0	333.0	335.0	
Sun Jun 04 04:29:00 UTC 2017	0.0	1.047281664E9	2688.614013671875	0.0	2.5731072E7	0.0	3.0	9.0836992E8	47.892112731933594	0.0	0.0	1.062289408E9	1.050116096E9	0.0	0.0	0.07999999821186066	0.050999999046325684	0.04800000041723251	0.9919999837875366	0.7411180138587952	0.0	244.0	371.0	0.0	0.0	0.0	0.0	0.0	0.0	null	null	null	null	null	null	null	null	335.0	333.0	334.0	336.0	335.0	336.0	335.0	331.0	333.0	337.0	334.0	
Sun Jun 04 04:28:00 UTC 2017	0.0	1.048293376E9	2688.614013671875	0.0	2.5731072E7	0.0	4.0	9.0836992E8	55.15007781982422	0.0	0.0	1.062289408E9	1.050116096E9	0.0	0.0	0.07050000131130219	0.050999999046325684	0.051249999552965164	0.9922500252723694	0.7411170601844788	0.0	244.0	371.0	0.0	0.0	0.0	0.0	0.0	0.0	null	null	null	null	null	null	null	null	337.0	334.0	334.0	336.0	334.0	335.0	333.0	336.0	333.0	333.0	335.0	
Sun Jun 04 04:27:00 UTC 2017	0.0	1.047281664E9	2688.614013671875	0.0	2.5731072E7	0.0	3.0	9.0836992E8	71.86962127685547	0.0	0.0	1.062289408E9	1.050116096E9	0.0	null	0.08174999803304672	0.051249999552965164	0.05350000038743019	0.9919999837875366	0.7432517409324646	0.0	244.0	371.0	0.0	0.0	0.0	0.0	0.0	0.0	null	null	null	null	null	null	null	null	332.0	333.0	336.0	330.0	337.0	334.0	335.0	333.0	337.0	332.0	334.0	
Sun Jun 04 04:26:00 UTC 2017	0.0	1.047281664E9	2884.341064453125	0.0	2.5731072E7	0.0	2.0	9.08161024E8	71.86962127685547	0.0	0.0	1.061277696E9	1.050116096E9	0.0	null	0.0702499970793724	0.051750000566244125	0.04749999940395355	0.9922500252723694	0.7419429421424866	0.0	244.0	371.0	0.0	0.0	0.0	0.0	0.0	0.0	null	null	null	null	null	null	null	null	335.0	336.0	333.0	337.0	333.0	337.0	336.0	338.0	329.0	335.0	336.0	
Sun Jun 04 04:25:00 UTC 2017	0.0	1.048293376E9	2884.341064453125	0.0	2.5731072E7	0.0	2.0	9.08251136E8	71.86962127685547	0.0	0.0	1.062289408E9	1.050116096E9	0.0	null	0.07874999940395355	0.05575000122189522	0.04675000160932541	0.9922500252723694	0.7409394383430481	0.0	244.0	371.0	0.0	0.0	0.0	0.0	0.0	0.0	null	null	null	null	null	null	null	null	336.0	333.0	337.0	332.0	334.0	336.0	333.0	332.0	336.0	335.0	335.0	
Sun Jun 04 04:24:00 UTC 2017	0.0	1.047281664E9	2884.341064453125	0.0	2.5731072E7	0.0	3.0	9.08161024E8	89.77079772949219	0.0	0.0	1.062289408E9	1.050116096E9	0.0	0.0	0.0767500028014183	0.05025000125169754	0.04774999991059303	0.9922500252723694	0.740923285484314	0.0	244.0	371.0	0.0	0.0	0.0	0.0	0.0	0.0	null	null	null	null	null	null	null	null	335.0	336.0	336.0	335.0	336.0	337.0	336.0	334.0	336.0	337.0	333.0	
Sun Jun 04 04:23:00 UTC 2017	0.0	1.048293376E9	2884.341064453125	0.0	2.5731072E7	0.0	2.0	9.08161024E8	38.07829666137695	0.0	1.0	1.062289408E9	1.050116096E9	0.0	0.0	0.07724999636411667	0.05050000175833702	0.045249998569488525	0.9919999837875366	0.7409218549728394	0.0	244.0	371.0	0.0	0.0	0.0	0.0	0.0	0.0	null	null	null	null	null	null	null	null	333.0	335.0	332.0	335.0	333.0	334.0	334.0	335.0	328.0	331.0	334.0	
Sun Jun 04 04:22:00 UTC 2017	0.0	1.047281664E9	2884.341064453125	0.0	2.5731072E7	0.0	3.0	9.08161024E8	38.07829666137695	1.0	2.0	1.062289408E9	1.050116096E9	0.0	null	0.0689999982714653	0.0494999997317791	0.04975000023841858	0.9919999837875366	0.7409061789512634	0.0	244.0	371.0	0.0	0.0	0.0	0.0	0.0	0.0	null	null	null	null	null	null	null	null	337.0	334.0	337.0	333.0	333.0	334.0	334.0	335.0	337.0	336.0	334.0	
Sun Jun 04 04:21:00 UTC 2017	0.0	1.047281664E9	2516.9169921875	0.0	2.5731072E7	0.0	2.0	9.08038144E8	50.487892150878906	0.0	1.0	1.061277696E9	1.050116096E9	0.0	null	0.10824999958276749	0.054499998688697815	0.05050000175833702	0.9919999837875366	0.7408846616744995	0.0	244.0	371.0	0.0	0.0	0.0	0.0	0.0	0.0	null	null	null	null	null	null	null	null	331.0	335.0	334.0	331.0	337.0	335.0	335.0	332.0	333.0	335.0	336.0	
Sun Jun 04 04:20:00 UTC 2017	0.0	1.047281664E9	3040.78515625	0.0	2.5731072E7	0.0	2.0	9.08038144E8	45.83433532714844	0.0	0.0	1.061277696E9	1.050116096E9	0.0	0.0	0.0742499977350235	0.05000000074505806	0.045499999076128006	0.9919999837875366	0.7408782839775085	0.0	244.0	371.0	0.0	0.0	0.0	0.0	0.0	0.0	null	null	null	null	null	null	null	null	337.0	331.0	336.0	335.0	335.0	334.0	335.0	333.0	336.0	335.0	336.0	
Sun Jun 04 04:19:00 UTC 2017	0.0	1.047281664E9	2512.173828125	0.0	2.5731072E7	0.0	3.0	9.07948032E8	49.65193557739258	0.0	1.0	1.062289408E9	1.050116096E9	0.0	0.0	0.0794999971985817	0.04749999940395355	0.04874999821186066	0.9919999837875366	0.7408601641654968	0.0	244.0	371.0	0.0	0.0	0.0	0.0	0.0	0.0	null	null	null	null	null	null	null	null	332.0	334.0	335.0	334.0	332.0	337.0	337.0	334.0	335.0	333.0	334.0	
Sun Jun 04 04:18:00 UTC 2017	0.0	1.048293376E9	2512.173828125	0.0	2.5731072E7	0.0	3.0	9.03950336E8	49.65193557739258	0.0	0.0	1.061277696E9	1.050116096E9	0.0	0.0	0.06750000268220901	0.054999999701976776	0.04349999874830246	0.9919999837875366	0.7409022450447083	0.0	244.0	371.0	0.0	0.0	0.0	0.0	0.0	0.0	null	null	null	null	null	null	null	null	334.0	336.0	336.0	333.0	337.0	330.0	331.0	333.0	333.0	332.0	330.0	
Sun Jun 04 04:17:00 UTC 2017	0.0	1.047281664E9	2512.173828125	0.0	2.5731072E7	0.0	2.0	9.03950336E8	49.65193557739258	0.0	0.0	1.062289408E9	1.050116096E9	0.0	0.0	0.07500000298023224	0.05299999937415123	0.048250000923871994	0.9919999837875366	0.7408190965652466	0.0	244.0	371.0	0.0	0.0	0.0	0.0	0.0	0.0	null	null	null	null	null	null	null	null	332.0	333.0	333.0	335.0	335.0	337.0	335.0	335.0	337.0	336.0	337.0	
Sun Jun 04 04:16:00 UTC 2017	0.0	1.047281664E9	2808.817138671875	0.0	2.5731072E7	0.0	2.0	9.03737344E8	68.13916778564453	0.0	0.0	1.061277696E9	1.050116096E9	0.0	0.0	0.07349999994039536	0.051500000059604645	0.051249999552965164	0.9922500252723694	0.74077308177948	0.0	244.0	371.0	0.0	0.0	0.0	0.0	0.0	0.0	null	null	null	null	null	null	null	null	334.0	332.0	336.0	338.0	333.0	332.0	336.0	334.0	335.0	335.0	330.0	
Sun Jun 04 04:15:00 UTC 2017	0.0	1.047281664E9	3043.841796875	0.0	2.5731072E7	0.0	4.0	9.03827456E8	48.55326461791992	0.0	0.0	1.062289408E9	1.050116096E9	0.0	0.0	0.07800000160932541	0.04749999940395355	0.048250000923871994	0.9919999837875366	0.7408087849617004	0.0	244.0	371.0	0.0	0.0	0.0	0.0	0.0	0.0	null	null	null	null	null	null	null	null	339.0	338.0	336.0	336.0	333.0	336.0	332.0	337.0	333.0	330.0	335.0	
Sun Jun 04 04:14:00 UTC 2017	0.0	1.047281664E9	2516.07861328125	0.0	2.5731072E7	0.0	2.0	9.03737344E8	36.066009521484375	0.0	0.0	1.062289408E9	1.050116096E9	0.0	0.0	0.07249999791383743	0.04899999871850014	0.04675000160932541	0.9919999837875366	0.7408093214035034	0.0	244.0	371.0	0.0	0.0	0.0	0.0	0.0	0.0	null	null	null	null	null	null	null	null	335.0	335.0	335.0	333.0	336.0	336.0	337.0	336.0	333.0	334.0	334.0	
Sun Jun 04 04:13:00 UTC 2017	0.0	1.047281664E9	2340.05859375	0.0	2.5731072E7	0.0	2.0	9.03737344E8	84.47808074951172	0.0	0.0	1.062289408E9	1.050116096E9	0.0	null	0.07724999636411667	0.052000001072883606	0.04724999889731407	0.9919999837875366	0.7407897114753723	0.0	244.0	371.0	0.0	0.0	0.0	0.0	0.0	0.0	null	null	null	null	null	null	null	null	333.0	333.0	335.0	335.0	336.0	332.0	332.0	336.0	335.0	334.0	337.0	
Sun Jun 04 04:12:00 UTC 2017	0.0	1.048293376E9	2340.05859375	0.0	2.5731072E7	0.0	3.0	9.03737344E8	46.322235107421875	0.0	0.0	1.061277696E9	1.050116096E9	0.0	null	0.07450000196695328	0.05324999988079071	0.051500000059604645	0.9919999837875366	0.7407706379890442	0.0	244.0	371.0	0.0	0.0	0.0	0.0	0.0	0.0	null	null	null	null	null	null	null	null	333.0	335.0	334.0	334.0	333.0	335.0	334.0	333.0	336.0	337.0	332.0	
Sun Jun 04 04:11:00 UTC 2017	0.0	1.048293376E9	2892.685791015625	0.0	2.5731072E7	0.0	2.0	9.03528448E8	46.322235107421875	0.0	0.0	1.062289408E9	1.050116096E9	0.0	null	0.09799999743700027	0.0442500002682209	0.04500000178813934	0.9922500252723694	0.7420843243598938	0.0	244.0	371.0	0.0	0.0	0.0	0.0	0.0	0.0	null	null	null	null	null	null	null	null	336.0	335.0	335.0	334.0	333.0	336.0	335.0	335.0	333.0	334.0	336.0	
Sun Jun 04 04:10:00 UTC 2017	0.0	1.047281664E9	2892.685791015625	0.0	2.5731072E7	0.0	3.0	9.03880704E8	46.322235107421875	0.0	0.0	1.062289408E9	1.050116096E9	0.0	0.0	0.07999999821186066	0.054999999701976776	0.04724999889731407	0.9919999837875366	0.740757405757904	0.0	244.0	371.0	0.0	0.0	0.0	0.0	0.0	0.0	null	null	null	null	null	null	null	null	335.0	336.0	336.0	333.0	332.0	334.0	333.0	337.0	335.0	336.0	338.0	
Sun Jun 04 04:09:00 UTC 2017	0.0	1.048293376E9	2892.685791015625	0.0	2.5731072E7	0.0	2.0	9.0351616E8	51.32453536987305	0.0	0.0	1.061277696E9	1.050116096E9	0.0	0.0	0.07599999755620956	0.0494999997317791	0.04899999871850014	0.9922500252723694	0.7407422661781311	0.0	244.0	371.0	0.0	0.0	0.0	0.0	0.0	0.0	null	null	null	null	null	null	null	null	333.0	335.0	334.0	335.0	338.0	334.0	334.0	337.0	333.0	334.0	333.0	
Sun Jun 04 04:08:00 UTC 2017	0.0	1.048293376E9	2866.37548828125	0.0	2.5731072E7	0.0	2.0	9.0351616E8	54.69406509399414	0.0	0.0	1.061277696E9	1.050116096E9	0.0	0.0	0.0754999965429306	0.051249999552965164	0.04724999889731407	0.9917500019073486	0.7421953678131104	0.0	244.0	371.0	0.0	0.0	0.0	0.0	0.0	0.0	null	null	null	null	null	null	null	null	337.0	334.0	334.0	336.0	334.0	335.0	337.0	334.0	335.0	333.0	332.0	
Sun Jun 04 04:07:00 UTC 2017	0.0	1.047281664E9	2866.37548828125	0.0	2.5731072E7	0.0	3.0	9.0351616E8	54.69406509399414	0.0	0.0	1.061277696E9	1.050116096E9	0.0	0.0	0.07400000095367432	0.04924999922513962	0.04800000041723251	0.9922500252723694	0.740710973739624	0.0	244.0	371.0	0.0	0.0	0.0	0.0	0.0	0.0	null	null	null	null	null	null	null	null	336.0	335.0	331.0	331.0	334.0	336.0	335.0	334.0	332.0	334.0	336.0	
Sun Jun 04 04:06:00 UTC 2017	0.0	1.048293376E9	2866.37548828125	0.0	2.5731072E7	0.0	2.0	9.03307264E8	54.69406509399414	0.0	0.0	1.062289408E9	1.050116096E9	0.0	0.0	0.07050000131130219	0.05550000071525574	0.048250000923871994	0.9917500019073486	0.7406962513923645	0.0	244.0	371.0	0.0	0.0	0.0	0.0	0.0	0.0	null	null	null	null	null	null	null	null	336.0	334.0	337.0	334.0	334.0	332.0	330.0	339.0	337.0	336.0	335.0	
Sun Jun 04 04:05:00 UTC 2017	0.0	1.047281664E9	2866.37548828125	0.0	2.5731072E7	0.0	5.0	9.03397376E8	54.69406509399414	0.0	0.0	1.062289408E9	1.050116096E9	0.0	0.0	0.08250000327825546	0.04899999871850014	0.04749999940395355	0.9919999837875366	0.7406659126281738	0.0	244.0	371.0	0.0	0.0	0.0	0.0	0.0	0.0	null	null	null	null	null	null	null	null	332.0	335.0	333.0	339.0	336.0	339.0	339.0	335.0	335.0	332.0	331.0	
Sun Jun 04 04:04:00 UTC 2017	0.0	1.047281664E9	2946.853271484375	0.0	2.5731072E7	0.0	3.0	9.0238976E8	43.90528106689453	0.0	1.0	1.061277696E9	1.050116096E9	0.0	0.0	0.0729999989271164	0.05249999836087227	0.04625000059604645	0.9922500252723694	0.7418005466461182	0.0	244.0	371.0	0.0	0.0	0.0	0.0	0.0	0.0	null	null	null	null	null	null	null	null	337.0	333.0	337.0	333.0	334.0	332.0	334.0	335.0	332.0	332.0	334.0	
Sun Jun 04 04:03:00 UTC 2017	0.0	1.047281664E9	3505.089599609375	0.0	2.5731072E7	0.0	4.0	9.0238976E8	35.761085510253906	0.0	0.0	1.0612736E9	1.050116096E9	0.0	0.0	0.06849999725818634	0.04774999991059303	0.04899999871850014	0.9919999837875366	0.7406708002090454	0.0	244.0	371.0	0.0	0.0	0.0	0.0	0.0	0.0	null	null	null	null	null	null	null	null	336.0	336.0	332.0	333.0	335.0	337.0	336.0	333.0	335.0	338.0	337.0	
Sun Jun 04 04:02:00 UTC 2017	0.0	1.048293376E9	3505.089599609375	0.0	2.5731072E7	0.0	4.0	9.01341184E8	35.761085510253906	0.0	0.0	1.062285312E9	1.050116096E9	0.0	0.0	0.08049999922513962	0.054249998182058334	0.04975000023841858	0.9919999837875366	0.7429381012916565	0.0	244.0	371.0	0.0	0.0	0.0	0.0	0.0	0.0	null	null	null	null	null	null	null	null	336.0	334.0	337.0	335.0	336.0	334.0	336.0	335.0	333.0	334.0	334.0	
Sun Jun 04 04:01:00 UTC 2017	0.0	1.047281664E9	3505.089599609375	0.0	2.5731072E7	0.0	2.0	9.01128192E8	42.65611267089844	0.0	0.0	1.0612736E9	1.050116096E9	0.0	0.0	0.09799999743700027	0.051500000059604645	0.04650000110268593	0.9919999837875366	0.7424801588058472	0.0	244.0	371.0	0.0	0.0	0.0	0.0	0.0	0.0	null	null	null	null	null	null	null	null	330.0	335.0	335.0	336.0	334.0	334.0	333.0	334.0	333.0	332.0	333.0	
Sun Jun 04 04:00:00 UTC 2017	0.0	1.047281664E9	2444.809326171875	0.0	2.5731072E7	0.0	2.0	9.01218304E8	37.0513916015625	0.0	0.0	1.062285312E9	1.050116096E9	0.0	0.0	0.07774999737739563	0.041749998927116394	0.04374999925494194	0.9922500252723694	0.740719735622406	0.0	244.0	371.0	0.0	0.0	0.0	0.0	0.0	0.0	null	null	null	null	null	null	null	null	337.0	333.0	338.0	335.0	334.0	334.0	335.0	336.0	335.0	334.0	336.0	
Sun Jun 04 03:59:00 UTC 2017	0.0	1.047281664E9	2770.6357421875	0.0	2.5731072E7	0.0	2.0	9.01128192E8	37.0513916015625	0.0	0.0	1.0612736E9	1.050112E9	0.0	0.0	0.07774999737739563	0.05550000071525574	0.0494999997317791	0.9922500252723694	0.7406454086303711	0.0	244.0	371.0	0.0	0.0	0.0	0.0	0.0	0.0	null	null	null	null	null	null	null	null	329.0	331.0	336.0	337.0	333.0	335.0	333.0	338.0	337.0	335.0	336.0	
Sun Jun 04 03:58:00 UTC 2017	0.0	1.048293376E9	2770.6357421875	0.0	2.5731072E7	0.0	2.0	9.01128192E8	37.0513916015625	0.0	0.0	1.062285312E9	1.050112E9	0.0	0.0	0.0702499970793724	0.041749998927116394	0.045249998569488525	0.9922500252723694	0.742911696434021	0.0	244.0	371.0	0.0	0.0	0.0	0.0	0.0	0.0	null	null	null	null	null	null	null	null	336.0	336.0	334.0	341.0	333.0	336.0	336.0	331.0	333.0	331.0	335.0	
Sun Jun 04 03:57:00 UTC 2017	0.0	1.047281664E9	2770.6357421875	0.0	2.5731072E7	0.0	3.0	9.01128192E8	48.06138610839844	0.0	0.0	1.062285312E9	1.050112E9	0.0	0.0	0.07000000029802322	0.051750000566244125	0.0507499985396862	0.9919999837875366	0.7428950667381287	0.0	244.0	371.0	0.0	0.0	0.0	0.0	0.0	0.0	null	null	null	null	null	null	null	null	339.0	337.0	336.0	337.0	331.0	332.0	335.0	340.0	336.0	332.0	332.0	
Sun Jun 04 03:56:00 UTC 2017	0.0	1.048293376E9	2770.6357421875	0.0	2.5731072E7	0.0	2.0	9.01005312E8	57.266239166259766	0.0	0.0	1.0612736E9	1.050112E9	0.0	0.0	0.08524999767541885	0.05274999886751175	0.04774999991059303	0.9919999837875366	0.7425417900085449	0.0	244.0	371.0	0.0	0.0	0.0	0.0	0.0	0.0	null	null	null	null	null	null	null	null	332.0	331.0	331.0	331.0	336.0	338.0	333.0	335.0	334.0	335.0	336.0	
Sun Jun 04 03:55:00 UTC 2017	0.0	1.047281664E9	2770.6357421875	0.0	2.5731072E7	0.0	2.0	9.01005312E8	54.113311767578125	0.0	0.0	1.0612736E9	1.050112E9	0.0	0.0	0.0689999982714653	0.04675000160932541	0.0430000014603138	0.9919999837875366	0.7428544163703918	0.0	244.0	371.0	0.0	0.0	0.0	0.0	0.0	0.0	null	null	null	null	null	null	null	null	338.0	338.0	333.0	333.0	335.0	331.0	336.0	333.0	334.0	334.0	336.0	
Sun Jun 04 03:54:00 UTC 2017	0.0	1.048293376E9	2770.6357421875	0.0	2.5731072E7	0.0	2.0	9.009152E8	38.611106872558594	0.0	0.0	1.062285312E9	1.050112E9	0.0	0.0	0.0794999971985817	0.05249999836087227	0.04874999821186066	0.9919999837875366	0.7405548691749573	0.0	244.0	371.0	0.0	0.0	0.0	0.0	0.0	0.0	null	null	null	null	null	null	null	null	337.0	336.0	334.0	336.0	338.0	337.0	336.0	328.0	338.0	337.0	332.0	
Sun Jun 04 03:53:00 UTC 2017	0.0	1.047281664E9	2770.6357421875	0.0	2.5731072E7	0.0	2.0	9.009152E8	38.611106872558594	0.0	0.0	1.062285312E9	1.050112E9	0.0	0.0	0.07074999809265137	0.051249999552965164	0.04500000178813934	0.9917500019073486	0.7428862452507019	0.0	244.0	371.0	0.0	0.0	0.0	0.0	0.0	0.0	null	null	null	null	null	null	null	null	333.0	330.0	334.0	333.0	334.0	332.0	331.0	337.0	336.0	336.0	335.0	
Sun Jun 04 03:52:00 UTC 2017	0.0	1.048293376E9	2770.6357421875	0.0	2.5731072E7	0.0	2.0	9.009152E8	67.02880859375	1.0	1.0	1.0612736E9	1.050112E9	0.0	0.0	0.07925000041723251	0.05575000122189522	0.05025000125169754	0.9922500252723694	0.7405323386192322	0.0	244.0	371.0	0.0	0.0	0.0	0.0	0.0	0.0	null	null	null	null	null	null	null	null	336.0	334.0	337.0	332.0	333.0	335.0	335.0	332.0	333.0	336.0	334.0	
Sun Jun 04 03:51:00 UTC 2017	0.0	1.048293376E9	2530.38818359375	0.0	2.5731072E7	0.0	2.0	9.00706304E8	67.02880859375	0.0	1.0	1.062285312E9	1.050112E9	0.0	0.0	0.09624999761581421	0.05000000074505806	0.04699999839067459	0.9917500019073486	0.7427071928977966	0.0	244.0	371.0	0.0	0.0	0.0	0.0	0.0	0.0	null	null	null	null	null	null	null	null	336.0	335.0	331.0	339.0	334.0	335.0	337.0	337.0	336.0	332.0	336.0	
Sun Jun 04 03:50:00 UTC 2017	0.0	1.048293376E9	3084.3251953125	0.0	2.5731072E7	0.0	6.0	9.00796416E8	67.02880859375	0.0	0.0	1.062285312E9	1.050107904E9	0.0	0.0	0.07374999672174454	0.054749999195337296	0.04625000059604645	0.9919999837875366	0.7404986023902893	0.0	244.0	371.0	0.0	0.0	0.0	0.0	0.0	0.0	null	null	null	null	null	null	null	null	332.0	333.0	335.0	332.0	335.0	336.0	332.0	338.0	335.0	336.0	336.0	
Sun Jun 04 03:49:00 UTC 2017	0.0	1.048293376E9	2499.916259765625	0.0	2.5731072E7	0.0	3.0	8.99813376E8	67.02880859375	0.0	0.0	1.062285312E9	1.050107904E9	0.0	0.0	0.0742499977350235	0.05375000089406967	0.04924999922513962	0.9919999837875366	0.7404986023902893	0.0	244.0	371.0	0.0	0.0	0.0	0.0	0.0	0.0	null	null	null	null	null	null	null	null	336.0	335.0	337.0	336.0	334.0	336.0	334.0	333.0	336.0	335.0	334.0	
Sun Jun 04 03:48:00 UTC 2017	0.0	1.047281664E9	2499.916259765625	0.0	2.5731072E7	0.0	3.0	8.99813376E8	62.932586669921875	0.0	0.0	1.062285312E9	1.050107904E9	0.0	0.0	0.07625000178813934	0.04399999976158142	0.048250000923871994	0.9919999837875366	0.7418793439865112	0.0	244.0	371.0	0.0	0.0	0.0	0.0	0.0	0.0	null	null	null	null	null	null	null	null	337.0	332.0	333.0	334.0	336.0	330.0	337.0	335.0	331.0	332.0	334.0	
Sun Jun 04 03:47:00 UTC 2017	0.0	1.048293376E9	2499.916259765625	0.0	2.5731072E7	0.0	3.0	8.99813376E8	33.535858154296875	0.0	0.0	1.0612736E9	1.050107904E9	0.0	0.0	0.06975000351667404	0.05350000038743019	0.04874999821186066	0.9917500019073486	0.7404536008834839	0.0	244.0	371.0	0.0	0.0	0.0	0.0	0.0	0.0	null	null	null	null	null	null	null	null	336.0	335.0	336.0	335.0	334.0	335.0	334.0	336.0	337.0	336.0	334.0	
Sun Jun 04 03:46:00 UTC 2017	0.0	1.048293376E9	2545.806640625	0.0	2.5731072E7	0.0	2.0	8.99690496E8	30.775915145874023	0.0	0.0	1.062285312E9	1.050107904E9	0.0	0.0	0.0820000022649765	0.054249998182058334	0.045499999076128006	0.9917500019073486	0.7404418587684631	0.0	244.0	371.0	0.0	0.0	0.0	0.0	0.0	0.0	null	null	null	null	null	null	null	null	336.0	337.0	333.0	334.0	336.0	333.0	332.0	336.0	334.0	335.0	333.0	
Sun Jun 04 03:45:00 UTC 2017	0.0	1.047281664E9	2545.806640625	0.0	2.5731072E7	0.0	2.0	8.99690496E8	30.775915145874023	0.0	0.0	1.0612736E9	1.050107904E9	0.0	0.0	0.0742499977350235	0.04874999821186066	0.04774999991059303	0.9915000200271606	0.7404252290725708	0.0	244.0	371.0	0.0	0.0	0.0	0.0	0.0	0.0	null	null	null	null	null	null	null	null	333.0	331.0	335.0	335.0	334.0	336.0	338.0	333.0	332.0	334.0	337.0	
Sun Jun 04 03:44:00 UTC 2017	0.0	1.047281664E9	3209.997802734375	0.0	2.5731072E7	0.0	2.0	8.99600384E8	66.71041107177734	0.0	0.0	1.0612736E9	1.050107904E9	0.0	0.0	0.0794999971985817	0.050999999046325684	0.04924999922513962	0.9919999837875366	0.7426968812942505	0.0	244.0	371.0	0.0	0.0	0.0	0.0	0.0	0.0	null	null	null	null	null	null	null	null	338.0	334.0	333.0	334.0	334.0	336.0	335.0	337.0	334.0	332.0	335.0	
Sun Jun 04 03:43:00 UTC 2017	0.0	1.047281664E9	2397.350830078125	0.0	2.5731072E7	0.0	2.0	8.99600384E8	66.71041107177734	1.0	0.0	1.062285312E9	1.050107904E9	0.0	0.0	0.06949999928474426	0.057999998331069946	0.04075000062584877	0.9919999837875366	0.7403978109359741	0.0	244.0	371.0	0.0	0.0	0.0	0.0	0.0	0.0	null	null	null	null	null	null	null	null	332.0	334.0	333.0	335.0	332.0	334.0	336.0	332.0	335.0	335.0	334.0	
Sun Jun 04 03:42:00 UTC 2017	0.0	1.047281664E9	3009.14501953125	0.0	2.5731072E7	0.0	4.0	8.99600384E8	66.71041107177734	0.0	0.0	1.062285312E9	1.050107904E9	0.0	null	0.07925000041723251	0.04650000110268593	0.05274999886751175	0.9917500019073486	0.7403777837753296	0.0	244.0	371.0	0.0	0.0	0.0	0.0	0.0	0.0	null	null	null	null	null	null	null	null	338.0	333.0	336.0	337.0	336.0	336.0	330.0	336.0	330.0	333.0	331.0	
Sun Jun 04 03:41:00 UTC 2017	0.0	1.048293376E9	3009.14501953125	0.0	2.5731072E7	0.0	3.0	8.99383296E8	66.71041107177734	0.0	0.0	1.062285312E9	1.050107904E9	0.0	0.0	0.09350000321865082	0.04874999821186066	0.04125000163912773	0.9917500019073486	0.7403616309165955	0.0	244.0	371.0	0.0	0.0	0.0	0.0	0.0	0.0	null	null	null	null	null	null	null	null	333.0	333.0	334.0	335.0	336.0	335.0	335.0	334.0	338.0	335.0	336.0	
Sun Jun 04 03:40:00 UTC 2017	0.0	1.047281664E9	3009.14501953125	0.0	2.5731072E7	0.0	2.0	8.99473408E8	43.34678649902344	0.0	0.0	1.062285312E9	1.050107904E9	0.0	0.0	0.07649999856948853	0.05299999937415123	0.05025000125169754	0.9919999837875366	0.7403562068939209	0.0	244.0	371.0	0.0	0.0	0.0	0.0	0.0	0.0	null	null	null	null	null	null	null	null	336.0	336.0	332.0	332.0	333.0	333.0	337.0	337.0	329.0	337.0	333.0	
Sun Jun 04 03:39:00 UTC 2017	0.0	1.048293376E9	3009.14501953125	0.0	2.5731072E7	0.0	2.0	8.99383296E8	59.36357879638672	0.0	0.0	1.062285312E9	1.050107904E9	0.0	0.0	0.07199999690055847	0.04675000160932541	0.04975000023841858	0.9917500019073486	0.7404281497001648	0.0	244.0	371.0	0.0	0.0	0.0	0.0	0.0	0.0	null	null	null	null	null	null	null	null	333.0	334.0	336.0	336.0	335.0	333.0	332.0	332.0	335.0	330.0	336.0	
Sun Jun 04 03:38:00 UTC 2017	0.0	1.048293376E9	2997.51318359375	0.0	2.5731072E7	0.0	3.0	8.99383296E8	59.36357879638672	0.0	0.0	1.0612736E9	1.050107904E9	0.0	0.0	0.0794999971985817	0.054249998182058334	0.0442500002682209	0.9915000200271606	0.7403400540351868	0.0	244.0	371.0	0.0	0.0	0.0	0.0	0.0	0.0	null	null	null	null	null	null	null	null	335.0	333.0	334.0	336.0	332.0	336.0	335.0	335.0	335.0	335.0	331.0	
Sun Jun 04 03:37:00 UTC 2017	0.0	1.047281664E9	2997.51318359375	0.0	2.5731072E7	0.0	4.0	8.99383296E8	59.36357879638672	0.0	0.0	1.0612736E9	1.050107904E9	0.0	null	0.07374999672174454	0.04975000023841858	0.04699999839067459	0.9919999837875366	0.7403366565704346	0.0	244.0	371.0	0.0	0.0	0.0	0.0	0.0	0.0	null	null	null	null	null	null	null	null	336.0	333.0	334.0	335.0	337.0	334.0	333.0	336.0	332.0	332.0	335.0	
Sun Jun 04 03:36:00 UTC 2017	0.0	1.047281664E9	3393.446044921875	0.0	2.5731072E7	0.0	4.0	8.99170304E8	59.36357879638672	0.0	0.0	1.062285312E9	1.050107904E9	0.0	null	0.0767500028014183	0.051750000566244125	0.05025000125169754	0.9917500019073486	0.7413181066513062	0.0	244.0	371.0	0.0	0.0	0.0	0.0	0.0	0.0	null	null	null	null	null	null	null	null	334.0	336.0	335.0	332.0	333.0	332.0	335.0	334.0	336.0	334.0	332.0	
Sun Jun 04 03:35:00 UTC 2017	1.0	1.048293376E9	3393.446044921875	0.0	2.5731072E7	0.0	4.0	8.99260416E8	46.49364471435547	0.0	0.0	1.0612736E9	1.050107904E9	0.0	null	0.07625000178813934	0.05225000157952309	0.04650000110268593	0.9919999837875366	0.7435712218284607	0.0	244.0	371.0	0.0	0.0	0.0	0.0	0.0	0.0	null	null	null	null	null	null	null	null	336.0	336.0	335.0	336.0	336.0	335.0	333.0	334.0	334.0	337.0	337.0	
Sun Jun 04 03:34:00 UTC 2017	0.0	1.048293376E9	2429.875	0.0	2.5731072E7	0.0	4.0	8.99170304E8	40.78666687011719	0.0	0.0	1.062285312E9	1.050107904E9	0.0	null	0.07050000131130219	0.051750000566244125	0.04650000110268593	0.9919999837875366	0.7412369251251221	0.0	244.0	371.0	0.0	0.0	0.0	0.0	0.0	0.0	null	null	null	null	null	null	null	null	336.0	334.0	332.0	333.0	335.0	334.0	336.0	337.0	336.0	335.0	332.0	
Sun Jun 04 03:33:00 UTC 2017	0.0	1.048293376E9	2776.400634765625	0.0	2.5731072E7	0.0	4.0	8.98367488E8	40.78666687011719	1.0	2.0	1.062285312E9	1.050107904E9	0.0	null	0.07074999809265137	0.054499998688697815	0.048500001430511475	0.9917500019073486	0.7412212491035461	0.0	244.0	371.0	0.0	0.0	0.0	0.0	0.0	0.0	null	null	null	null	null	null	null	null	331.0	333.0	332.0	335.0	334.0	334.0	331.0	334.0	335.0	334.0	335.0	
Sun Jun 04 03:32:00 UTC 2017	0.0	1.047281664E9	2776.400634765625	0.0	2.5731072E7	0.0	3.0	8.98367488E8	40.78666687011719	0.0	0.0	1.062285312E9	1.050107904E9	0.0	0.0	0.07500000298023224	0.045249998569488525	0.05025000125169754	0.9917500019073486	0.7412002086639404	0.0	244.0	371.0	0.0	0.0	0.0	0.0	0.0	0.0	null	null	null	null	null	null	null	null	338.0	333.0	334.0	333.0	335.0	333.0	337.0	335.0	334.0	335.0	330.0	
Sun Jun 04 03:31:00 UTC 2017	0.0	1.047281664E9	2713.955322265625	0.0	2.5731072E7	0.0	4.0	8.98158592E8	45.74191665649414	0.0	0.0	1.062285312E9	1.050107904E9	0.0	null	0.11675000190734863	0.05000000074505806	0.045249998569488525	0.9922500252723694	0.7412012219429016	0.0	244.0	371.0	0.0	0.0	0.0	0.0	0.0	0.0	null	null	null	null	null	null	null	null	334.0	339.0	332.0	333.0	335.0	332.0	335.0	334.0	337.0	335.0	340.0	
Sun Jun 04 03:30:00 UTC 2017	0.0	1.048293376E9	2713.955322265625	0.0	2.5731072E7	0.0	2.0	8.98248704E8	55.66526412963867	0.0	0.0	1.0612736E9	1.050107904E9	0.0	null	0.07000000029802322	0.05025000125169754	0.04475000128149986	0.9922500252723694	0.7411649823188782	0.0	244.0	371.0	0.0	0.0	0.0	0.0	0.0	0.0	null	null	null	null	null	null	null	null	335.0	331.0	336.0	334.0	331.0	337.0	337.0	334.0	337.0	332.0	335.0	
Sun Jun 04 03:29:00 UTC 2017	0.0	1.048293376E9	2700.1572265625	0.0	2.5731072E7	0.0	2.0	8.98158592E8	41.390316009521484	0.0	0.0	1.062285312E9	1.050107904E9	0.0	null	0.07850000262260437	0.05649999901652336	0.04574999958276749	0.9919999837875366	0.741148829460144	0.0	244.0	371.0	0.0	0.0	0.0	0.0	0.0	0.0	null	null	null	null	null	null	null	null	333.0	334.0	334.0	338.0	337.0	333.0	332.0	335.0	335.0	337.0	335.0	
Sun Jun 04 03:28:00 UTC 2017	0.0	1.048293376E9	3139.098876953125	0.0	2.5731072E7	0.0	3.0	8.98158592E8	41.390316009521484	0.0	0.0	1.0612736E9	1.050107904E9	0.0	null	0.07349999994039536	0.04699999839067459	0.04800000041723251	0.9919999837875366	0.7433897256851196	0.0	244.0	371.0	0.0	0.0	0.0	0.0	0.0	0.0	null	null	null	null	null	null	null	null	332.0	336.0	333.0	334.0	331.0	335.0	337.0	336.0	336.0	333.0	336.0	
Sun Jun 04 03:27:00 UTC 2017	0.0	1.047281664E9	3139.098876953125	0.0	2.5731072E7	0.0	3.0	8.98158592E8	41.390316009521484	0.0	0.0	1.062285312E9	1.050107904E9	0.0	null	0.0729999989271164	0.05400000140070915	0.04749999940395355	0.9922500252723694	0.7410832643508911	0.0	244.0	371.0	0.0	0.0	0.0	0.0	0.0	0.0	null	null	null	null	null	null	null	null	338.0	332.0	334.0	335.0	336.0	336.0	333.0	334.0	334.0	333.0	336.0	
Sun Jun 04 03:26:00 UTC 2017	0.0	1.048293376E9	3139.098876953125	0.0	2.5731072E7	0.0	2.0	8.979456E8	48.13557815551758	0.0	1.0	1.0612736E9	1.050107904E9	0.0	null	0.08150000125169754	0.04924999922513962	0.04924999922513962	0.9919999837875366	0.7410803437232971	0.0	244.0	371.0	0.0	0.0	0.0	0.0	0.0	0.0	null	null	null	null	null	null	null	null	336.0	339.0	332.0	331.0	332.0	336.0	333.0	334.0	336.0	335.0	335.0	
Sun Jun 04 03:25:00 UTC 2017	0.0	1.048293376E9	2680.5947265625	0.0	2.5731072E7	0.0	2.0	8.98035712E8	48.13557815551758	0.0	1.0	1.0612736E9	1.050107904E9	0.0	null	0.07724999636411667	0.05025000125169754	0.048500001430511475	0.9919999837875366	0.7410607933998108	0.0	244.0	371.0	0.0	0.0	0.0	0.0	0.0	0.0	null	null	null	null	null	null	null	null	335.0	333.0	333.0	337.0	335.0	331.0	338.0	335.0	338.0	334.0	335.0	
Sun Jun 04 03:24:00 UTC 2017	0.0	1.048293376E9	2564.688720703125	0.0	2.5731072E7	0.0	2.0	8.979456E8	48.13557815551758	0.0	0.0	1.0612736E9	1.050107904E9	0.0	0.0	0.0689999982714653	0.05400000140070915	0.04650000110268593	0.9919999837875366	0.7423270344734192	0.0	244.0	371.0	0.0	0.0	0.0	0.0	0.0	0.0	null	null	null	null	null	null	null	null	331.0	336.0	334.0	333.0	336.0	334.0	333.0	338.0	332.0	333.0	334.0	
Sun Jun 04 03:23:00 UTC 2017	0.0	1.048293376E9	2700.69970703125	0.0	2.5731072E7	0.0	4.0	8.979456E8	48.13557815551758	0.0	0.0	1.0612736E9	1.050107904E9	0.0	0.0	0.07975000143051147	0.045499999076128006	0.048500001430511475	0.9917500019073486	0.7409159541130066	0.0	244.0	371.0	0.0	0.0	0.0	0.0	0.0	0.0	null	null	null	null	null	null	null	null	336.0	332.0	335.0	331.0	332.0	336.0	339.0	335.0	335.0	333.0	332.0	
Sun Jun 04 03:22:00 UTC 2017	0.0	1.048293376E9	2827.0234375	0.0	2.5731072E7	0.0	4.0	8.979456E8	53.41106033325195	0.0	0.0	1.0612736E9	1.050107904E9	0.0	null	0.06499999761581421	0.0560000017285347	0.05000000074505806	0.9917500019073486	0.7409218549728394	0.0	244.0	371.0	0.0	0.0	0.0	0.0	0.0	0.0	null	null	null	null	null	null	null	null	334.0	337.0	331.0	337.0	332.0	336.0	334.0	334.0	336.0	336.0	336.0	
Sun Jun 04 03:21:00 UTC 2017	0.0	1.047281664E9	2827.0234375	0.0	2.5731072E7	0.0	2.0	8.96618496E8	53.41106033325195	0.0	0.0	1.0612736E9	1.050107904E9	0.0	0.0	0.10649999976158142	0.04774999991059303	0.04349999874830246	0.9919999837875366	0.7432634830474854	0.0	244.0	371.0	0.0	0.0	0.0	0.0	0.0	0.0	null	null	null	null	null	null	null	null	338.0	334.0	335.0	335.0	336.0	335.0	337.0	335.0	334.0	336.0	334.0	
Sun Jun 04 03:20:00 UTC 2017	0.0	1.047281664E9	2843.894287109375	0.0	2.5731072E7	0.0	3.0	8.96708608E8	57.192264556884766	0.0	0.0	1.0612736E9	1.050107904E9	0.0	0.0	0.07225000113248825	0.054999999701976776	0.04724999889731407	0.9919999837875366	0.7410245537757874	0.0	244.0	371.0	0.0	0.0	0.0	0.0	0.0	0.0	null	null	null	null	null	null	null	null	333.0	334.0	334.0	331.0	334.0	332.0	333.0	333.0	336.0	334.0	338.0	
Sun Jun 04 03:19:00 UTC 2017	0.0	1.048293376E9	2843.894287109375	0.0	2.5731072E7	0.0	2.0	8.96618496E8	57.192264556884766	0.0	0.0	1.062285312E9	1.050107904E9	0.0	0.0	0.07199999690055847	0.0442500002682209	0.05050000175833702	0.9919999837875366	0.743306040763855	0.0	244.0	371.0	0.0	0.0	0.0	0.0	0.0	0.0	null	null	null	null	null	null	null	null	338.0	333.0	337.0	335.0	334.0	334.0	332.0	338.0	333.0	334.0	336.0	
Sun Jun 04 03:18:00 UTC 2017	0.0	1.048293376E9	3025.289306640625	0.0	2.5731072E7	0.0	2.0	8.96618496E8	57.192264556884766	0.0	0.0	1.0612736E9	1.050107904E9	0.0	0.0	0.07524999976158142	0.05025000125169754	0.04800000041723251	0.9922500252723694	0.7426064014434814	0.0	244.0	371.0	0.0	0.0	0.0	0.0	0.0	0.0	null	null	null	null	null	null	null	null	333.0	336.0	331.0	336.0	333.0	334.0	339.0	332.0	333.0	333.0	330.0	
Sun Jun 04 03:17:00 UTC 2017	0.0	1.047281664E9	3025.289306640625	0.0	2.5731072E7	0.0	3.0	8.96618496E8	57.192264556884766	0.0	0.0	1.0612736E9	1.050107904E9	0.0	0.0	0.0820000022649765	0.05525000020861626	0.04874999821186066	0.9917500019073486	0.7410162687301636	0.0	244.0	371.0	0.0	0.0	0.0	0.0	0.0	0.0	null	null	null	null	null	null	null	null	332.0	332.0	337.0	333.0	331.0	333.0	335.0	333.0	334.0	336.0	337.0	
Sun Jun 04 03:16:00 UTC 2017	0.0	1.048293376E9	3025.289306640625	0.0	2.5731072E7	0.0	3.0	8.964096E8	57.192264556884766	0.0	0.0	1.0612736E9	1.050107904E9	0.0	0.0	0.07400000095367432	0.051500000059604645	0.0494999997317791	0.9917500019073486	0.7410089373588562	0.0	244.0	371.0	0.0	0.0	0.0	0.0	0.0	0.0	null	null	null	null	null	null	null	null	335.0	334.0	331.0	339.0	335.0	338.0	334.0	335.0	338.0	333.0	334.0	
Sun Jun 04 03:15:00 UTC 2017	0.0	1.047281664E9	3025.289306640625	0.0	2.5731072E7	0.0	2.0	8.94464E8	57.192264556884766	0.0	0.0	1.062285312E9	1.050107904E9	0.0	0.0	0.07575000077486038	0.048500001430511475	0.04500000178813934	0.9922500252723694	0.7409927845001221	0.0	244.0	371.0	0.0	0.0	0.0	0.0	0.0	0.0	null	null	null	null	null	null	null	null	337.0	336.0	336.0	330.0	334.0	332.0	333.0	336.0	334.0	332.0	332.0	
Sun Jun 04 03:14:00 UTC 2017	0.0	1.048293376E9	3025.289306640625	0.0	2.5731072E7	0.0	3.0	8.94373888E8	57.192264556884766	0.0	0.0	1.0612736E9	1.050107904E9	0.0	0.0	0.07249999791383743	0.04625000059604645	0.04975000023841858	0.9919999837875366	0.7409908175468445	0.0	244.0	371.0	0.0	0.0	0.0	0.0	0.0	0.0	null	null	null	null	null	null	null	null	334.0	332.0	335.0	337.0	337.0	338.0	333.0	333.0	331.0	335.0	334.0	
Sun Jun 04 03:13:00 UTC 2017	0.0	1.048293376E9	2927.19140625	0.0	2.5731072E7	0.0	2.0	8.94373888E8	57.192264556884766	0.0	0.0	1.0612736E9	1.050107904E9	0.0	null	0.0820000022649765	0.051249999552965164	0.042750000953674316	0.9922500252723694	0.7409756183624268	0.0	244.0	371.0	0.0	0.0	0.0	0.0	0.0	0.0	null	null	null	null	null	null	null	null	336.0	339.0	335.0	331.0	335.0	334.0	329.0	333.0	337.0	333.0	335.0	
Sun Jun 04 03:12:00 UTC 2017	0.0	1.047281664E9	2927.19140625	0.0	2.5731072E7	0.0	4.0	8.94373888E8	41.767059326171875	0.0	0.0	1.0612736E9	1.050107904E9	0.0	null	0.0729999989271164	0.05700000002980232	0.04874999821186066	0.9919999837875366	0.7409600019454956	0.0	244.0	371.0	0.0	0.0	0.0	0.0	0.0	0.0	null	null	null	null	null	null	null	null	334.0	331.0	338.0	335.0	335.0	336.0	337.0	336.0	336.0	334.0	337.0	
Sun Jun 04 03:11:00 UTC 2017	0.0	1.047281664E9	2856.658203125	0.0	2.5731072E7	0.0	3.0	8.9452544E8	81.24850463867188	0.0	0.0	1.0612736E9	1.050107904E9	0.0	0.0	0.09925000369548798	0.04574999958276749	0.04774999991059303	0.9919999837875366	0.7409414052963257	0.0	244.0	371.0	0.0	0.0	0.0	0.0	0.0	0.0	null	null	null	null	null	null	null	null	339.0	336.0	335.0	334.0	334.0	333.0	335.0	333.0	330.0	334.0	334.0	
Sun Jun 04 03:10:00 UTC 2017	0.0	1.047281664E9	2850.241455078125	0.0	2.5731072E7	0.0	3.0	8.94296064E8	81.24850463867188	0.0	0.0	1.0612736E9	1.050107904E9	0.0	0.0	0.0754999965429306	0.054249998182058334	0.04699999839067459	0.9922500252723694	0.7409399151802063	0.0	244.0	371.0	0.0	0.0	0.0	0.0	0.0	0.0	null	null	null	null	null	null	null	null	333.0	333.0	333.0	339.0	335.0	336.0	336.0	337.0	336.0	333.0	336.0	
Sun Jun 04 03:09:00 UTC 2017	0.0	1.047281664E9	2855.28076171875	0.0	2.5731072E7	0.0	2.0	8.93988864E8	81.24850463867188	0.0	0.0	1.0612736E9	1.050107904E9	0.0	0.0	0.0742499977350235	0.051500000059604645	0.05000000074505806	0.9922500252723694	0.7408953905105591	0.0	244.0	371.0	0.0	0.0	0.0	0.0	0.0	0.0	null	null	null	null	null	null	null	null	332.0	336.0	337.0	335.0	337.0	333.0	331.0	336.0	333.0	333.0	335.0	
Sun Jun 04 03:08:00 UTC 2017	0.0	1.048293376E9	2855.28076171875	0.0	2.5731072E7	0.0	2.0	8.93988864E8	81.24850463867188	0.0	0.0	1.062285312E9	1.050107904E9	0.0	0.0	0.08150000125169754	0.05000000074505806	0.04975000023841858	0.9922500252723694	0.7408440113067627	0.0	244.0	371.0	0.0	0.0	0.0	0.0	0.0	0.0	null	null	null	null	null	null	null	null	335.0	329.0	334.0	335.0	331.0	336.0	335.0	333.0	336.0	337.0	330.0	
Sun Jun 04 03:07:00 UTC 2017	0.0	1.048293376E9	2589.2568359375	0.0	2.5731072E7	0.0	2.0	8.93988864E8	81.24850463867188	1.0	1.0	1.0612736E9	1.050107904E9	0.0	0.0	0.07275000214576721	0.04800000041723251	0.042500000447034836	0.9925000071525574	0.7408406138420105	0.0	244.0	371.0	0.0	0.0	0.0	0.0	0.0	0.0	null	null	null	null	null	null	null	null	336.0	334.0	330.0	331.0	337.0	332.0	335.0	336.0	334.0	334.0	336.0	
Sun Jun 04 03:06:00 UTC 2017	0.0	1.047281664E9	2589.2568359375	0.0	2.5731072E7	0.0	2.0	8.93775872E8	36.95473098754883	0.0	0.0	1.0612736E9	1.050107904E9	0.0	0.0	0.07349999994039536	0.0494999997317791	0.04699999839067459	0.9919999837875366	0.7408239841461182	0.0	244.0	371.0	0.0	0.0	0.0	0.0	0.0	0.0	null	null	null	null	null	null	null	null	335.0	336.0	336.0	336.0	336.0	336.0	334.0	336.0	336.0	336.0	335.0	
Sun Jun 04 03:05:00 UTC 2017	0.0	1.048293376E9	2589.2568359375	0.0	2.5731072E7	0.0	2.0	8.93865984E8	36.95473098754883	0.0	0.0	1.0612736E9	1.050107904E9	0.0	null	0.07275000214576721	0.05700000002980232	0.04774999991059303	0.9919999837875366	0.74080491065979	0.0	244.0	371.0	0.0	0.0	0.0	0.0	0.0	0.0	null	null	null	null	null	null	null	null	334.0	330.0	334.0	333.0	338.0	337.0	335.0	334.0	331.0	336.0	334.0	
Sun Jun 04 03:04:00 UTC 2017	0.0	1.047281664E9	2589.2568359375	0.0	2.5731072E7	0.0	6.0	8.93775872E8	46.9467658996582	0.0	0.0	1.062285312E9	1.050107904E9	0.0	null	0.07649999856948853	0.04475000128149986	0.05350000038743019	0.9922500252723694	0.7408004999160767	0.0	244.0	371.0	0.0	0.0	0.0	0.0	0.0	0.0	null	null	null	null	null	null	null	null	333.0	336.0	334.0	334.0	334.0	333.0	337.0	335.0	337.0	333.0	335.0	
Sun Jun 04 03:03:00 UTC 2017	0.0	1.048293376E9	2589.2568359375	0.0	2.5731072E7	0.0	2.0	8.93775872E8	54.056427001953125	0.0	0.0	1.062285312E9	1.050107904E9	0.0	0.0	0.07400000095367432	0.05375000089406967	0.04749999940395355	0.9925000071525574	0.7407901883125305	0.0	244.0	371.0	0.0	0.0	0.0	0.0	0.0	0.0	null	null	null	null	null	null	null	null	333.0	335.0	334.0	334.0	336.0	336.0	329.0	335.0	335.0	333.0	333.0	
Sun Jun 04 03:02:00 UTC 2017	0.0	1.048293376E9	2582.701904296875	0.0	2.5731072E7	0.0	2.0	8.93775872E8	56.97942352294922	0.0	0.0	1.062285312E9	1.050107904E9	0.0	0.0	0.07400000095367432	0.04800000041723251	0.04749999940395355	0.9925000071525574	0.740719735622406	0.0	244.0	371.0	0.0	0.0	0.0	0.0	0.0	0.0	null	null	null	null	null	null	null	null	334.0	330.0	337.0	333.0	334.0	329.0	336.0	334.0	336.0	336.0	335.0	
Sun Jun 04 03:01:00 UTC 2017	0.0	1.048293376E9	2430.47216796875	0.0	2.5731072E7	0.0	4.0	8.93566976E8	56.97942352294922	0.0	0.0	1.062285312E9	1.050107904E9	0.0	0.0	0.11025000363588333	0.05874999985098839	0.045249998569488525	0.9922500252723694	0.7407192587852478	0.0	244.0	371.0	0.0	0.0	0.0	0.0	0.0	0.0	null	null	null	null	null	null	null	null	336.0	337.0	333.0	336.0	336.0	336.0	337.0	336.0	336.0	331.0	338.0	
Sun Jun 04 03:00:00 UTC 2017	0.0	1.047281664E9	2430.47216796875	0.0	2.5731072E7	0.0	2.0	8.93657088E8	56.97942352294922	0.0	0.0	1.062285312E9	1.050107904E9	0.0	0.0	0.07474999874830246	0.04675000160932541	0.0494999997317791	0.9922500252723694	0.7407593727111816	0.0	244.0	371.0	0.0	0.0	0.0	0.0	0.0	0.0	null	null	null	null	null	null	null	null	335.0	331.0	337.0	333.0	335.0	335.0	337.0	332.0	334.0	335.0	331.0	
Sun Jun 04 02:59:00 UTC 2017	0.0	1.047281664E9	2993.42041015625	0.0	2.5731072E7	0.0	2.0	8.93566976E8	54.33319091796875	0.0	0.0	1.0612736E9	1.050107904E9	0.0	0.0	0.06949999928474426	0.05324999988079071	0.04450000077486038	0.9922500252723694	0.7407402992248535	0.0	244.0	371.0	0.0	0.0	0.0	0.0	0.0	0.0	null	null	null	null	null	null	null	null	335.0	335.0	333.0	338.0	333.0	332.0	335.0	333.0	336.0	333.0	338.0	
Sun Jun 04 02:58:00 UTC 2017	0.0	1.047281664E9	2553.29150390625	0.0	2.5731072E7	0.0	2.0	8.93566976E8	54.33319091796875	1.0	1.0	1.0612736E9	1.050107904E9	0.0	0.0	0.07925000041723251	0.04924999922513962	0.04874999821186066	0.9922500252723694	0.7407212257385254	0.0	244.0	371.0	0.0	0.0	0.0	0.0	0.0	0.0	null	null	null	null	null	null	null	null	332.0	335.0	333.0	335.0	335.0	333.0	336.0	336.0	336.0	335.0	336.0	
Sun Jun 04 02:57:00 UTC 2017	0.0	1.048293376E9	2553.29150390625	0.0	2.5731072E7	0.0	2.0	8.93566976E8	54.32849884033203	1.0	1.0	1.062285312E9	1.050107904E9	0.0	0.0	0.07074999809265137	0.06024999916553497	0.045499999076128006	0.9922500252723694	0.7407041192054749	0.0	244.0	371.0	0.0	0.0	0.0	0.0	0.0	0.0	null	null	null	null	null	null	null	null	334.0	336.0	336.0	332.0	336.0	333.0	333.0	335.0	336.0	337.0	333.0	
Sun Jun 04 02:56:00 UTC 2017	0.0	1.048293376E9	2427.548828125	0.0	2.5731072E7	0.0	4.0	8.93386752E8	38.786800384521484	0.0	1.0	1.062285312E9	1.050107904E9	0.0	0.0	0.08299999684095383	0.04600000008940697	0.04975000023841858	0.9922500252723694	0.7406869530677795	0.0	244.0	371.0	0.0	0.0	0.0	0.0	0.0	0.0	null	null	null	null	null	null	null	null	339.0	334.0	333.0	335.0	334.0	336.0	333.0	334.0	336.0	333.0	336.0	
Sun Jun 04 02:55:00 UTC 2017	0.0	1.048293376E9	3156.04736328125	0.0	2.5731072E7	0.0	6.0	8.93476864E8	38.786800384521484	2.0	1.0	1.062285312E9	1.050107904E9	0.0	0.0	0.07275000214576721	0.05624999850988388	0.048500001430511475	0.9922500252723694	0.7406850457191467	0.0	244.0	371.0	0.0	0.0	0.0	0.0	0.0	0.0	null	null	null	null	null	null	null	null	332.0	333.0	335.0	339.0	333.0	332.0	340.0	335.0	335.0	337.0	333.0	
Sun Jun 04 02:54:00 UTC 2017	0.0	1.047281664E9	3156.04736328125	0.0	2.5731072E7	0.0	4.0	8.91416576E8	41.96411895751953	0.0	0.0	1.0612736E9	1.050107904E9	0.0	0.0	0.07349999994039536	0.0507499985396862	0.04899999871850014	0.9919999837875366	0.7406678795814514	0.0	244.0	371.0	0.0	0.0	0.0	0.0	0.0	0.0	null	null	null	null	null	null	null	null	334.0	336.0	334.0	334.0	333.0	332.0	333.0	335.0	332.0	335.0	337.0	
Sun Jun 04 02:53:00 UTC 2017	0.0	1.047281664E9	2441.29248046875	0.0	2.5731072E7	0.0	3.0	8.91416576E8	41.96411895751953	0.0	0.0	1.062285312E9	1.050107904E9	0.0	0.0	0.07500000298023224	0.051249999552965164	0.045249998569488525	0.9922500252723694	0.7405705451965332	0.0	244.0	371.0	0.0	0.0	0.0	0.0	0.0	0.0	null	null	null	null	null	null	null	null	337.0	335.0	334.0	333.0	333.0	336.0	336.0	335.0	336.0	336.0	333.0	
Sun Jun 04 02:52:00 UTC 2017	0.0	1.047281664E9	3038.328125	0.0	2.5731072E7	0.0	4.0	8.91416576E8	41.96411895751953	0.0	0.0	1.062285312E9	1.050107904E9	0.0	0.0	0.07925000041723251	0.05274999886751175	0.05025000125169754	0.9922500252723694	0.7404995560646057	0.0	244.0	371.0	0.0	0.0	0.0	0.0	0.0	0.0	null	null	null	null	null	null	null	null	334.0	333.0	334.0	339.0	339.0	334.0	335.0	333.0	333.0	335.0	335.0	
Sun Jun 04 02:51:00 UTC 2017	0.0	1.048293376E9	3038.328125	0.0	2.5731072E7	0.0	2.0	8.9116672E8	41.96411895751953	0.0	0.0	1.062285312E9	1.050107904E9	0.0	0.0	0.09925000369548798	0.05375000089406967	0.04574999958276749	0.9919999837875366	0.7404550313949585	0.0	244.0	371.0	0.0	0.0	0.0	0.0	0.0	0.0	null	null	null	null	null	null	null	null	335.0	335.0	333.0	334.0	334.0	333.0	335.0	334.0	335.0	335.0	334.0	
Sun Jun 04 02:50:00 UTC 2017	0.0	1.048293376E9	2408.994140625	0.0	2.5731072E7	0.0	5.0	8.91367424E8	42.8838996887207	0.0	0.0	1.0612736E9	1.050107904E9	0.0	0.0	0.0820000022649765	0.04675000160932541	0.048250000923871994	0.9919999837875366	0.7428661584854126	0.0	244.0	371.0	0.0	0.0	0.0	0.0	0.0	0.0	null	null	null	null	null	null	null	null	335.0	335.0	333.0	333.0	337.0	335.0	334.0	334.0	335.0	335.0	331.0	
Sun Jun 04 02:49:00 UTC 2017	0.0	1.048293376E9	2990.36474609375	0.0	2.5731072E7	0.0	6.0	8.904704E8	57.49202346801758	0.0	0.0	1.0612736E9	1.050107904E9	0.0	null	0.06700000166893005	0.05225000157952309	0.045499999076128006	0.9922500252723694	0.741405725479126	0.0	244.0	371.0	0.0	0.0	0.0	0.0	0.0	0.0	null	null	null	null	null	null	null	null	334.0	334.0	341.0	333.0	336.0	332.0	335.0	335.0	335.0	334.0	339.0	
Sun Jun 04 02:48:00 UTC 2017	0.0	1.048293376E9	2563.2294921875	0.0	2.5731072E7	0.0	3.0	8.904704E8	57.49202346801758	0.0	0.0	1.062285312E9	1.050107904E9	0.0	null	0.0832500010728836	0.05350000038743019	0.05274999886751175	0.9919999837875366	0.7404247522354126	0.0	244.0	371.0	0.0	0.0	0.0	0.0	0.0	0.0	null	null	null	null	null	null	null	null	335.0	336.0	334.0	334.0	334.0	333.0	332.0	334.0	333.0	338.0	330.0	
Sun Jun 04 02:47:00 UTC 2017	0.0	1.048293376E9	2903.672607421875	0.0	2.5731072E7	0.0	3.0	8.904704E8	45.92911148071289	0.0	0.0	1.0612736E9	1.050107904E9	0.0	null	0.07000000029802322	0.04800000041723251	0.04699999839067459	0.9922500252723694	0.7404291033744812	0.0	244.0	371.0	0.0	0.0	0.0	0.0	0.0	0.0	null	null	null	null	null	null	null	null	337.0	335.0	334.0	332.0	334.0	334.0	335.0	336.0	334.0	334.0	335.0	
Sun Jun 04 02:46:00 UTC 2017	0.0	1.048293376E9	2623.3671875	0.0	2.5731072E7	0.0	2.0	8.90118144E8	71.46073150634766	0.0	0.0	1.0612736E9	1.050107904E9	0.0	0.0	0.07724999636411667	0.051500000059604645	0.04749999940395355	0.9919999837875366	0.740428626537323	0.0	244.0	371.0	0.0	0.0	0.0	0.0	0.0	0.0	null	null	null	null	null	null	null	null	334.0	332.0	335.0	338.0	333.0	337.0	332.0	332.0	335.0	333.0	333.0	
Sun Jun 04 02:45:00 UTC 2017	0.0	1.047281664E9	2623.3671875	0.0	2.5731072E7	0.0	3.0	8.90208256E8	58.07794189453125	0.0	0.0	1.062285312E9	1.050107904E9	0.0	0.0	0.07850000262260437	0.052000001072883606	0.045249998569488525	0.9917500019073486	0.740425705909729	0.0	244.0	371.0	0.0	0.0	0.0	0.0	0.0	0.0	null	null	null	null	null	null	null	null	335.0	334.0	331.0	336.0	333.0	336.0	337.0	338.0	336.0	339.0	335.0	
Sun Jun 04 02:44:00 UTC 2017	0.0	1.048293376E9	2623.3671875	0.0	2.5731072E7	0.0	3.0	8.90118144E8	56.2136344909668	0.0	0.0	1.062285312E9	1.050107904E9	0.0	0.0	0.07074999809265137	0.04600000008940697	0.05050000175833702	0.9922500252723694	0.7404110431671143	0.0	244.0	371.0	0.0	0.0	0.0	0.0	0.0	0.0	null	null	null	null	null	null	null	null	331.0	335.0	340.0	333.0	338.0	334.0	330.0	336.0	334.0	332.0	336.0	
Sun Jun 04 02:43:00 UTC 2017	0.0	1.048293376E9	2682.904296875	0.0	2.5731072E7	0.0	6.0	8.90118144E8	45.8841438293457	0.0	0.0	1.0612736E9	1.050107904E9	0.0	0.0	0.07575000077486038	0.051249999552965164	0.045499999076128006	0.9917500019073486	0.7403944134712219	0.0	244.0	371.0	0.0	0.0	0.0	0.0	0.0	0.0	null	null	null	null	null	null	null	null	335.0	335.0	333.0	330.0	334.0	332.0	333.0	334.0	333.0	333.0	338.0	
Sun Jun 04 02:42:00 UTC 2017	0.0	1.047281664E9	2682.904296875	0.0	2.5731072E7	0.0	5.0	8.89675776E8	53.11573028564453	1.0	1.0	1.0612736E9	1.050107904E9	0.0	0.0	0.07625000178813934	0.05225000157952309	0.05000000074505806	0.9919999837875366	0.7403743267059326	0.0	244.0	371.0	0.0	0.0	0.0	0.0	0.0	0.0	null	null	null	null	null	null	null	null	336.0	335.0	339.0	336.0	338.0	335.0	335.0	331.0	335.0	339.0	332.0	
Sun Jun 04 02:41:00 UTC 2017	0.0	1.048293376E9	2682.904296875	0.0	2.5731072E7	0.0	2.0	8.89462784E8	53.11573028564453	0.0	0.0	1.062285312E9	1.050107904E9	0.0	0.0	0.10074999928474426	0.054999999701976776	0.04625000059604645	0.9919999837875366	0.7403488755226135	0.0	244.0	371.0	0.0	0.0	0.0	0.0	0.0	0.0	null	null	null	null	null	null	null	null	332.0	335.0	334.0	334.0	332.0	334.0	335.0	336.0	336.0	333.0	338.0	
Sun Jun 04 02:40:00 UTC 2017	0.0	1.048293376E9	2427.134033203125	0.0	2.5731072E7	0.0	2.0	8.89552896E8	54.024662017822266	0.0	0.0	1.0612736E9	1.050107904E9	0.0	0.0	0.0742499977350235	0.05050000175833702	0.04975000023841858	0.9919999837875366	0.7403249144554138	0.0	244.0	371.0	0.0	0.0	0.0	0.0	0.0	0.0	null	null	null	null	null	null	null	null	338.0	335.0	330.0	334.0	336.0	337.0	336.0	333.0	332.0	333.0	332.0	
Sun Jun 04 02:39:00 UTC 2017	0.0	1.047281664E9	2427.134033203125	0.0	2.5731072E7	0.0	2.0	8.89462784E8	54.024662017822266	0.0	0.0	1.062285312E9	1.050107904E9	0.0	0.0	0.07175000011920929	0.04625000059604645	0.04800000041723251	0.9917500019073486	0.7403200268745422	0.0	244.0	371.0	0.0	0.0	0.0	0.0	0.0	0.0	null	null	null	null	null	null	null	null	331.0	335.0	335.0	337.0	335.0	337.0	334.0	335.0	335.0	334.0	338.0	
Sun Jun 04 02:38:00 UTC 2017	0.0	1.047281664E9	2399.503662109375	0.0	2.5731072E7	0.0	2.0	8.89462784E8	54.024662017822266	0.0	0.0	1.0612736E9	1.050107904E9	0.0	0.0	0.07374999672174454	0.05274999886751175	0.0494999997317791	0.9919999837875366	0.7425907254219055	0.0	244.0	371.0	0.0	0.0	0.0	0.0	0.0	0.0	null	null	null	null	null	null	null	null	334.0	332.0	332.0	336.0	335.0	335.0	336.0	335.0	338.0	332.0	331.0	
Sun Jun 04 02:37:00 UTC 2017	0.0	1.048293376E9	2399.503662109375	0.0	2.5731072E7	0.0	2.0	8.89462784E8	54.024662017822266	0.0	0.0	1.062285312E9	1.050107904E9	0.0	0.0	0.07699999958276749	0.04899999871850014	0.04749999940395355	0.9919999837875366	0.7402867674827576	0.0	244.0	371.0	0.0	0.0	0.0	0.0	0.0	0.0	null	null	null	null	null	null	null	null	337.0	338.0	336.0	332.0	331.0	336.0	333.0	335.0	333.0	336.0	337.0	
Sun Jun 04 02:36:00 UTC 2017	0.0	1.048293376E9	2527.55712890625	0.0	2.5731072E7	0.0	2.0	8.89249792E8	47.30669403076172	1.0	1.0	1.062285312E9	1.050107904E9	0.0	0.0	0.07199999690055847	0.05575000122189522	0.045499999076128006	0.9919999837875366	0.7425721287727356	0.0	244.0	371.0	0.0	0.0	0.0	0.0	0.0	0.0	null	null	null	null	null	null	null	null	332.0	332.0	334.0	334.0	336.0	335.0	335.0	333.0	338.0	332.0	334.0	
Sun Jun 04 02:35:00 UTC 2017	0.0	1.047281664E9	2527.55712890625	0.0	2.5731072E7	0.0	2.0	8.89339904E8	47.30669403076172	0.0	0.0	1.062285312E9	1.050107904E9	0.0	0.0	0.0807500034570694	0.05025000125169754	0.05050000175833702	0.9919999837875366	0.7402686476707458	0.0	244.0	371.0	0.0	0.0	0.0	0.0	0.0	0.0	null	null	null	null	null	null	null	null	334.0	336.0	335.0	335.0	334.0	331.0	336.0	338.0	334.0	335.0	335.0	
Sun Jun 04 02:34:00 UTC 2017	1.0	1.048293376E9	2527.55712890625	0.0	2.5731072E7	0.0	3.0	8.89249792E8	55.74723434448242	0.0	0.0	1.0612736E9	1.050107904E9	0.0	0.0	0.0742499977350235	0.04874999821186066	0.048500001430511475	0.9922500252723694	0.7402363419532776	0.0	244.0	371.0	0.0	0.0	0.0	0.0	0.0	0.0	null	null	null	null	null	null	null	null	338.0	334.0	334.0	336.0	333.0	336.0	335.0	334.0	332.0	333.0	336.0	
Sun Jun 04 02:33:00 UTC 2017	0.0	1.048293376E9	2284.88818359375	0.0	2.5731072E7	0.0	2.0	8.89249792E8	55.74723434448242	0.0	0.0	1.062285312E9	1.050107904E9	0.0	0.0	0.08049999922513962	0.05375000089406967	0.04075000062584877	0.9919999837875366	0.7424420118331909	0.0	244.0	371.0	0.0	0.0	0.0	0.0	0.0	0.0	null	null	null	null	null	null	null	null	332.0	337.0	337.0	335.0	335.0	336.0	334.0	331.0	336.0	334.0	334.0	
Sun Jun 04 02:32:00 UTC 2017	0.0	1.047281664E9	2284.88818359375	0.0	2.5731072E7	0.0	2.0	8.89249792E8	55.74723434448242	1.0	2.0	1.062285312E9	1.050107904E9	0.0	0.0	0.07474999874830246	0.050999999046325684	0.04874999821186066	0.9919999837875366	0.7401390075683594	0.0	244.0	371.0	0.0	0.0	0.0	0.0	0.0	0.0	null	null	null	null	null	null	null	null	333.0	334.0	333.0	334.0	338.0	331.0	333.0	335.0	335.0	337.0	336.0	
Sun Jun 04 02:31:00 UTC 2017	0.0	1.048293376E9	2284.88818359375	0.0	2.5731072E7	0.0	3.0	8.89495552E8	55.74723434448242	1.0	2.0	1.0612736E9	1.050107904E9	0.0	0.0	0.09974999725818634	0.05400000140070915	0.04749999940395355	0.9919999837875366	0.7401193976402283	0.0	244.0	371.0	0.0	0.0	0.0	0.0	0.0	0.0	null	null	null	null	null	null	null	null	337.0	334.0	336.0	333.0	334.0	335.0	337.0	336.0	331.0	329.0	334.0	
Sun Jun 04 02:30:00 UTC 2017	0.0	1.048293376E9	2670.880615234375	0.0	2.5731072E7	0.0	2.0	8.89126912E8	55.74723434448242	1.0	1.0	1.062285312E9	1.050107904E9	0.0	0.0	0.06925000250339508	0.0560000017285347	0.04749999940395355	0.9922500252723694	0.7401174902915955	0.0	244.0	371.0	0.0	0.0	0.0	0.0	0.0	0.0	null	null	null	null	null	null	null	null	334.0	338.0	333.0	337.0	336.0	331.0	335.0	332.0	335.0	332.0	335.0	
Sun Jun 04 02:29:00 UTC 2017	0.0	1.047281664E9	2670.880615234375	0.0	2.5731072E7	0.0	2.0	8.890368E8	45.587303161621094	0.0	0.0	1.062285312E9	1.050107904E9	0.0	0.0	0.08675000071525574	0.051500000059604645	0.04874999821186066	0.9922500252723694	0.7400890588760376	0.0	244.0	371.0	0.0	0.0	0.0	0.0	0.0	0.0	null	null	null	null	null	null	null	null	333.0	335.0	335.0	335.0	335.0	336.0	336.0	333.0	334.0	336.0	333.0	
Sun Jun 04 02:28:00 UTC 2017	0.0	1.047281664E9	2722.522216796875	0.0	2.5731072E7	0.0	3.0	8.890368E8	45.587303161621094	0.0	0.0	1.0612736E9	1.050107904E9	0.0	0.0	0.07400000095367432	0.050999999046325684	0.04724999889731407	0.9922500252723694	0.7406928539276123	0.0	244.0	371.0	0.0	0.0	0.0	0.0	0.0	0.0	null	null	null	null	null	null	null	null	336.0	335.0	334.0	333.0	336.0	335.0	330.0	338.0	331.0	333.0	334.0	
Sun Jun 04 02:27:00 UTC 2017	0.0	1.047281664E9	2689.42919921875	0.0	2.5731072E7	0.0	2.0	8.890368E8	45.587303161621094	0.0	0.0	1.0612736E9	1.050107904E9	0.0	0.0	0.07150000333786011	0.04650000110268593	0.051500000059604645	0.9922500252723694	0.7423108816146851	0.0	244.0	371.0	0.0	0.0	0.0	0.0	0.0	0.0	null	null	null	null	null	null	null	null	338.0	339.0	334.0	337.0	334.0	333.0	334.0	336.0	333.0	332.0	331.0	
Sun Jun 04 02:26:00 UTC 2017	0.0	1.048293376E9	2689.42919921875	0.0	2.5731072E7	0.0	2.0	8.88827904E8	47.58938980102539	0.0	0.0	1.0612736E9	1.050107904E9	0.0	0.0	0.0729999989271164	0.050999999046325684	0.04450000077486038	0.9922500252723694	0.7400240302085876	0.0	244.0	371.0	0.0	0.0	0.0	0.0	0.0	0.0	null	null	null	null	null	null	null	null	333.0	336.0	333.0	333.0	335.0	335.0	332.0	334.0	336.0	335.0	335.0	
Sun Jun 04 02:25:00 UTC 2017	0.0	1.047281664E9	2689.42919921875	0.0	2.5731072E7	0.0	2.0	8.88918016E8	46.50301742553711	0.0	0.0	1.062285312E9	1.050107904E9	0.0	0.0	0.07199999690055847	0.054249998182058334	0.04874999821186066	0.9919999837875366	0.7400083541870117	0.0	244.0	371.0	0.0	0.0	0.0	0.0	0.0	0.0	null	null	null	null	null	null	null	null	334.0	336.0	334.0	337.0	333.0	335.0	337.0	338.0	333.0	331.0	337.0	
Sun Jun 04 02:24:00 UTC 2017	0.0	1.047281664E9	2646.98876953125	0.0	2.5731072E7	0.0	2.0	8.88827904E8	55.730350494384766	0.0	0.0	1.0612736E9	1.050107904E9	0.0	0.0	0.0767500028014183	0.050999999046325684	0.0494999997317791	0.9919999837875366	0.7399897575378418	0.0	244.0	371.0	0.0	0.0	0.0	0.0	0.0	0.0	null	null	null	null	null	null	null	null	334.0	332.0	337.0	334.0	336.0	333.0	335.0	335.0	334.0	334.0	332.0	
Sun Jun 04 02:23:00 UTC 2017	0.0	1.048293376E9	2646.98876953125	0.0	2.5731072E7	0.0	2.0	8.88827904E8	55.730350494384766	0.0	0.0	1.0612736E9	1.050107904E9	0.0	0.0	0.0767500028014183	0.05350000038743019	0.04324999824166298	0.9919999837875366	0.739990234375	0.0	244.0	371.0	0.0	0.0	0.0	0.0	0.0	0.0	null	null	null	null	null	null	null	null	336.0	336.0	336.0	335.0	334.0	334.0	336.0	334.0	333.0	334.0	333.0	
Sun Jun 04 02:22:00 UTC 2017	0.0	1.047281664E9	2646.98876953125	0.0	2.5731072E7	0.0	3.0	8.88827904E8	55.730350494384766	0.0	0.0	1.0612736E9	1.050107904E9	0.0	null	0.08425000309944153	0.051249999552965164	0.048500001430511475	0.9919999837875366	0.7399716377258301	0.0	244.0	371.0	0.0	0.0	0.0	0.0	0.0	0.0	null	null	null	null	null	null	null	null	337.0	335.0	333.0	335.0	336.0	334.0	336.0	336.0	336.0	335.0	337.0	
Sun Jun 04 02:21:00 UTC 2017	0.0	1.047281664E9	2723.575927734375	0.0	2.5731072E7	0.0	2.0	8.88614912E8	54.5223274230957	0.0	0.0	1.062285312E9	1.050107904E9	0.0	null	0.09375	0.04874999821186066	0.04774999991059303	0.9917500019073486	0.7399687170982361	0.0	244.0	371.0	0.0	0.0	0.0	0.0	0.0	0.0	null	null	null	null	null	null	null	null	334.0	337.0	335.0	336.0	333.0	334.0	334.0	331.0	333.0	332.0	333.0	
Sun Jun 04 02:20:00 UTC 2017	0.0	1.048293376E9	2723.575927734375	0.0	2.5731072E7	0.0	7.0	8.88705024E8	51.20212936401367	0.0	0.0	1.062285312E9	1.050107904E9	0.0	null	0.07124999910593033	0.04699999839067459	0.04975000023841858	0.9919999837875366	0.7399457097053528	0.0	244.0	371.0	0.0	0.0	0.0	0.0	0.0	0.0	null	null	null	null	null	null	null	null	331.0	333.0	333.0	334.0	333.0	335.0	333.0	337.0	333.0	336.0	335.0	
Sun Jun 04 02:19:00 UTC 2017	0.0	1.048293376E9	2545.338623046875	0.0	2.5731072E7	0.0	4.0	8.86878208E8	51.20212936401367	0.0	0.0	1.062285312E9	1.050107904E9	0.0	0.0	0.07649999856948853	0.05350000038743019	0.04600000008940697	0.9922500252723694	0.7399241924285889	0.0	244.0	371.0	0.0	0.0	0.0	0.0	0.0	0.0	null	null	null	null	null	null	null	null	333.0	336.0	337.0	332.0	335.0	335.0	336.0	335.0	337.0	334.0	336.0	
Sun Jun 04 02:18:00 UTC 2017	0.0	1.048293376E9	3135.451904296875	0.0	2.5731072E7	0.0	4.0	8.86878208E8	51.20212936401367	0.0	0.0	1.0612736E9	1.050107904E9	0.0	0.0	0.08500000089406967	0.051249999552965164	0.05000000074505806	0.9922500252723694	0.7409942150115967	0.0	244.0	371.0	0.0	0.0	0.0	0.0	0.0	0.0	null	null	null	null	null	null	null	null	334.0	334.0	332.0	336.0	332.0	332.0	335.0	334.0	336.0	336.0	331.0	
Sun Jun 04 02:17:00 UTC 2017	0.0	1.048293376E9	2968.038818359375	0.0	2.5731072E7	0.0	3.0	8.84301824E8	51.20212936401367	0.0	0.0	1.0612736E9	1.050107904E9	0.0	0.0	0.07500000298023224	0.050999999046325684	0.04749999940395355	0.9919999837875366	0.7399002313613892	0.0	244.0	371.0	0.0	0.0	0.0	0.0	0.0	0.0	null	null	null	null	null	null	null	null	338.0	335.0	338.0	334.0	338.0	338.0	335.0	335.0	333.0	334.0	338.0	
Sun Jun 04 02:16:00 UTC 2017	0.0	1.047281664E9	2968.038818359375	0.0	2.5731072E7	0.0	3.0	8.84088832E8	51.20212936401367	0.0	0.0	1.062285312E9	1.050107904E9	0.0	0.0	0.0754999965429306	0.051500000059604645	0.051750000566244125	0.9919999837875366	0.7403596639633179	0.0	244.0	371.0	0.0	0.0	0.0	0.0	0.0	0.0	null	null	null	null	null	null	null	null	330.0	333.0	334.0	335.0	331.0	334.0	333.0	334.0	335.0	335.0	332.0	
Sun Jun 04 02:15:00 UTC 2017	0.0	1.047281664E9	2250.748779296875	0.0	2.5731072E7	0.0	2.0	8.84178944E8	48.77387619018555	1.0	1.0	1.0612736E9	1.050107904E9	0.0	0.0	0.07699999958276749	0.052000001072883606	0.04374999925494194	0.9919999837875366	0.7399002313613892	0.0	244.0	371.0	0.0	0.0	0.0	0.0	0.0	0.0	null	null	null	null	null	null	null	null	335.0	333.0	334.0	334.0	338.0	335.0	332.0	338.0	334.0	334.0	334.0	
Sun Jun 04 02:14:00 UTC 2017	0.0	1.048293376E9	2250.748779296875	0.0	2.5731072E7	0.0	2.0	8.84088832E8	47.47087860107422	2.0	2.0	1.062285312E9	1.050107904E9	0.0	0.0	0.06825000047683716	0.050999999046325684	0.05225000157952309	0.9919999837875366	0.7398571968078613	0.0	244.0	371.0	0.0	0.0	0.0	0.0	0.0	0.0	null	null	null	null	null	null	null	null	338.0	335.0	335.0	333.0	332.0	334.0	339.0	335.0	340.0	332.0	333.0	
Sun Jun 04 02:13:00 UTC 2017	0.0	1.048293376E9	2291.597412109375	0.0	2.5731072E7	0.0	2.0	8.84088832E8	47.47087860107422	0.0	0.0	1.0612736E9	1.050107904E9	0.0	0.0	0.07874999940395355	0.05225000157952309	0.04100000113248825	0.9922500252723694	0.7404584884643555	0.0	244.0	371.0	0.0	0.0	0.0	0.0	0.0	0.0	null	null	null	null	null	null	null	null	336.0	337.0	335.0	335.0	336.0	331.0	335.0	331.0	335.0	338.0	335.0	
Sun Jun 04 02:12:00 UTC 2017	0.0	1.047281664E9	2291.597412109375	0.0	2.5731072E7	0.0	3.0	8.84088832E8	54.722347259521484	0.0	0.0	1.062285312E9	1.050107904E9	0.0	0.0	0.07199999690055847	0.051249999552965164	0.04924999922513962	0.9919999837875366	0.7398214340209961	0.0	244.0	371.0	0.0	0.0	0.0	0.0	0.0	0.0	null	null	null	null	null	null	null	null	331.0	333.0	336.0	337.0	334.0	338.0	331.0	334.0	332.0	331.0	333.0	
Sun Jun 04 02:11:00 UTC 2017	0.0	1.048293376E9	2291.597412109375	0.0	2.5731072E7	0.0	4.0	8.83888128E8	54.72315979003906	0.0	0.0	1.0612736E9	1.050107904E9	0.0	0.0	0.10300000011920929	0.0507499985396862	0.0507499985396862	0.9919999837875366	0.7397960424423218	0.0	244.0	371.0	0.0	0.0	0.0	0.0	0.0	0.0	null	null	null	null	null	null	null	null	338.0	331.0	335.0	335.0	334.0	333.0	337.0	334.0	333.0	335.0	334.0	
Sun Jun 04 02:10:00 UTC 2017	0.0	1.048293376E9	2510.447998046875	0.0	2.5731072E7	0.0	3.0	8.84252672E8	33.3122444152832	0.0	0.0	1.062285312E9	1.050107904E9	0.0	0.0	0.0754999965429306	0.048250000923871994	0.04924999922513962	0.9919999837875366	0.7397916316986084	0.0	244.0	371.0	0.0	0.0	0.0	0.0	0.0	0.0	null	null	null	null	null	null	null	null	334.0	335.0	337.0	334.0	335.0	332.0	334.0	334.0	335.0	336.0	336.0	
Sun Jun 04 02:09:00 UTC 2017	0.0	1.047281664E9	2510.447998046875	0.0	2.5731072E7	0.0	3.0	8.84047872E8	50.88331604003906	0.0	0.0	1.0612736E9	1.050107904E9	0.0	0.0	0.07225000113248825	0.05849999934434891	0.04149999842047691	0.9917500019073486	0.7412031292915344	0.0	244.0	371.0	0.0	0.0	0.0	0.0	0.0	0.0	null	null	null	null	null	null	null	null	332.0	334.0	334.0	336.0	335.0	334.0	335.0	331.0	336.0	337.0	334.0	
Sun Jun 04 02:08:00 UTC 2017	0.0	1.048293376E9	2510.447998046875	0.0	2.5731072E7	0.0	2.0	8.84047872E8	50.88331604003906	0.0	0.0	1.062285312E9	1.050107904E9	0.0	0.0	0.07175000011920929	0.05000000074505806	0.051750000566244125	0.9919999837875366	0.7397705912590027	0.0	244.0	371.0	0.0	0.0	0.0	0.0	0.0	0.0	null	null	null	null	null	null	null	null	334.0	334.0	332.0	333.0	335.0	335.0	336.0	338.0	336.0	334.0	333.0	
Sun Jun 04 02:07:00 UTC 2017	0.0	1.048293376E9	2933.608642578125	0.0	2.5731072E7	0.0	2.0	8.84047872E8	50.88331604003906	0.0	0.0	1.0612736E9	1.050107904E9	0.0	0.0	0.07724999636411667	0.04724999889731407	0.045249998569488525	0.9919999837875366	0.7419664263725281	0.0	244.0	371.0	0.0	0.0	0.0	0.0	0.0	0.0	null	null	null	null	null	null	null	null	336.0	336.0	334.0	340.0	338.0	335.0	334.0	335.0	334.0	333.0	338.0	
Sun Jun 04 02:06:00 UTC 2017	0.0	1.047281664E9	2933.608642578125	0.0	2.5731072E7	0.0	3.0	8.84047872E8	50.88331604003906	0.0	0.0	1.062285312E9	1.050107904E9	0.0	0.0	0.0754999965429306	0.04724999889731407	0.0442500002682209	0.9919999837875366	0.7408352494239807	0.0	244.0	371.0	0.0	0.0	0.0	0.0	0.0	0.0	null	null	null	null	null	null	null	null	336.0	338.0	333.0	332.0	333.0	333.0	335.0	329.0	334.0	336.0	332.0	
Sun Jun 04 02:05:00 UTC 2017	0.0	1.047281664E9	3020.537841796875	0.0	2.5731072E7	0.0	4.0	8.83929088E8	49.0606575012207	0.0	0.0	1.0612736E9	1.050107904E9	0.0	0.0	0.07349999994039536	0.05974999815225601	0.04675000160932541	0.9917500019073486	0.739699125289917	0.0	244.0	371.0	0.0	0.0	0.0	0.0	0.0	0.0	null	null	null	null	null	null	null	null	335.0	333.0	335.0	334.0	334.0	335.0	337.0	333.0	334.0	334.0	335.0	
Sun Jun 04 02:04:00 UTC 2017	0.0	1.048293376E9	3020.537841796875	0.0	2.5731072E7	0.0	2.0	8.83838976E8	49.0606575012207	1.0	1.0	1.062285312E9	1.050107904E9	0.0	0.0	0.08049999922513962	0.04699999839067459	0.05025000125169754	0.9919999837875366	0.739652156829834	0.0	244.0	371.0	0.0	0.0	0.0	0.0	0.0	0.0	null	null	null	null	null	null	null	null	336.0	336.0	336.0	335.0	337.0	333.0	337.0	333.0	331.0	335.0	335.0	
Sun Jun 04 02:03:00 UTC 2017	0.0	1.047281664E9	3020.537841796875	0.0	2.5731072E7	0.0	3.0	8.83838976E8	51.622745513916016	1.0	1.0	1.0612736E9	1.050107904E9	0.0	0.0	0.07325000315904617	0.05324999988079071	0.048250000923871994	0.9919999837875366	0.7396071553230286	0.0	244.0	371.0	0.0	0.0	0.0	0.0	0.0	0.0	null	null	null	null	null	null	null	null	333.0	333.0	335.0	334.0	331.0	336.0	331.0	335.0	335.0	333.0	336.0	
Sun Jun 04 02:02:00 UTC 2017	0.0	1.047281664E9	3132.359619140625	0.0	2.5731072E7	0.0	3.0	8.83838976E8	41.491275787353516	0.0	0.0	1.062285312E9	1.050107904E9	0.0	0.0	0.07800000160932541	0.05575000122189522	0.045249998569488525	0.9915000200271606	0.740228533744812	0.0	244.0	371.0	0.0	0.0	0.0	0.0	0.0	0.0	null	null	null	null	null	null	null	null	332.0	334.0	336.0	336.0	337.0	334.0	334.0	333.0	333.0	335.0	334.0	
Sun Jun 04 02:01:00 UTC 2017	1.0	1.048293376E9	3132.359619140625	0.0	2.5731072E7	0.0	3.0	8.83625984E8	41.491275787353516	0.0	0.0	1.0612736E9	1.050107904E9	0.0	0.0	0.09274999797344208	0.04774999991059303	0.05025000125169754	0.9917500019073486	0.7395772933959961	0.0	244.0	371.0	0.0	0.0	0.0	0.0	0.0	0.0	null	null	null	null	null	null	null	null	333.0	334.0	330.0	334.0	332.0	334.0	336.0	334.0	338.0	331.0	334.0	
Sun Jun 04 02:00:00 UTC 2017	1.0	1.047281664E9	3132.359619140625	0.0	2.5731072E7	0.0	2.0	8.83716096E8	58.72888946533203	0.0	0.0	1.062285312E9	1.050107904E9	0.0	0.0	0.07925000041723251	0.05350000038743019	0.04924999922513962	0.9917500019073486	0.739658534526825	0.0	244.0	371.0	0.0	0.0	0.0	0.0	0.0	0.0	null	null	null	null	null	null	null	null	333.0	333.0	335.0	335.0	333.0	333.0	334.0	336.0	334.0	334.0	333.0	
Sun Jun 04 01:59:00 UTC 2017	0.0	1.047281664E9	2587.798828125	0.0	2.5731072E7	0.0	2.0	8.83625984E8	58.72888946533203	0.0	0.0	1.062285312E9	1.050107904E9	0.0	0.0	0.07175000011920929	0.04749999940395355	0.0442500002682209	0.9917500019073486	0.7396590113639832	0.0	244.0	371.0	0.0	0.0	0.0	0.0	0.0	0.0	null	null	null	null	null	null	null	null	334.0	335.0	336.0	334.0	337.0	335.0	333.0	335.0	336.0	334.0	335.0	
Sun Jun 04 01:58:00 UTC 2017	0.0	1.048293376E9	2587.798828125	0.0	2.5731072E7	0.0	2.0	8.83625984E8	66.96929168701172	0.0	0.0	1.062285312E9	1.050107904E9	0.0	0.0	0.07750000059604645	0.05225000157952309	0.04800000041723251	0.9917500019073486	0.7396355271339417	0.0	244.0	371.0	0.0	0.0	0.0	0.0	0.0	0.0	null	null	null	null	null	null	null	null	333.0	330.0	334.0	331.0	330.0	333.0	333.0	332.0	329.0	335.0	334.0	
Sun Jun 04 01:57:00 UTC 2017	0.0	1.048293376E9	2818.429443359375	0.0	2.5731072E7	0.0	2.0	8.83625984E8	66.96929168701172	0.0	0.0	1.0612736E9	1.050107904E9	0.0	0.0	0.07575000077486038	0.05050000175833702	0.045499999076128006	0.9915000200271606	0.7418166995048523	0.0	244.0	371.0	0.0	0.0	0.0	0.0	0.0	0.0	null	null	null	null	null	null	null	null	337.0	337.0	335.0	334.0	335.0	331.0	336.0	333.0	334.0	335.0	334.0	
Sun Jun 04 01:56:00 UTC 2017	0.0	1.048293376E9	2536.278564453125	0.0	2.5731072E7	0.0	2.0	8.83503104E8	40.27604675292969	0.0	1.0	1.062285312E9	1.050107904E9	0.0	0.0	0.07524999976158142	0.054499998688697815	0.04749999940395355	0.9915000200271606	0.7396140098571777	0.0	244.0	371.0	0.0	0.0	0.0	0.0	0.0	0.0	null	null	null	null	null	null	null	null	332.0	336.0	334.0	336.0	334.0	335.0	333.0	334.0	337.0	334.0	338.0	
Sun Jun 04 01:55:00 UTC 2017	0.0	1.047281664E9	2536.278564453125	0.0	2.5731072E7	0.0	2.0	8.83503104E8	52.37975311279297	1.0	1.0	1.0612736E9	1.050107904E9	0.0	0.0	0.0689999982714653	0.05299999937415123	0.048500001430511475	0.9917500019073486	0.7395973801612854	0.0	244.0	371.0	0.0	0.0	0.0	0.0	0.0	0.0	null	null	null	null	null	null	null	null	332.0	335.0	335.0	335.0	337.0	333.0	334.0	335.0	333.0	331.0	332.0	
Sun Jun 04 01:54:00 UTC 2017	0.0	1.047281664E9	2486.128662109375	0.0	2.5731072E7	0.0	3.0	8.83412992E8	33.208683013916016	0.0	0.0	1.0612736E9	1.050107904E9	0.0	0.0	0.07900000363588333	0.04874999821186066	0.04574999958276749	0.9919999837875366	0.7395802736282349	0.0	244.0	371.0	0.0	0.0	0.0	0.0	0.0	0.0	null	null	null	null	null	null	null	null	334.0	332.0	330.0	336.0	333.0	335.0	336.0	334.0	334.0	334.0	335.0	
Sun Jun 04 01:53:00 UTC 2017	0.0	1.047281664E9	3015.96923828125	0.0	2.5731072E7	0.0	7.0	8.82028544E8	33.208683013916016	0.0	0.0	1.062285312E9	1.050107904E9	0.0	0.0	0.07599999755620956	0.054499998688697815	0.04650000110268593	0.9917500019073486	0.7396546006202698	0.0	244.0	371.0	0.0	0.0	0.0	0.0	0.0	0.0	null	null	null	null	null	null	null	null	333.0	338.0	337.0	329.0	336.0	336.0	335.0	333.0	331.0	331.0	335.0	
Sun Jun 04 01:52:00 UTC 2017	0.0	1.048293376E9	3015.96923828125	0.0	2.5731072E7	0.0	3.0	8.8168448E8	33.208683013916016	0.0	0.0	1.0612736E9	1.050107904E9	0.0	0.0	0.07625000178813934	0.048500001430511475	0.05050000175833702	0.9917500019073486	0.7395533323287964	0.0	244.0	371.0	0.0	0.0	0.0	0.0	0.0	0.0	null	null	null	null	null	null	null	null	332.0	333.0	333.0	337.0	334.0	334.0	334.0	335.0	337.0	337.0	331.0	
Sun Jun 04 01:51:00 UTC 2017	0.0	1.048293376E9	2114.908447265625	0.0	2.5731072E7	0.0	3.0	8.81565696E8	56.38362503051758	0.0	0.0	1.0612736E9	1.050107904E9	0.0	null	0.09350000321865082	0.051500000059604645	0.04675000160932541	0.9917500019073486	0.7395420670509338	0.0	244.0	371.0	0.0	0.0	0.0	0.0	0.0	0.0	null	null	null	null	null	null	null	null	335.0	333.0	332.0	337.0	334.0	337.0	334.0	335.0	335.0	333.0	334.0	
Sun Jun 04 01:50:00 UTC 2017	0.0	1.048293376E9	2693.99853515625	0.0	2.5731072E7	0.0	6.0	8.81565696E8	47.12112045288086	0.0	1.0	1.062285312E9	1.050107904E9	0.0	null	0.08349999785423279	0.04924999922513962	0.04724999889731407	0.9915000200271606	0.7395381927490234	0.0	244.0	371.0	0.0	0.0	0.0	0.0	0.0	0.0	null	null	null	null	null	null	null	null	334.0	334.0	334.0	335.0	333.0	333.0	333.0	333.0	332.0	334.0	334.0	
Sun Jun 04 01:49:00 UTC 2017	1.0	1.047281664E9	2693.99853515625	0.0	2.5731072E7	0.0	5.0	8.8076288E8	47.12112045288086	0.0	0.0	1.0612736E9	1.050107904E9	0.0	null	0.07100000232458115	0.04899999871850014	0.04650000110268593	0.9915000200271606	0.7395210266113281	0.0	244.0	371.0	0.0	0.0	0.0	0.0	0.0	0.0	null	null	null	null	null	null	null	null	332.0	334.0	336.0	334.0	333.0	335.0	333.0	335.0	335.0	335.0	335.0	
Sun Jun 04 01:48:00 UTC 2017	0.0	1.048293376E9	2693.99853515625	0.0	2.5731072E7	0.0	2.0	8.8076288E8	47.12112045288086	0.0	0.0	1.0612736E9	1.050107904E9	0.0	null	0.07850000262260437	0.0572500005364418	0.04924999922513962	0.9915000200271606	0.739505410194397	0.0	244.0	371.0	0.0	0.0	0.0	0.0	0.0	0.0	null	null	null	null	null	null	null	null	333.0	333.0	332.0	334.0	336.0	334.0	333.0	334.0	334.0	333.0	332.0	
Sun Jun 04 01:47:00 UTC 2017	0.0	1.047281664E9	2693.99853515625	0.0	2.5731072E7	0.0	3.0	8.8076288E8	47.12112045288086	0.0	0.0	1.062285312E9	1.050107904E9	0.0	null	0.06825000047683716	0.05025000125169754	0.04874999821186066	0.9915000200271606	0.7395034432411194	0.0	244.0	371.0	0.0	0.0	0.0	0.0	0.0	0.0	null	null	null	null	null	null	null	null	331.0	332.0	335.0	334.0	334.0	332.0	334.0	336.0	331.0	331.0	332.0	
Sun Jun 04 01:46:00 UTC 2017	1.0	1.047281664E9	2895.884765625	0.0	2.5731072E7	0.0	2.0	8.80549888E8	47.12112045288086	0.0	0.0	1.0612736E9	1.050107904E9	0.0	null	0.0767500028014183	0.0430000014603138	0.04699999839067459	0.9919999837875366	0.7407305240631104	0.0	244.0	371.0	0.0	0.0	0.0	0.0	0.0	0.0	null	null	null	null	null	null	null	null	331.0	333.0	337.0	331.0	337.0	336.0	338.0	332.0	333.0	334.0	337.0	
Sun Jun 04 01:45:00 UTC 2017	1.0	1.048293376E9	2895.884765625	0.0	2.5731072E7	0.0	5.0	8.8064E8	45.40770721435547	0.0	0.0	1.0612736E9	1.050107904E9	0.0	0.0	0.08474999666213989	0.05375000089406967	0.04600000008940697	0.9915000200271606	0.7395234704017639	0.0	244.0	371.0	0.0	0.0	0.0	0.0	0.0	0.0	null	null	null	null	null	null	null	null	335.0	334.0	334.0	337.0	334.0	332.0	331.0	337.0	333.0	334.0	331.0	
Sun Jun 04 01:44:00 UTC 2017	1.0	1.048293376E9	2714.124755859375	0.0	2.5731072E7	0.0	3.0	8.79865856E8	45.40770721435547	0.0	0.0	1.0612736E9	1.050107904E9	0.0	0.0	0.06724999845027924	0.04774999991059303	0.0494999997317791	0.9915000200271606	0.7394677400588989	0.0	244.0	371.0	0.0	0.0	0.0	0.0	0.0	0.0	null	null	null	null	null	null	null	null	332.0	332.0	332.0	333.0	336.0	336.0	337.0	332.0	331.0	333.0	333.0	
Sun Jun 04 01:43:00 UTC 2017	0.0	1.048293376E9	2305.825439453125	0.0	2.5731072E7	0.0	2.0	8.79865856E8	35.42168426513672	0.0	0.0	1.062285312E9	1.050107904E9	0.0	0.0	0.07900000363588333	0.05025000125169754	0.04774999991059303	0.9909999966621399	0.7394515872001648	0.0	244.0	371.0	0.0	0.0	0.0	0.0	0.0	0.0	null	null	null	null	null	null	null	null	331.0	330.0	333.0	337.0	334.0	332.0	331.0	333.0	336.0	336.0	335.0	
Sun Jun 04 01:42:00 UTC 2017	1.0	1.048293376E9	3073.395751953125	0.0	2.5731072E7	0.0	4.0	8.79865856E8	44.510005950927734	0.0	0.0	1.062285312E9	1.050107904E9	0.0	0.0	0.07874999940395355	0.05249999836087227	0.05050000175833702	0.9917500019073486	0.7394285798072815	0.0	244.0	371.0	0.0	0.0	0.0	0.0	0.0	0.0	null	null	null	null	null	null	null	null	336.0	335.0	329.0	331.0	331.0	333.0	336.0	332.0	332.0	333.0	332.0	
Sun Jun 04 01:41:00 UTC 2017	0.0	1.048293376E9	2596.49609375	0.0	2.5731072E7	0.0	2.0	8.79652864E8	37.84846496582031	0.0	0.0	1.062285312E9	1.050107904E9	0.0	0.0	0.09399999678134918	0.048250000923871994	0.04699999839067459	0.9877499938011169	0.7394246459007263	0.0	244.0	371.0	0.0	0.0	0.0	0.0	0.0	0.0	null	null	null	null	null	null	null	null	332.0	335.0	335.0	333.0	334.0	331.0	332.0	331.0	334.0	334.0	331.0	
Sun Jun 04 01:40:00 UTC 2017	1.0	1.047281664E9	2596.49609375	0.0	2.5731072E7	0.0	2.0	8.79742976E8	68.79658508300781	0.0	0.0	1.0612736E9	1.050107904E9	0.0	0.0	0.07450000196695328	0.048500001430511475	0.04475000128149986	0.987500011920929	0.7416111826896667	0.0	244.0	371.0	0.0	0.0	0.0	0.0	0.0	0.0	null	null	null	null	null	null	null	null	331.0	332.0	331.0	332.0	331.0	331.0	329.0	331.0	328.0	334.0	334.0	
Sun Jun 04 01:39:00 UTC 2017	1.0	1.047281664E9	2333.925048828125	0.0	2.5731072E7	0.0	2.0	8.79652864E8	38.642921447753906	0.0	0.0	1.062285312E9	1.050107904E9	0.0	0.0	0.07575000077486038	0.05324999988079071	0.05000000074505806	0.9912499785423279	0.740190863609314	0.0	244.0	371.0	0.0	0.0	0.0	0.0	0.0	0.0	null	null	null	null	null	null	null	null	334.0	338.0	336.0	333.0	333.0	330.0	333.0	335.0	336.0	330.0	333.0	
Sun Jun 04 01:38:00 UTC 2017	0.0	1.048293376E9	2333.925048828125	0.0	2.5731072E7	0.0	2.0	8.79652864E8	38.642921447753906	0.0	0.0	1.0612736E9	1.050107904E9	0.0	0.0	0.0807500034570694	0.052000001072883606	0.04924999922513962	0.9915000200271606	0.7392852306365967	0.0	244.0	371.0	0.0	0.0	0.0	0.0	0.0	0.0	null	null	null	null	null	null	null	null	338.0	333.0	336.0	334.0	332.0	335.0	337.0	330.0	333.0	334.0	333.0	
Sun Jun 04 01:37:00 UTC 2017	0.0	1.047281664E9	2333.925048828125	0.0	2.5731072E7	0.0	3.0	8.79652864E8	36.681705474853516	0.0	0.0	1.0612736E9	1.050107904E9	0.0	0.0	0.07124999910593033	0.045499999076128006	0.04800000041723251	0.9919999837875366	0.7393145561218262	0.0	244.0	371.0	0.0	0.0	0.0	0.0	0.0	0.0	null	null	null	null	null	null	null	null	332.0	332.0	331.0	334.0	335.0	335.0	335.0	336.0	332.0	336.0	335.0	
Sun Jun 04 01:36:00 UTC 2017	0.0	1.048293376E9	2333.925048828125	0.0	2.5731072E7	0.0	4.0	8.79443968E8	36.681705474853516	0.0	0.0	1.062285312E9	1.050107904E9	0.0	0.0	0.07150000333786011	0.05824999883770943	0.04450000077486038	0.9915000200271606	0.7415867447853088	0.0	244.0	371.0	0.0	0.0	0.0	0.0	0.0	0.0	null	null	null	null	null	null	null	null	331.0	331.0	336.0	336.0	333.0	331.0	332.0	333.0	337.0	335.0	332.0	
Sun Jun 04 01:35:00 UTC 2017	1.0	1.047281664E9	2333.925048828125	0.0	2.5731072E7	0.0	2.0	8.79529984E8	36.681705474853516	0.0	0.0	1.062285312E9	1.050107904E9	0.0	0.0	0.07175000011920929	0.05000000074505806	0.048250000923871994	0.9915000200271606	0.7392827868461609	0.0	244.0	371.0	0.0	0.0	0.0	0.0	0.0	0.0	null	null	null	null	null	null	null	null	333.0	331.0	330.0	333.0	335.0	339.0	341.0	333.0	332.0	333.0	335.0	
Sun Jun 04 01:34:00 UTC 2017	1.0	1.048293376E9	2333.925048828125	0.0	2.5731072E7	0.0	3.0	8.79439872E8	36.681705474853516	0.0	0.0	1.062285312E9	1.050107904E9	0.0	0.0	0.07100000232458115	0.05050000175833702	0.04899999871850014	0.9912499785423279	0.7392773628234863	0.0	244.0	371.0	0.0	0.0	0.0	0.0	0.0	0.0	null	null	null	null	null	null	null	null	335.0	333.0	335.0	333.0	332.0	331.0	334.0	334.0	334.0	334.0	331.0	
Sun Jun 04 01:33:00 UTC 2017	1.0	1.047281664E9	2333.925048828125	0.0	2.5731072E7	0.0	3.0	8.79439872E8	36.681705474853516	0.0	0.0	1.062285312E9	1.050107904E9	0.0	0.0	0.07774999737739563	0.04800000041723251	0.05025000125169754	0.9915000200271606	0.7415505647659302	0.0	244.0	371.0	0.0	0.0	0.0	0.0	0.0	0.0	null	null	null	null	null	null	null	null	335.0	337.0	337.0	335.0	334.0	333.0	336.0	334.0	335.0	334.0	336.0	
Sun Jun 04 01:32:00 UTC 2017	0.0	1.047281664E9	2995.69482421875	0.0	2.5731072E7	0.0	2.0	8.79439872E8	46.17741775512695	0.0	0.0	1.0612736E9	1.050107904E9	0.0	0.0	0.08150000125169754	0.04874999821186066	0.045249998569488525	0.9917500019073486	0.7407422661781311	0.0	244.0	371.0	0.0	0.0	0.0	0.0	0.0	0.0	null	null	null	null	null	null	null	null	333.0	334.0	334.0	335.0	334.0	333.0	334.0	333.0	334.0	332.0	338.0	
Sun Jun 04 01:31:00 UTC 2017	0.0	1.047281664E9	2777.14697265625	0.0	2.5731072E7	0.0	2.0	8.79230976E8	46.17741775512695	0.0	0.0	1.062285312E9	1.050107904E9	0.0	0.0	0.1002499982714653	0.05050000175833702	0.048250000923871994	0.9919999837875366	0.7415280342102051	0.0	244.0	371.0	0.0	0.0	0.0	0.0	0.0	0.0	null	null	null	null	null	null	null	null	336.0	334.0	334.0	337.0	332.0	336.0	336.0	334.0	334.0	337.0	333.0	
Sun Jun 04 01:30:00 UTC 2017	0.0	1.048293376E9	2777.14697265625	0.0	2.5731072E7	0.0	5.0	8.79321088E8	46.17741775512695	0.0	0.0	1.0612736E9	1.050107904E9	0.0	0.0	0.06849999725818634	0.05249999836087227	0.04675000160932541	0.9919999837875366	0.7392216324806213	0.0	244.0	371.0	0.0	0.0	0.0	0.0	0.0	0.0	null	null	null	null	null	null	null	null	333.0	338.0	330.0	333.0	336.0	332.0	336.0	335.0	340.0	336.0	334.0	
Sun Jun 04 01:29:00 UTC 2017	0.0	1.048293376E9	2994.30712890625	0.0	2.5731072E7	0.0	6.0	8.79230976E8	45.3892707824707	0.0	0.0	1.062285312E9	1.050107904E9	0.0	0.0	0.07599999755620956	0.04975000023841858	0.04899999871850014	0.9919999837875366	0.7392597794532776	0.0	244.0	371.0	0.0	0.0	0.0	0.0	0.0	0.0	null	null	null	null	null	null	null	null	334.0	335.0	337.0	333.0	335.0	333.0	333.0	332.0	333.0	336.0	334.0	
Sun Jun 04 01:28:00 UTC 2017	0.0	1.048293376E9	2404.33203125	0.0	2.5731072E7	0.0	6.0	8.7857152E8	56.368072509765625	0.0	0.0	1.0612736E9	1.050107904E9	0.0	0.0	0.07575000077486038	0.05274999886751175	0.05324999988079071	0.9919999837875366	0.7402994632720947	0.0	244.0	371.0	0.0	0.0	0.0	0.0	0.0	0.0	null	null	null	null	null	null	null	null	334.0	333.0	336.0	337.0	331.0	335.0	335.0	335.0	332.0	330.0	333.0	
Sun Jun 04 01:27:00 UTC 2017	0.0	1.048293376E9	3007.8876953125	0.0	2.5731072E7	0.0	2.0	8.7857152E8	38.958553314208984	0.0	0.0	1.062285312E9	1.050107904E9	0.0	0.0	0.07325000315904617	0.04399999976158142	0.042750000953674316	0.9917500019073486	0.7414717674255371	0.0	244.0	371.0	0.0	0.0	0.0	0.0	0.0	0.0	null	null	null	null	null	null	null	null	335.0	334.0	336.0	333.0	333.0	336.0	335.0	331.0	335.0	337.0	333.0	
Sun Jun 04 01:26:00 UTC 2017	1.0	1.048293376E9	2635.6396484375	0.0	2.5731072E7	0.0	2.0	8.7844864E8	50.695343017578125	1.0	1.0	1.0612736E9	1.050107904E9	0.0	0.0	0.07900000363588333	0.057750001549720764	0.04774999991059303	0.9915000200271606	0.7391760945320129	0.0	244.0	371.0	0.0	0.0	0.0	0.0	0.0	0.0	null	null	null	null	null	null	null	null	334.0	332.0	333.0	335.0	338.0	334.0	333.0	334.0	334.0	332.0	334.0	
Sun Jun 04 01:25:00 UTC 2017	1.0	1.047281664E9	2635.6396484375	0.0	2.5731072E7	0.0	2.0	8.7844864E8	45.14945602416992	1.0	0.0	1.0612736E9	1.050107904E9	0.0	0.0	0.0794999971985817	0.04899999871850014	0.04874999821186066	0.9917500019073486	0.7391756176948547	0.0	244.0	371.0	0.0	0.0	0.0	0.0	0.0	0.0	null	null	null	null	null	null	null	null	334.0	334.0	333.0	336.0	331.0	333.0	333.0	337.0	334.0	336.0	334.0	
Sun Jun 04 01:24:00 UTC 2017	0.0	1.048293376E9	2635.6396484375	0.0	2.5731072E7	0.0	4.0	8.78358528E8	45.14945602416992	0.0	0.0	1.062285312E9	1.050107904E9	0.0	0.0	0.06975000351667404	0.051249999552965164	0.04800000041723251	0.9917500019073486	0.7392309308052063	0.0	244.0	371.0	0.0	0.0	0.0	0.0	0.0	0.0	null	null	null	null	null	null	null	null	334.0	336.0	331.0	337.0	333.0	335.0	334.0	335.0	335.0	335.0	335.0	
Sun Jun 04 01:23:00 UTC 2017	0.0	1.048293376E9	3038.90576171875	0.0	2.5731072E7	0.0	2.0	8.78358528E8	67.75627899169922	0.0	0.0	1.062285312E9	1.050107904E9	0.0	null	0.07599999755620956	0.045499999076128006	0.04650000110268593	0.9917500019073486	0.7405059337615967	0.0	244.0	371.0	0.0	0.0	0.0	0.0	0.0	0.0	null	null	null	null	null	null	null	null	335.0	334.0	333.0	333.0	334.0	332.0	331.0	334.0	337.0	335.0	335.0	
Sun Jun 04 01:22:00 UTC 2017	0.0	1.048293376E9	2554.562255859375	0.0	2.5731072E7	0.0	2.0	8.78358528E8	67.75627899169922	0.0	0.0	1.0612736E9	1.050107904E9	0.0	null	0.07500000298023224	0.051500000059604645	0.048500001430511475	0.9917500019073486	0.7391124963760376	0.0	244.0	371.0	0.0	0.0	0.0	0.0	0.0	0.0	null	null	null	null	null	null	null	null	335.0	337.0	335.0	336.0	334.0	335.0	335.0	332.0	333.0	334.0	331.0	
Sun Jun 04 01:21:00 UTC 2017	0.0	1.047281664E9	2554.562255859375	0.0	2.5731072E7	0.0	2.0	8.78145536E8	52.001319885253906	0.0	0.0	1.062285312E9	1.050107904E9	0.0	null	0.09149999916553497	0.05700000002980232	0.04899999871850014	0.9919999837875366	0.7390753030776978	0.0	244.0	371.0	0.0	0.0	0.0	0.0	0.0	0.0	null	null	null	null	null	null	null	null	334.0	333.0	335.0	333.0	334.0	337.0	336.0	335.0	335.0	334.0	336.0	
Sun Jun 04 01:20:00 UTC 2017	0.0	1.048293376E9	2554.562255859375	0.0	2.5731072E7	0.0	2.0	8.78235648E8	52.001319885253906	0.0	0.0	1.0612736E9	1.050107904E9	0.0	null	0.08124999701976776	0.04475000128149986	0.04675000160932541	0.9919999837875366	0.739113986492157	0.0	244.0	371.0	0.0	0.0	0.0	0.0	0.0	0.0	null	null	null	null	null	null	null	null	336.0	335.0	335.0	336.0	335.0	334.0	335.0	337.0	334.0	333.0	334.0	
Sun Jun 04 01:19:00 UTC 2017	1.0	1.048293376E9	2734.682861328125	0.0	2.5731072E7	0.0	2.0	8.78145536E8	60.39948654174805	0.0	0.0	1.0612736E9	1.050107904E9	0.0	null	0.06449999660253525	0.0507499985396862	0.05025000125169754	0.9917500019073486	0.7390567064285278	0.0	244.0	371.0	0.0	0.0	0.0	0.0	0.0	0.0	null	null	null	null	null	null	null	null	335.0	336.0	333.0	334.0	334.0	335.0	329.0	330.0	334.0	335.0	330.0	
Sun Jun 04 01:18:00 UTC 2017	1.0	1.048293376E9	2917.8515625	0.0	2.5731072E7	0.0	6.0	8.78145536E8	52.2537727355957	0.0	0.0	1.0612736E9	1.050107904E9	0.0	0.0	0.07649999856948853	0.05400000140070915	0.045249998569488525	0.9917500019073486	0.7390395998954773	0.0	244.0	371.0	0.0	0.0	0.0	0.0	0.0	0.0	null	null	null	null	null	null	null	null	334.0	334.0	332.0	334.0	334.0	335.0	334.0	336.0	335.0	335.0	334.0	
Sun Jun 04 01:17:00 UTC 2017	0.0	1.048293376E9	2628.683349609375	0.0	2.5731072E7	0.0	4.0	8.74688512E8	52.2537727355957	0.0	0.0	1.062285312E9	1.050107904E9	0.0	0.0	0.07575000077486038	0.05025000125169754	0.050999999046325684	0.9917500019073486	0.739022970199585	0.0	244.0	371.0	0.0	0.0	0.0	0.0	0.0	0.0	null	null	null	null	null	null	null	null	336.0	334.0	335.0	332.0	335.0	336.0	336.0	335.0	336.0	330.0	334.0	
Sun Jun 04 01:16:00 UTC 2017	0.0	1.048293376E9	2948.311767578125	0.0	2.5731072E7	0.0	2.0	8.74160128E8	76.98441314697266	0.0	0.0	1.062285312E9	1.050107904E9	0.0	0.0	0.0729999989271164	0.05400000140070915	0.04475000128149986	0.9915000200271606	0.7390797138214111	0.0	244.0	371.0	0.0	0.0	0.0	0.0	0.0	0.0	null	null	null	null	null	null	null	null	337.0	332.0	336.0	336.0	333.0	336.0	332.0	336.0	338.0	334.0	334.0	
Sun Jun 04 01:15:00 UTC 2017	0.0	1.047281664E9	2948.311767578125	0.0	2.5731072E7	0.0	2.0	8.7425024E8	76.98441314697266	0.0	0.0	1.062285312E9	1.050107904E9	0.0	0.0	0.0754999965429306	0.05025000125169754	0.04874999821186066	0.9919999837875366	0.7389534711837769	0.0	244.0	371.0	0.0	0.0	0.0	0.0	0.0	0.0	null	null	null	null	null	null	null	null	334.0	334.0	331.0	333.0	336.0	332.0	334.0	334.0	332.0	331.0	330.0	
Sun Jun 04 01:14:00 UTC 2017	0.0	1.047281664E9	2676.16455078125	0.0	2.5731072E7	0.0	2.0	8.74160128E8	44.981781005859375	0.0	0.0	1.062285312E9	1.050107904E9	0.0	0.0	0.07599999755620956	0.04774999991059303	0.04874999821186066	0.9915000200271606	0.7389388084411621	0.0	244.0	371.0	0.0	0.0	0.0	0.0	0.0	0.0	null	null	null	null	null	null	null	null	337.0	334.0	336.0	336.0	334.0	337.0	337.0	331.0	337.0	336.0	338.0	
Sun Jun 04 01:13:00 UTC 2017	0.0	1.048293376E9	2676.16455078125	0.0	2.5731072E7	0.0	2.0	8.74160128E8	44.981781005859375	0.0	0.0	1.062285312E9	1.050107904E9	0.0	0.0	0.07975000143051147	0.0494999997317791	0.04475000128149986	0.9922500252723694	0.7389177680015564	0.0	244.0	371.0	0.0	0.0	0.0	0.0	0.0	0.0	null	null	null	null	null	null	null	null	333.0	334.0	333.0	332.0	336.0	333.0	331.0	335.0	330.0	335.0	333.0	
Sun Jun 04 01:12:00 UTC 2017	0.0	1.047281664E9	2676.16455078125	0.0	2.5731072E7	0.0	2.0	8.74160128E8	44.981781005859375	0.0	0.0	1.062285312E9	1.050107904E9	0.0	0.0	0.07925000041723251	0.054749999195337296	0.0494999997317791	0.9919999837875366	0.7389143705368042	0.0	244.0	371.0	0.0	0.0	0.0	0.0	0.0	0.0	null	null	null	null	null	null	null	null	340.0	334.0	335.0	334.0	334.0	337.0	338.0	336.0	337.0	336.0	335.0	
Sun Jun 04 01:11:00 UTC 2017	0.0	1.048293376E9	2676.16455078125	0.0	2.5731072E7	0.0	2.0	8.73947136E8	44.981781005859375	0.0	0.0	1.062285312E9	1.050107904E9	0.0	0.0	0.10074999928474426	0.04975000023841858	0.04650000110268593	0.9917500019073486	0.7389001846313477	0.0	244.0	371.0	0.0	0.0	0.0	0.0	0.0	0.0	null	null	null	null	null	null	null	null	332.0	334.0	333.0	334.0	335.0	333.0	333.0	332.0	332.0	338.0	333.0	
Sun Jun 04 01:10:00 UTC 2017	0.0	1.048293376E9	2659.46044921875	0.0	2.5731072E7	0.0	3.0	8.74299392E8	44.981781005859375	0.0	0.0	1.0612736E9	1.050107904E9	0.0	0.0	0.08049999922513962	0.05000000074505806	0.04625000059604645	0.9917500019073486	0.741170346736908	0.0	244.0	371.0	0.0	0.0	0.0	0.0	0.0	0.0	null	null	null	null	null	null	null	null	338.0	337.0	335.0	333.0	335.0	331.0	337.0	333.0	333.0	335.0	338.0	
Sun Jun 04 01:09:00 UTC 2017	0.0	1.047281664E9	2659.46044921875	0.0	2.5731072E7	0.0	2.0	8.73930752E8	44.981781005859375	0.0	0.0	1.0612736E9	1.050107904E9	0.0	0.0	0.0689999982714653	0.04625000059604645	0.04475000128149986	0.9922500252723694	0.741155207157135	0.0	244.0	371.0	0.0	0.0	0.0	0.0	0.0	0.0	null	null	null	null	null	null	null	null	336.0	331.0	332.0	338.0	337.0	338.0	335.0	338.0	333.0	334.0	334.0	
Sun Jun 04 01:08:00 UTC 2017	0.0	1.048293376E9	2659.46044921875	0.0	2.5731072E7	0.0	4.0	8.73930752E8	44.981781005859375	0.0	0.0	1.062285312E9	1.050107904E9	0.0	0.0	0.08224999904632568	0.05624999850988388	0.05050000175833702	0.9919999837875366	0.7388615012168884	0.0	244.0	371.0	0.0	0.0	0.0	0.0	0.0	0.0	null	null	null	null	null	null	null	null	338.0	333.0	336.0	334.0	333.0	332.0	335.0	333.0	334.0	337.0	334.0	
Sun Jun 04 01:07:00 UTC 2017	0.0	1.048293376E9	2551.310302734375	0.0	2.5731072E7	0.0	5.0	8.73930752E8	55.75691223144531	0.0	0.0	1.062285312E9	1.050107904E9	0.0	0.0	0.07124999910593033	0.05000000074505806	0.045499999076128006	0.9919999837875366	0.7388409376144409	0.0	244.0	371.0	0.0	0.0	0.0	0.0	0.0	0.0	null	null	null	null	null	null	null	null	331.0	338.0	333.0	331.0	335.0	339.0	333.0	337.0	335.0	331.0	333.0	
Sun Jun 04 01:06:00 UTC 2017	0.0	1.048293376E9	2774.842529296875	0.0	2.5731072E7	0.0	4.0	8.7371776E8	67.79042053222656	0.0	0.0	1.0612736E9	1.050107904E9	0.0	0.0	0.07625000178813934	0.05299999937415123	0.048500001430511475	0.9919999837875366	0.738822340965271	0.0	244.0	371.0	0.0	0.0	0.0	0.0	0.0	0.0	null	null	null	null	null	null	null	null	337.0	331.0	338.0	337.0	335.0	334.0	333.0	333.0	336.0	338.0	334.0	
Sun Jun 04 01:05:00 UTC 2017	0.0	1.048293376E9	2554.857421875	0.0	2.5731072E7	0.0	2.0	8.72759296E8	44.43991470336914	0.0	0.0	1.062285312E9	1.050107904E9	0.0	0.0	0.08049999922513962	0.04800000041723251	0.04749999940395355	0.9922500252723694	0.7388213872909546	0.0	244.0	371.0	0.0	0.0	0.0	0.0	0.0	0.0	null	null	null	null	null	null	null	null	335.0	334.0	335.0	335.0	336.0	334.0	337.0	335.0	338.0	330.0	335.0	
Sun Jun 04 01:04:00 UTC 2017	0.0	1.047281664E9	2554.857421875	0.0	2.5731072E7	0.0	2.0	8.72669184E8	44.43991470336914	0.0	0.0	1.062285312E9	1.050107904E9	0.0	0.0	0.07649999856948853	0.052000001072883606	0.051750000566244125	0.9917500019073486	0.7388062477111816	0.0	244.0	371.0	0.0	0.0	0.0	0.0	0.0	0.0	null	null	null	null	null	null	null	null	330.0	334.0	334.0	334.0	333.0	335.0	332.0	338.0	333.0	338.0	335.0	
Sun Jun 04 01:03:00 UTC 2017	1.0	1.048293376E9	2554.857421875	0.0	2.5731072E7	0.0	2.0	8.72669184E8	44.43991470336914	0.0	0.0	1.062285312E9	1.050107904E9	0.0	0.0	0.07074999809265137	0.048500001430511475	0.04600000008940697	0.9915000200271606	0.7388091683387756	0.0	244.0	371.0	0.0	0.0	0.0	0.0	0.0	0.0	null	null	null	null	null	null	null	null	335.0	332.0	333.0	333.0	332.0	332.0	334.0	329.0	334.0	331.0	337.0	
Sun Jun 04 01:02:00 UTC 2017	0.0	1.048293376E9	2281.068603515625	0.0	2.5731072E7	0.0	2.0	8.72669184E8	44.43991470336914	0.0	0.0	1.0612736E9	1.050107904E9	0.0	0.0	0.07100000232458115	0.05350000038743019	0.04975000023841858	0.9917500019073486	0.7387930154800415	0.0	244.0	371.0	0.0	0.0	0.0	0.0	0.0	0.0	null	null	null	null	null	null	null	null	333.0	336.0	337.0	338.0	333.0	332.0	336.0	339.0	334.0	333.0	335.0	
Sun Jun 04 01:01:00 UTC 2017	0.0	1.047281664E9	2281.068603515625	0.0	2.5731072E7	0.0	3.0	8.7298048E8	53.69862365722656	0.0	0.0	1.0612736E9	1.050107904E9	0.0	null	0.11375000327825546	0.04625000059604645	0.04500000178813934	0.9919999837875366	0.7387827038764954	0.0	244.0	371.0	0.0	0.0	0.0	0.0	0.0	0.0	null	null	null	null	null	null	null	null	334.0	336.0	334.0	333.0	336.0	335.0	336.0	330.0	336.0	337.0	333.0	
Sun Jun 04 01:00:00 UTC 2017	0.0	1.048293376E9	2281.068603515625	0.0	2.5731072E7	0.0	2.0	8.72546304E8	42.706119537353516	0.0	0.0	1.062285312E9	1.050107904E9	0.0	null	0.07349999994039536	0.048250000923871994	0.04475000128149986	0.9919999837875366	0.7387597560882568	0.0	244.0	371.0	0.0	0.0	0.0	0.0	0.0	0.0	null	null	null	null	null	null	null	null	334.0	336.0	339.0	333.0	332.0	335.0	336.0	335.0	333.0	337.0	339.0	
Sun Jun 04 00:59:00 UTC 2017	0.0	1.048293376E9	3206.89013671875	0.0	2.5731072E7	0.0	2.0	8.72456192E8	47.40861892700195	0.0	0.0	1.062285312E9	1.050107904E9	0.0	null	0.07524999976158142	0.05274999886751175	0.0507499985396862	0.9917500019073486	0.7410451173782349	0.0	244.0	371.0	0.0	0.0	0.0	0.0	0.0	0.0	null	null	null	null	null	null	null	null	334.0	332.0	332.0	336.0	336.0	336.0	330.0	337.0	336.0	330.0	335.0	
Sun Jun 04 00:58:00 UTC 2017	0.0	1.048293376E9	2789.39599609375	0.0	2.5731072E7	0.0	2.0	8.72456192E8	47.40861892700195	0.0	0.0	1.062285312E9	1.050107904E9	0.0	0.0	0.07275000214576721	0.048500001430511475	0.04724999889731407	0.9922500252723694	0.7387436032295227	0.0	244.0	371.0	0.0	0.0	0.0	0.0	0.0	0.0	null	null	null	null	null	null	null	null	335.0	337.0	335.0	334.0	336.0	332.0	336.0	336.0	335.0	334.0	333.0	
Sun Jun 04 00:57:00 UTC 2017	0.0	1.048293376E9	2377.77734375	0.0	2.5731072E7	0.0	3.0	8.72456192E8	41.87516403198242	0.0	0.0	1.0612736E9	1.050107904E9	0.0	0.0	0.07249999791383743	0.051500000059604645	0.04774999991059303	0.9922500252723694	0.7392724752426147	0.0	244.0	371.0	0.0	0.0	0.0	0.0	0.0	0.0	null	null	null	null	null	null	null	null	335.0	330.0	337.0	335.0	334.0	334.0	337.0	333.0	334.0	334.0	333.0	
Sun Jun 04 00:56:00 UTC 2017	0.0	1.047281664E9	2377.77734375	0.0	2.5731072E7	0.0	2.0	8.72247296E8	41.87516403198242	0.0	0.0	1.062285312E9	1.050107904E9	0.0	0.0	0.0767500028014183	0.05624999850988388	0.04574999958276749	0.9922500252723694	0.738722562789917	0.0	244.0	371.0	0.0	0.0	0.0	0.0	0.0	0.0	null	null	null	null	null	null	null	null	334.0	335.0	337.0	335.0	332.0	337.0	334.0	333.0	335.0	336.0	338.0	
Sun Jun 04 00:55:00 UTC 2017	0.0	1.047281664E9	3323.370361328125	0.0	2.5731072E7	0.0	2.0	8.72337408E8	41.87516403198242	0.0	0.0	1.0612736E9	1.050107904E9	0.0	0.0	0.06975000351667404	0.04600000008940697	0.04899999871850014	0.9922500252723694	0.7387034893035889	0.0	244.0	371.0	0.0	0.0	0.0	0.0	0.0	0.0	null	null	null	null	null	null	null	null	334.0	335.0	337.0	334.0	336.0	332.0	335.0	337.0	332.0	332.0	332.0	
Sun Jun 04 00:54:00 UTC 2017	0.0	1.047281664E9	2624.194580078125	0.0	2.5731072E7	0.0	4.0	8.72247296E8	41.87516403198242	0.0	0.0	1.062285312E9	1.050107904E9	0.0	0.0	0.08399999886751175	0.05299999937415123	0.05025000125169754	0.9919999837875366	0.739605188369751	0.0	244.0	371.0	0.0	0.0	0.0	0.0	0.0	0.0	null	null	null	null	null	null	null	null	334.0	336.0	334.0	335.0	332.0	336.0	335.0	332.0	337.0	335.0	334.0	
Sun Jun 04 00:53:00 UTC 2017	0.0	1.048293376E9	2624.194580078125	0.0	2.5731072E7	0.0	2.0	8.72247296E8	41.87516403198242	1.0	2.0	1.0612736E9	1.050107904E9	0.0	0.0	0.07050000131130219	0.051750000566244125	0.04050000011920929	0.9919999837875366	0.7386878132820129	0.0	244.0	371.0	0.0	0.0	0.0	0.0	0.0	0.0	null	null	null	null	null	null	null	null	335.0	336.0	333.0	336.0	337.0	333.0	334.0	335.0	329.0	334.0	334.0	
Sun Jun 04 00:52:00 UTC 2017	0.0	1.048293376E9	2706.93212890625	0.0	2.5731072E7	0.0	3.0	8.72247296E8	48.348045349121094	0.0	0.0	1.0612736E9	1.050107904E9	0.0	null	0.07649999856948853	0.05025000125169754	0.05025000125169754	0.9922500252723694	0.7386711835861206	0.0	244.0	371.0	0.0	0.0	0.0	0.0	0.0	0.0	null	null	null	null	null	null	null	null	333.0	330.0	338.0	334.0	332.0	337.0	334.0	334.0	336.0	337.0	334.0	
Sun Jun 04 00:51:00 UTC 2017	0.0	1.047281664E9	2706.93212890625	0.0	2.5731072E7	0.0	2.0	8.72034304E8	54.20248794555664	0.0	0.0	1.062285312E9	1.050107904E9	0.0	null	0.10350000113248825	0.04975000023841858	0.0442500002682209	0.9919999837875366	0.7386574745178223	0.0	244.0	371.0	0.0	0.0	0.0	0.0	0.0	0.0	null	null	null	null	null	null	null	null	335.0	334.0	331.0	336.0	335.0	333.0	335.0	335.0	332.0	337.0	335.0	
Sun Jun 04 00:50:00 UTC 2017	0.0	1.047281664E9	2800.12255859375	0.0	2.5731072E7	0.0	2.0	8.72124416E8	33.10086441040039	0.0	0.0	1.062285312E9	1.050107904E9	0.0	0.0	0.07325000315904617	0.05000000074505806	0.04800000041723251	0.9919999837875366	0.7386486530303955	0.0	244.0	371.0	0.0	0.0	0.0	0.0	0.0	0.0	null	null	null	null	null	null	null	null	333.0	337.0	336.0	331.0	335.0	334.0	336.0	338.0	335.0	330.0	335.0	
Sun Jun 04 00:49:00 UTC 2017	0.0	1.047281664E9	2754.200927734375	0.0	2.5731072E7	0.0	2.0	8.72034304E8	47.0721549987793	0.0	0.0	1.062285312E9	1.050107904E9	0.0	0.0	0.08124999701976776	0.05299999937415123	0.05050000175833702	0.9919999837875366	0.7392299175262451	0.0	244.0	371.0	0.0	0.0	0.0	0.0	0.0	0.0	null	null	null	null	null	null	null	null	336.0	332.0	334.0	336.0	333.0	338.0	334.0	330.0	338.0	335.0	335.0	
Sun Jun 04 00:48:00 UTC 2017	0.0	1.048293376E9	2754.200927734375	0.0	2.5731072E7	0.0	7.0	8.72034304E8	47.0721549987793	0.0	0.0	1.062285312E9	1.050107904E9	0.0	0.0	0.07774999737739563	0.05225000157952309	0.05000000074505806	0.9922500252723694	0.7386912107467651	0.0	244.0	371.0	0.0	0.0	0.0	0.0	0.0	0.0	null	null	null	null	null	null	null	null	334.0	333.0	335.0	334.0	335.0	333.0	335.0	335.0	332.0	336.0	334.0	
Sun Jun 04 00:47:00 UTC 2017	0.0	1.048293376E9	2448.889404296875	0.0	2.5731072E7	0.0	2.0	8.72034304E8	47.0721549987793	0.0	0.0	1.0612736E9	1.050107904E9	0.0	0.0	0.07124999910593033	0.04699999839067459	0.04625000059604645	0.9917500019073486	0.7386878132820129	0.0	244.0	371.0	0.0	0.0	0.0	0.0	0.0	0.0	null	null	null	null	null	null	null	null	335.0	335.0	336.0	333.0	334.0	334.0	335.0	336.0	336.0	335.0	335.0	
Sun Jun 04 00:46:00 UTC 2017	0.0	1.047281664E9	2448.889404296875	0.0	2.5731072E7	0.0	2.0	8.71821312E8	44.14807891845703	0.0	0.0	1.062285312E9	1.050107904E9	0.0	0.0	0.06575000286102295	0.051500000059604645	0.05050000175833702	0.9919999837875366	0.7385987639427185	0.0	244.0	371.0	0.0	0.0	0.0	0.0	0.0	0.0	null	null	null	null	null	null	null	null	333.0	337.0	333.0	337.0	335.0	335.0	334.0	333.0	335.0	334.0	335.0	
Sun Jun 04 00:45:00 UTC 2017	0.0	1.048293376E9	2448.889404296875	0.0	2.5731072E7	0.0	2.0	8.71911424E8	41.27806854248047	0.0	0.0	1.062285312E9	1.050107904E9	0.0	null	0.07625000178813934	0.05025000125169754	0.04874999821186066	0.9922500252723694	0.7385830879211426	0.0	244.0	371.0	0.0	0.0	0.0	0.0	0.0	0.0	null	null	null	null	null	null	null	null	333.0	332.0	334.0	331.0	335.0	338.0	336.0	335.0	333.0	337.0	335.0	
Sun Jun 04 00:44:00 UTC 2017	0.0	1.047281664E9	2448.889404296875	0.0	2.5731072E7	0.0	2.0	8.71821312E8	41.27806854248047	0.0	0.0	1.0612736E9	1.050107904E9	0.0	null	0.08224999904632568	0.04625000059604645	0.04749999940395355	0.9919999837875366	0.738578200340271	0.0	244.0	371.0	0.0	0.0	0.0	0.0	0.0	0.0	null	null	null	null	null	null	null	null	339.0	337.0	336.0	338.0	337.0	332.0	331.0	338.0	336.0	333.0	334.0	
Sun Jun 04 00:43:00 UTC 2017	0.0	1.048293376E9	2448.889404296875	0.0	2.5731072E7	0.0	4.0	8.71821312E8	41.27806854248047	0.0	0.0	1.0612736E9	1.050107904E9	0.0	0.0	0.07874999940395355	0.05025000125169754	0.04349999874830246	0.9922500252723694	0.7385610938072205	0.0	244.0	371.0	0.0	0.0	0.0	0.0	0.0	0.0	null	null	null	null	null	null	null	null	334.0	334.0	332.0	335.0	332.0	335.0	334.0	332.0	336.0	337.0	335.0	
Sun Jun 04 00:42:00 UTC 2017	0.0	1.047281664E9	2448.889404296875	0.0	2.5731072E7	0.0	2.0	8.71821312E8	41.27806854248047	0.0	0.0	1.062285312E9	1.050107904E9	0.0	0.0	0.06300000101327896	0.05050000175833702	0.04800000041723251	0.9917500019073486	0.7385439872741699	0.0	244.0	371.0	0.0	0.0	0.0	0.0	0.0	0.0	null	null	null	null	null	null	null	null	333.0	333.0	337.0	335.0	332.0	333.0	336.0	336.0	332.0	331.0	335.0	
Sun Jun 04 00:41:00 UTC 2017	0.0	1.048293376E9	2448.889404296875	0.0	2.5731072E7	0.0	2.0	8.71702528E8	36.44541931152344	0.0	0.0	1.0612736E9	1.050107904E9	0.0	0.0	0.10374999791383743	0.05925000086426735	0.0494999997317791	0.9917500019073486	0.7385214567184448	0.0	244.0	371.0	0.0	0.0	0.0	0.0	0.0	0.0	null	null	null	null	null	null	null	null	334.0	335.0	334.0	332.0	333.0	337.0	334.0	336.0	336.0	337.0	334.0	
Sun Jun 04 00:40:00 UTC 2017	0.0	1.048293376E9	3077.468017578125	0.0	2.5731072E7	0.0	2.0	8.71702528E8	36.44541931152344	0.0	1.0	1.0612736E9	1.050107904E9	0.0	0.0	0.07450000196695328	0.050999999046325684	0.045249998569488525	0.9919999837875366	0.7384974956512451	0.0	244.0	371.0	0.0	0.0	0.0	0.0	0.0	0.0	null	null	null	null	null	null	null	null	336.0	331.0	332.0	337.0	337.0	334.0	333.0	332.0	335.0	333.0	335.0	
Sun Jun 04 00:39:00 UTC 2017	0.0	1.048293376E9	2284.9521484375	0.0	2.5731072E7	0.0	2.0	8.7160832E8	36.44541931152344	0.0	1.0	1.0612736E9	1.050107904E9	0.0	null	0.06825000047683716	0.04975000023841858	0.04724999889731407	0.9915000200271606	0.7407613396644592	0.0	244.0	371.0	0.0	0.0	0.0	0.0	0.0	0.0	null	null	null	null	null	null	null	null	335.0	336.0	336.0	332.0	335.0	334.0	334.0	334.0	334.0	339.0	333.0	
Sun Jun 04 00:38:00 UTC 2017	0.0	1.047281664E9	2284.9521484375	0.0	2.5731072E7	0.0	2.0	8.7160832E8	36.44541931152344	0.0	0.0	1.0612736E9	1.050107904E9	0.0	null	0.08250000327825546	0.04650000110268593	0.050999999046325684	0.9919999837875366	0.7384593486785889	0.0	244.0	371.0	0.0	0.0	0.0	0.0	0.0	0.0	null	null	null	null	null	null	null	null	335.0	332.0	333.0	335.0	334.0	335.0	338.0	339.0	333.0	332.0	333.0	
Sun Jun 04 00:37:00 UTC 2017	0.0	1.048293376E9	2284.9521484375	0.0	2.5731072E7	0.0	4.0	8.7160832E8	63.751834869384766	0.0	0.0	1.0612736E9	1.050107904E9	0.0	0.0	0.0702499970793724	0.0560000017285347	0.04625000059604645	0.9919999837875366	0.738484263420105	0.0	244.0	371.0	0.0	0.0	0.0	0.0	0.0	0.0	null	null	null	null	null	null	null	null	334.0	334.0	335.0	332.0	334.0	333.0	331.0	332.0	335.0	338.0	334.0	
Sun Jun 04 00:36:00 UTC 2017	1.0	1.048293376E9	3438.605224609375	0.0	2.5731072E7	0.0	4.0	8.7185408E8	51.748477935791016	0.0	0.0	1.0612736E9	1.050107904E9	0.0	0.0	0.07124999910593033	0.04724999889731407	0.04975000023841858	0.9919999837875366	0.740770161151886	0.0	244.0	371.0	0.0	0.0	0.0	0.0	0.0	0.0	null	null	null	null	null	null	null	null	336.0	338.0	334.0	336.0	335.0	331.0	334.0	334.0	336.0	334.0	336.0	
Sun Jun 04 00:35:00 UTC 2017	0.0	1.048293376E9	2699.476318359375	0.0	2.5731072E7	0.0	2.0	8.7148544E8	51.748477935791016	0.0	0.0	1.0612736E9	1.050107904E9	0.0	0.0	0.07199999690055847	0.05324999988079071	0.04574999958276749	0.9922500252723694	0.739025890827179	0.0	244.0	371.0	0.0	0.0	0.0	0.0	0.0	0.0	null	null	null	null	null	null	null	null	334.0	335.0	331.0	331.0	338.0	339.0	338.0	340.0	335.0	335.0	332.0	
Sun Jun 04 00:34:00 UTC 2017	0.0	1.048293376E9	2678.17431640625	0.0	2.5731072E7	0.0	2.0	8.71395328E8	51.748477935791016	0.0	0.0	1.062285312E9	1.050107904E9	0.0	0.0	0.08550000190734863	0.04625000059604645	0.04675000160932541	0.9919999837875366	0.7401707768440247	0.0	244.0	371.0	0.0	0.0	0.0	0.0	0.0	0.0	null	null	null	null	null	null	null	null	332.0	334.0	338.0	336.0	335.0	334.0	335.0	336.0	333.0	334.0	334.0	
Sun Jun 04 00:33:00 UTC 2017	0.0	1.047281664E9	2678.17431640625	0.0	2.5731072E7	0.0	4.0	8.71395328E8	51.748477935791016	0.0	0.0	1.0612736E9	1.050107904E9	0.0	0.0	0.07400000095367432	0.05225000157952309	0.05050000175833702	0.9919999837875366	0.7384558916091919	0.0	244.0	371.0	0.0	0.0	0.0	0.0	0.0	0.0	null	null	null	null	null	null	null	null	336.0	334.0	335.0	331.0	332.0	333.0	333.0	332.0	333.0	334.0	331.0	
Sun Jun 04 00:32:00 UTC 2017	0.0	1.047281664E9	2780.505859375	0.0	2.5731072E7	0.0	2.0	8.71395328E8	51.748477935791016	0.0	0.0	1.062285312E9	1.050107904E9	0.0	0.0	0.07175000011920929	0.04975000023841858	0.04475000128149986	0.9922500252723694	0.7384348511695862	0.0	244.0	371.0	0.0	0.0	0.0	0.0	0.0	0.0	null	null	null	null	null	null	null	null	338.0	336.0	332.0	338.0	338.0	336.0	335.0	337.0	337.0	335.0	333.0	
Sun Jun 04 00:31:00 UTC 2017	0.0	1.047281664E9	2729.95703125	0.0	2.5731072E7	0.0	2.0	8.71272448E8	72.12840270996094	0.0	0.0	1.062285312E9	1.050107904E9	0.0	0.0	0.10374999791383743	0.05400000140070915	0.048500001430511475	0.9919999837875366	0.7384216785430908	0.0	244.0	371.0	0.0	0.0	0.0	0.0	0.0	0.0	null	null	null	null	null	null	null	null	335.0	331.0	337.0	333.0	333.0	334.0	333.0	334.0	332.0	335.0	337.0	
Sun Jun 04 00:30:00 UTC 2017	0.0	1.047281664E9	2744.66162109375	0.0	2.5731072E7	0.0	2.0	8.71272448E8	72.12840270996094	0.0	0.0	1.0612736E9	1.050107904E9	0.0	0.0	0.07325000315904617	0.052000001072883606	0.04650000110268593	0.9919999837875366	0.7383967041969299	0.0	244.0	371.0	0.0	0.0	0.0	0.0	0.0	0.0	null	null	null	null	null	null	null	null	334.0	337.0	331.0	333.0	333.0	333.0	338.0	337.0	339.0	333.0	334.0	
Sun Jun 04 00:29:00 UTC 2017	0.0	1.047281664E9	2393.91357421875	0.0	2.5731072E7	0.0	3.0	8.71182336E8	51.190956115722656	0.0	0.0	1.062285312E9	1.050107904E9	0.0	0.0	0.0754999965429306	0.052000001072883606	0.04874999821186066	0.9919999837875366	0.7383967041969299	0.0	244.0	371.0	0.0	0.0	0.0	0.0	0.0	0.0	null	null	null	null	null	null	null	null	333.0	331.0	334.0	335.0	337.0	337.0	334.0	332.0	334.0	333.0	335.0	
Sun Jun 04 00:28:00 UTC 2017	0.0	1.047281664E9	3224.1181640625	0.0	2.5731072E7	0.0	2.0	8.71182336E8	51.190956115722656	0.0	0.0	1.062285312E9	1.050107904E9	0.0	0.0	0.06549999862909317	0.0442500002682209	0.0494999997317791	0.9917500019073486	0.7383785843849182	0.0	244.0	371.0	0.0	0.0	0.0	0.0	0.0	0.0	null	null	null	null	null	null	null	null	334.0	338.0	336.0	332.0	335.0	334.0	338.0	337.0	334.0	334.0	333.0	
Sun Jun 04 00:27:00 UTC 2017	0.0	1.047281664E9	3161.9619140625	0.0	2.5731072E7	0.0	3.0	8.71182336E8	56.81848907470703	0.0	0.0	1.062285312E9	1.050107904E9	0.0	0.0	0.0820000022649765	0.05299999937415123	0.04574999958276749	0.9917500019073486	0.7406473159790039	0.0	244.0	371.0	0.0	0.0	0.0	0.0	0.0	0.0	null	null	null	null	null	null	null	null	333.0	333.0	337.0	333.0	332.0	333.0	333.0	332.0	337.0	333.0	331.0	
Sun Jun 04 00:26:00 UTC 2017	1.0	1.048293376E9	3161.9619140625	0.0	2.5731072E7	0.0	5.0	8.71120896E8	56.81848907470703	0.0	0.0	1.062285312E9	1.050107904E9	0.0	0.0	0.0689999982714653	0.051750000566244125	0.04800000041723251	0.9919999837875366	0.7383565902709961	0.0	244.0	371.0	0.0	0.0	0.0	0.0	0.0	0.0	null	null	null	null	null	null	null	null	334.0	334.0	333.0	336.0	338.0	337.0	338.0	335.0	336.0	334.0	339.0	
Sun Jun 04 00:25:00 UTC 2017	0.0	1.048293376E9	2347.217041015625	0.0	2.5731072E7	0.0	2.0	8.7105536E8	37.82311248779297	0.0	0.0	1.0612736E9	1.050107904E9	0.0	0.0	0.07175000011920929	0.05025000125169754	0.04650000110268593	0.9919999837875366	0.7383419275283813	0.0	244.0	371.0	0.0	0.0	0.0	0.0	0.0	0.0	null	null	null	null	null	null	null	null	334.0	333.0	338.0	334.0	335.0	334.0	332.0	331.0	332.0	335.0	334.0	
Sun Jun 04 00:24:00 UTC 2017	0.0	1.048293376E9	2982.77587890625	0.0	2.5731072E7	0.0	2.0	8.70965248E8	37.82311248779297	0.0	0.0	1.0612736E9	1.050107904E9	0.0	0.0	0.07925000041723251	0.05375000089406967	0.051249999552965164	0.9917500019073486	0.7383032441139221	0.0	244.0	371.0	0.0	0.0	0.0	0.0	0.0	0.0	null	null	null	null	null	null	null	null	333.0	334.0	335.0	337.0	332.0	331.0	333.0	335.0	334.0	336.0	335.0	
Sun Jun 04 00:23:00 UTC 2017	0.0	1.047281664E9	2982.77587890625	0.0	2.5731072E7	0.0	2.0	8.70965248E8	37.82311248779297	0.0	0.0	1.0612736E9	1.050107904E9	0.0	0.0	0.07524999976158142	0.04675000160932541	0.04724999889731407	0.9919999837875366	0.7382733821868896	0.0	244.0	371.0	0.0	0.0	0.0	0.0	0.0	0.0	null	null	null	null	null	null	null	null	336.0	335.0	332.0	330.0	336.0	333.0	340.0	334.0	336.0	332.0	331.0	
Sun Jun 04 00:22:00 UTC 2017	0.0	1.048293376E9	2982.77587890625	0.0	2.5731072E7	0.0	3.0	8.70965248E8	37.82311248779297	0.0	0.0	1.0612736E9	1.050107904E9	0.0	0.0	0.08100000023841858	0.051249999552965164	0.04399999976158142	0.9917500019073486	0.7404452562332153	0.0	244.0	371.0	0.0	0.0	0.0	0.0	0.0	0.0	null	null	null	null	null	null	null	null	332.0	334.0	337.0	337.0	337.0	336.0	331.0	334.0	337.0	336.0	334.0	
Sun Jun 04 00:21:00 UTC 2017	0.0	1.048293376E9	2408.906005859375	0.0	2.5731072E7	0.0	6.0	8.70739968E8	37.82311248779297	1.0	1.0	1.062285312E9	1.050107904E9	0.0	0.0	0.08574999868869781	0.05649999901652336	0.048500001430511475	0.9917500019073486	0.7389510273933411	0.0	244.0	371.0	0.0	0.0	0.0	0.0	0.0	0.0	null	null	null	null	null	null	null	null	335.0	334.0	335.0	333.0	331.0	332.0	337.0	332.0	334.0	330.0	335.0	
Sun Jun 04 00:20:00 UTC 2017	0.0	1.047281664E9	2408.906005859375	0.0	2.5731072E7	0.0	5.0	8.7083008E8	37.70903778076172	1.0	0.0	1.0612736E9	1.050107904E9	0.0	0.0	0.07649999856948853	0.04450000077486038	0.05299999937415123	0.9919999837875366	0.7394912242889404	0.0	244.0	371.0	0.0	0.0	0.0	0.0	0.0	0.0	null	null	null	null	null	null	null	null	331.0	336.0	334.0	338.0	337.0	336.0	331.0	337.0	335.0	338.0	335.0	
Sun Jun 04 00:19:00 UTC 2017	0.0	1.048293376E9	2408.906005859375	0.0	2.5731072E7	0.0	2.0	8.70739968E8	37.70903778076172	0.0	0.0	1.0612736E9	1.050107904E9	0.0	null	0.07724999636411667	0.054249998182058334	0.04324999824166298	0.9919999837875366	0.738131046295166	0.0	244.0	371.0	0.0	0.0	0.0	0.0	0.0	0.0	null	null	null	null	null	null	null	null	335.0	334.0	335.0	334.0	333.0	333.0	336.0	333.0	334.0	331.0	337.0	
Sun Jun 04 00:18:00 UTC 2017	0.0	1.048293376E9	2662.527099609375	0.0	2.5731072E7	0.0	2.0	8.70739968E8	37.70903778076172	0.0	0.0	1.062285312E9	1.050107904E9	0.0	null	0.07275000214576721	0.04574999958276749	0.052000001072883606	0.9919999837875366	0.7381241917610168	0.0	244.0	371.0	0.0	0.0	0.0	0.0	0.0	0.0	null	null	null	null	null	null	null	null	336.0	337.0	334.0	337.0	336.0	336.0	332.0	334.0	334.0	335.0	334.0	
Sun Jun 04 00:17:00 UTC 2017	0.0	1.048293376E9	3016.062744140625	0.0	2.5731072E7	0.0	2.0	8.70739968E8	37.70903778076172	0.0	0.0	1.062285312E9	1.050107904E9	0.0	null	0.07575000077486038	0.05050000175833702	0.04324999824166298	0.9922500252723694	0.7400636672973633	0.0	244.0	371.0	0.0	0.0	0.0	0.0	0.0	0.0	null	null	null	null	null	null	null	null	334.0	333.0	335.0	333.0	334.0	331.0	338.0	337.0	334.0	334.0	335.0	
Sun Jun 04 00:16:00 UTC 2017	0.0	1.047281664E9	3016.062744140625	0.0	2.5731072E7	0.0	2.0	8.70526976E8	37.70903778076172	0.0	0.0	1.062285312E9	1.050107904E9	0.0	0.0	0.08449999988079071	0.048500001430511475	0.05274999886751175	0.9922500252723694	0.7380752563476562	0.0	244.0	371.0	0.0	0.0	0.0	0.0	0.0	0.0	null	null	null	null	null	null	null	null	335.0	334.0	336.0	334.0	333.0	334.0	334.0	335.0	335.0	336.0	335.0	
Sun Jun 04 00:15:00 UTC 2017	0.0	1.048293376E9	3016.062744140625	0.0	2.5731072E7	0.0	2.0	8.70617088E8	37.70903778076172	0.0	0.0	1.0612736E9	1.050107904E9	0.0	0.0	0.07000000029802322	0.05324999988079071	0.0430000014603138	0.9919999837875366	0.7381833791732788	0.0	244.0	371.0	0.0	0.0	0.0	0.0	0.0	0.0	null	null	null	null	null	null	null	null	333.0	336.0	335.0	336.0	331.0	335.0	333.0	335.0	335.0	334.0	335.0	
Sun Jun 04 00:14:00 UTC 2017	0.0	1.047281664E9	3016.062744140625	0.0	2.5731072E7	0.0	4.0	8.70526976E8	54.91543197631836	0.0	0.0	1.0612736E9	1.050107904E9	0.0	0.0	0.07349999994039536	0.04774999991059303	0.05274999886751175	0.9925000071525574	0.7381584048271179	0.0	244.0	371.0	0.0	0.0	0.0	0.0	0.0	0.0	null	null	null	null	null	null	null	null	335.0	331.0	329.0	332.0	336.0	336.0	336.0	333.0	336.0	335.0	336.0	
Sun Jun 04 00:13:00 UTC 2017	0.0	1.047281664E9	2578.283203125	0.0	2.5731072E7	0.0	5.0	8.68425728E8	37.163047790527344	0.0	0.0	1.0612736E9	1.050107904E9	0.0	0.0	0.0689999982714653	0.05000000074505806	0.04374999925494194	0.9919999837875366	0.7381579279899597	0.0	244.0	371.0	0.0	0.0	0.0	0.0	0.0	0.0	null	null	null	null	null	null	null	null	336.0	331.0	335.0	337.0	332.0	330.0	336.0	334.0	335.0	336.0	331.0	
Sun Jun 04 00:12:00 UTC 2017	0.0	1.047281664E9	3442.424560546875	0.0	2.5731072E7	0.0	4.0	8.68425728E8	37.163047790527344	0.0	0.0	1.0612736E9	1.050107904E9	0.0	0.0	0.07474999874830246	0.04975000023841858	0.048500001430511475	0.9917500019073486	0.7381379008293152	0.0	244.0	371.0	0.0	0.0	0.0	0.0	0.0	0.0	null	null	null	null	null	null	null	null	335.0	336.0	336.0	335.0	334.0	333.0	332.0	335.0	331.0	334.0	335.0	
Sun Jun 04 00:11:00 UTC 2017	0.0	1.048293376E9	3442.424560546875	0.0	2.5731072E7	0.0	4.0	8.68425728E8	37.163047790527344	0.0	0.0	1.0612736E9	1.050107904E9	0.0	null	0.10750000178813934	0.05350000038743019	0.048250000923871994	0.9919999837875366	0.7381862998008728	0.0	244.0	371.0	0.0	0.0	0.0	0.0	0.0	0.0	null	null	null	null	null	null	null	null	335.0	337.0	332.0	330.0	335.0	336.0	334.0	336.0	333.0	334.0	333.0	
Sun Jun 04 00:10:00 UTC 2017	0.0	1.047281664E9	3442.424560546875	0.0	2.5731072E7	0.0	3.0	8.68564992E8	96.91590881347656	0.0	0.0	1.0612736E9	1.050107904E9	0.0	0.0	0.08174999803304672	0.05249999836087227	0.05025000125169754	0.9919999837875366	0.7404154539108276	0.0	244.0	371.0	0.0	0.0	0.0	0.0	0.0	0.0	null	null	null	null	null	null	null	null	335.0	335.0	336.0	336.0	334.0	334.0	337.0	336.0	336.0	337.0	337.0	
Sun Jun 04 00:09:00 UTC 2017	0.0	1.048293376E9	3442.424560546875	0.0	2.5731072E7	0.0	4.0	8.68057088E8	58.22124099731445	0.0	0.0	1.0612736E9	1.050107904E9	0.0	0.0	0.0702499970793724	0.04574999958276749	0.048500001430511475	0.9919999837875366	0.7380762100219727	0.0	244.0	371.0	0.0	0.0	0.0	0.0	0.0	0.0	null	null	null	null	null	null	null	null	334.0	331.0	337.0	333.0	335.0	335.0	334.0	330.0	334.0	334.0	334.0	
Sun Jun 04 00:08:00 UTC 2017	0.0	1.048293376E9	3015.83740234375	0.0	2.5731072E7	0.0	4.0	8.68057088E8	49.45639419555664	0.0	0.0	1.062285312E9	1.050107904E9	0.0	0.0	0.07824999839067459	0.054499998688697815	0.04475000128149986	0.9919999837875366	0.7380272746086121	0.0	244.0	371.0	0.0	0.0	0.0	0.0	0.0	0.0	null	null	null	null	null	null	null	null	333.0	335.0	330.0	335.0	334.0	332.0	336.0	334.0	333.0	333.0	335.0	
Sun Jun 04 00:07:00 UTC 2017	0.0	1.047281664E9	3015.83740234375	0.0	2.5731072E7	0.0	4.0	8.68057088E8	49.45639419555664	0.0	0.0	1.062285312E9	1.050107904E9	0.0	0.0	0.07199999690055847	0.048500001430511475	0.04724999889731407	0.9919999837875366	0.7380121350288391	0.0	244.0	371.0	0.0	0.0	0.0	0.0	0.0	0.0	null	null	null	null	null	null	null	null	337.0	334.0	338.0	336.0	336.0	336.0	334.0	337.0	336.0	333.0	336.0	
Sun Jun 04 00:06:00 UTC 2017	0.0	1.048293376E9	3015.83740234375	0.0	2.5731072E7	0.0	3.0	8.67848192E8	45.28468704223633	0.0	0.0	1.062285312E9	1.050107904E9	0.0	0.0	0.07050000131130219	0.048500001430511475	0.05000000074505806	0.9922500252723694	0.737995982170105	0.0	244.0	371.0	0.0	0.0	0.0	0.0	0.0	0.0	null	null	null	null	null	null	null	null	337.0	336.0	329.0	336.0	332.0	334.0	336.0	332.0	335.0	338.0	332.0	
Sun Jun 04 00:05:00 UTC 2017	0.0	1.047281664E9	3015.83740234375	0.0	2.5731072E7	0.0	2.0	8.67938304E8	45.28468704223633	1.0	1.0	1.0612736E9	1.050107904E9	0.0	0.0	0.07850000262260437	0.05700000002980232	0.04800000041723251	0.9922500252723694	0.7379920482635498	0.0	244.0	371.0	0.0	0.0	0.0	0.0	0.0	0.0	null	null	null	null	null	null	null	null	334.0	336.0	337.0	331.0	337.0	332.0	336.0	334.0	336.0	338.0	336.0	
Sun Jun 04 00:04:00 UTC 2017	0.0	1.047281664E9	3161.005615234375	0.0	2.5731072E7	0.0	2.0	8.67848192E8	45.28468704223633	0.0	1.0	1.062285312E9	1.050107904E9	0.0	0.0	0.0677499994635582	0.04924999922513962	0.04924999922513962	0.9922500252723694	0.7379436492919922	0.0	244.0	371.0	0.0	0.0	0.0	0.0	0.0	0.0	null	null	null	null	null	null	null	null	337.0	333.0	331.0	337.0	336.0	336.0	333.0	334.0	334.0	336.0	334.0	
Sun Jun 04 00:03:00 UTC 2017	0.0	1.048293376E9	3161.005615234375	0.0	2.5731072E7	0.0	4.0	8.67848192E8	53.005821228027344	0.0	0.0	1.0612736E9	1.050107904E9	0.0	0.0	0.07850000262260437	0.05299999937415123	0.04399999976158142	0.9922500252723694	0.7378800511360168	0.0	244.0	371.0	0.0	0.0	0.0	0.0	0.0	0.0	null	null	null	null	null	null	null	null	331.0	332.0	333.0	337.0	331.0	336.0	334.0	335.0	340.0	335.0	336.0	
Sun Jun 04 00:02:00 UTC 2017	0.0	1.047281664E9	3161.005615234375	0.0	2.5731072E7	0.0	4.0	8.67848192E8	53.79874801635742	0.0	0.0	1.0612736E9	1.050107904E9	0.0	0.0	0.0794999971985817	0.054999999701976776	0.04800000041723251	0.9919999837875366	0.7400156855583191	0.0	244.0	371.0	0.0	0.0	0.0	0.0	0.0	0.0	null	null	null	null	null	null	null	null	338.0	333.0	337.0	336.0	336.0	332.0	333.0	336.0	336.0	332.0	335.0	
Sun Jun 04 00:01:00 UTC 2017	0.0	1.047281664E9	2326.225341796875	0.0	2.5731072E7	0.0	2.0	8.6667264E8	53.79874801635742	0.0	0.0	1.0612736E9	1.050107904E9	0.0	0.0	0.09425000101327896	0.05025000125169754	0.048250000923871994	0.9919999837875366	0.740131139755249	0.0	244.0	371.0	0.0	0.0	0.0	0.0	0.0	0.0	null	null	null	null	null	null	null	null	335.0	334.0	335.0	332.0	335.0	334.0	336.0	333.0	333.0	334.0	333.0	
Sun Jun 04 00:00:00 UTC 2017	0.0	1.047281664E9	3213.557861328125	0.0	2.5731072E7	0.0	2.0	8.6667264E8	53.79874801635742	0.0	0.0	1.0612736E9	1.050107904E9	0.0	null	0.07325000315904617	0.04800000041723251	0.04475000128149986	0.9922500252723694	0.7378232479095459	0.0	244.0	371.0	0.0	0.0	0.0	0.0	0.0	0.0	null	null	null	null	null	null	null	null	334.0	333.0	331.0	338.0	335.0	338.0	335.0	332.0	336.0	338.0	333.0	
Sat Jun 03 23:59:00 UTC 2017	0.0	1.048293376E9	3213.557861328125	0.0	2.5731072E7	0.0	2.0	8.66582528E8	44.12637710571289	0.0	0.0	1.062285312E9	1.050107904E9	0.0	null	0.07450000196695328	0.051249999552965164	0.048500001430511475	0.9922500252723694	0.7378242611885071	0.0	244.0	371.0	0.0	0.0	0.0	0.0	0.0	0.0	null	null	null	null	null	null	null	null	335.0	339.0	337.0	335.0	333.0	333.0	333.0	335.0	335.0	335.0	337.0	
Sat Jun 03 23:58:00 UTC 2017	0.0	1.048293376E9	2342.454833984375	0.0	2.5731072E7	0.0	3.0	8.66582528E8	33.20740509033203	0.0	0.0	1.0612736E9	1.050107904E9	0.0	null	0.08275000005960464	0.048250000923871994	0.05025000125169754	0.9922500252723694	0.7378061413764954	0.0	244.0	371.0	0.0	0.0	0.0	0.0	0.0	0.0	null	null	null	null	null	null	null	null	331.0	335.0	335.0	332.0	333.0	337.0	338.0	336.0	335.0	332.0	337.0	
Sat Jun 03 23:57:00 UTC 2017	0.0	1.047281664E9	2342.454833984375	0.0	2.5731072E7	0.0	2.0	8.66582528E8	33.20740509033203	0.0	0.0	1.062285312E9	1.050107904E9	0.0	null	0.06849999725818634	0.051249999552965164	0.04450000077486038	0.9922500252723694	0.7383506894111633	0.0	244.0	371.0	0.0	0.0	0.0	0.0	0.0	0.0	null	null	null	null	null	null	null	null	336.0	334.0	335.0	337.0	337.0	333.0	330.0	336.0	335.0	333.0	334.0	
Sat Jun 03 23:56:00 UTC 2017	0.0	1.047281664E9	3042.779052734375	0.0	2.5731072E7	0.0	2.0	8.66369536E8	33.20740509033203	0.0	0.0	1.062285312E9	1.050107904E9	0.0	0.0	0.08524999767541885	0.05375000089406967	0.048500001430511475	0.9919999837875366	0.737786591053009	0.0	244.0	371.0	0.0	0.0	0.0	0.0	0.0	0.0	null	null	null	null	null	null	null	null	337.0	336.0	335.0	331.0	333.0	339.0	339.0	335.0	336.0	336.0	336.0	
Sat Jun 03 23:55:00 UTC 2017	0.0	1.048293376E9	3042.779052734375	0.0	2.5731072E7	0.0	2.0	8.66459648E8	49.783748626708984	0.0	0.0	1.062285312E9	1.050107904E9	0.0	0.0	0.07524999976158142	0.050999999046325684	0.05025000125169754	0.9922500252723694	0.7378320693969727	0.0	244.0	371.0	0.0	0.0	0.0	0.0	0.0	0.0	null	null	null	null	null	null	null	null	333.0	338.0	338.0	335.0	333.0	332.0	333.0	335.0	331.0	336.0	331.0	
Sat Jun 03 23:54:00 UTC 2017	0.0	1.047281664E9	3042.779052734375	0.0	2.5731072E7	0.0	2.0	8.66369536E8	37.44594955444336	0.0	0.0	1.062285312E9	1.050107904E9	0.0	0.0	0.06750000268220901	0.04374999925494194	0.045249998569488525	0.9922500252723694	0.740096926689148	0.0	244.0	371.0	0.0	0.0	0.0	0.0	0.0	0.0	null	null	null	null	null	null	null	null	332.0	335.0	337.0	335.0	335.0	336.0	336.0	330.0	335.0	331.0	336.0	
Sat Jun 03 23:53:00 UTC 2017	0.0	1.048293376E9	3042.779052734375	0.0	2.5731072E7	0.0	3.0	8.66369536E8	43.94429397583008	0.0	0.0	1.062285312E9	1.050107904E9	0.0	null	0.07124999910593033	0.05575000122189522	0.050999999046325684	0.9922500252723694	0.7401008009910583	0.0	244.0	371.0	0.0	0.0	0.0	0.0	0.0	0.0	null	null	null	null	null	null	null	null	339.0	337.0	334.0	338.0	335.0	331.0	334.0	335.0	332.0	334.0	335.0	
Sat Jun 03 23:52:00 UTC 2017	0.0	1.048293376E9	2247.611328125	0.0	2.5731072E7	0.0	4.0	8.66369536E8	43.94429397583008	0.0	0.0	1.062285312E9	1.050107904E9	0.0	0.0	0.08649999648332596	0.04699999839067459	0.04574999958276749	0.9922500252723694	0.7378027439117432	0.0	244.0	371.0	0.0	0.0	0.0	0.0	0.0	0.0	null	null	null	null	null	null	null	null	334.0	333.0	334.0	333.0	333.0	339.0	334.0	335.0	338.0	338.0	336.0	
Sat Jun 03 23:51:00 UTC 2017	0.0	1.047281664E9	2247.611328125	0.0	2.5731072E7	0.0	3.0	8.6616064E8	43.94429397583008	0.0	0.0	1.0612736E9	1.050107904E9	0.0	0.0	0.09775000065565109	0.05350000038743019	0.04600000008940697	0.9922500252723694	0.737798810005188	0.0	244.0	371.0	0.0	0.0	0.0	0.0	0.0	0.0	null	null	null	null	null	null	null	null	333.0	336.0	335.0	339.0	337.0	334.0	335.0	338.0	332.0	334.0	333.0	
Sat Jun 03 23:50:00 UTC 2017	0.0	1.048293376E9	2247.611328125	0.0	2.5731072E7	0.0	3.0	8.66250752E8	43.94429397583008	0.0	0.0	1.062285312E9	1.050107904E9	0.0	0.0	0.07774999737739563	0.0507499985396862	0.04975000023841858	0.9922500252723694	0.7377817034721375	0.0	244.0	371.0	0.0	0.0	0.0	0.0	0.0	0.0	null	null	null	null	null	null	null	null	334.0	337.0	336.0	332.0	333.0	334.0	331.0	334.0	338.0	335.0	337.0	
Sat Jun 03 23:49:00 UTC 2017	0.0	1.047281664E9	2247.611328125	0.0	2.5731072E7	0.0	2.0	8.6616064E8	43.94429397583008	0.0	0.0	1.0612736E9	1.050107904E9	0.0	0.0	0.06650000065565109	0.045499999076128006	0.05050000175833702	0.9919999837875366	0.7389212250709534	0.0	244.0	371.0	0.0	0.0	0.0	0.0	0.0	0.0	null	null	null	null	null	null	null	null	335.0	334.0	331.0	335.0	337.0	336.0	335.0	333.0	331.0	333.0	337.0	
Sat Jun 03 23:48:00 UTC 2017	0.0	1.047281664E9	3082.806396484375	0.0	2.5731072E7	0.0	2.0	8.6616064E8	46.4836311340332	0.0	0.0	1.062285312E9	1.050107904E9	0.0	0.0	0.07575000077486038	0.052000001072883606	0.04450000077486038	0.9917500019073486	0.7377479076385498	0.0	244.0	371.0	0.0	0.0	0.0	0.0	0.0	0.0	null	null	null	null	null	null	null	null	334.0	332.0	334.0	333.0	332.0	331.0	333.0	334.0	334.0	334.0	332.0	
Sat Jun 03 23:47:00 UTC 2017	0.0	1.048293376E9	3082.806396484375	0.0	2.5731072E7	0.0	2.0	8.6616064E8	49.21240234375	0.0	0.0	1.062285312E9	1.050107904E9	0.0	0.0	0.08224999904632568	0.048500001430511475	0.04874999821186066	0.9917500019073486	0.7399530410766602	0.0	244.0	371.0	0.0	0.0	0.0	0.0	0.0	0.0	null	null	null	null	null	null	null	null	337.0	337.0	333.0	339.0	338.0	332.0	336.0	335.0	331.0	339.0	334.0	
Sat Jun 03 23:46:00 UTC 2017	0.0	1.048293376E9	2632.636474609375	0.0	2.5731072E7	0.0	2.0	8.65947648E8	49.21240234375	0.0	0.0	1.0612736E9	1.050107904E9	0.0	0.0	0.07074999809265137	0.05225000157952309	0.04874999821186066	0.9917500019073486	0.7376672029495239	0.0	244.0	371.0	0.0	0.0	0.0	0.0	0.0	0.0	null	null	null	null	null	null	null	null	336.0	333.0	333.0	333.0	334.0	331.0	333.0	335.0	336.0	333.0	333.0	
Sat Jun 03 23:45:00 UTC 2017	0.0	1.047281664E9	2632.636474609375	0.0	2.5731072E7	0.0	3.0	8.6603776E8	49.5780143737793	0.0	0.0	1.0612736E9	1.050107904E9	0.0	0.0	0.07150000333786011	0.04699999839067459	0.048250000923871994	0.9917500019073486	0.7399085164070129	0.0	244.0	371.0	0.0	0.0	0.0	0.0	0.0	0.0	null	null	null	null	null	null	null	null	335.0	338.0	335.0	336.0	334.0	333.0	335.0	336.0	335.0	334.0	334.0	
Sat Jun 03 23:44:00 UTC 2017	0.0	1.048293376E9	2632.636474609375	0.0	2.5731072E7	0.0	4.0	8.65947648E8	46.768653869628906	0.0	0.0	1.062285312E9	1.050107904E9	0.0	0.0	0.07524999976158142	0.054749999195337296	0.045249998569488525	0.9917500019073486	0.7376402616500854	0.0	244.0	371.0	0.0	0.0	0.0	0.0	0.0	0.0	null	null	null	null	null	null	null	null	334.0	332.0	334.0	335.0	335.0	335.0	336.0	333.0	333.0	336.0	335.0	
Sat Jun 03 23:43:00 UTC 2017	1.0	1.048293376E9	3016.77294921875	0.0	2.5731072E7	0.0	2.0	8.65947648E8	52.81456756591797	0.0	0.0	1.062285312E9	1.050107904E9	0.0	0.0	0.07575000077486038	0.04600000008940697	0.04600000008940697	0.9919999837875366	0.737610936164856	0.0	244.0	371.0	0.0	0.0	0.0	0.0	0.0	0.0	null	null	null	null	null	null	null	null	335.0	334.0	331.0	334.0	334.0	334.0	331.0	334.0	333.0	334.0	335.0	
Sat Jun 03 23:42:00 UTC 2017	0.0	1.047281664E9	3016.77294921875	0.0	2.5731072E7	0.0	2.0	8.65947648E8	50.060367584228516	0.0	0.0	1.062285312E9	1.050107904E9	0.0	0.0	0.07249999791383743	0.051750000566244125	0.051750000566244125	0.9919999837875366	0.7375938296318054	0.0	244.0	371.0	0.0	0.0	0.0	0.0	0.0	0.0	null	null	null	null	null	null	null	null	334.0	338.0	336.0	338.0	335.0	335.0	334.0	335.0	336.0	338.0	335.0	
Sat Jun 03 23:41:00 UTC 2017	0.0	1.048293376E9	3016.77294921875	0.0	2.5731072E7	0.0	2.0	8.65734656E8	45.145694732666016	0.0	0.0	1.062285312E9	1.050107904E9	0.0	0.0	0.10774999856948853	0.05299999937415123	0.042750000953674316	0.9922500252723694	0.7391423583030701	0.0	244.0	371.0	0.0	0.0	0.0	0.0	0.0	0.0	null	null	null	null	null	null	null	null	334.0	331.0	333.0	333.0	336.0	335.0	336.0	336.0	338.0	333.0	330.0	
Sat Jun 03 23:40:00 UTC 2017	0.0	1.048293376E9	2992.955810546875	0.0	2.5731072E7	0.0	3.0	8.65824768E8	45.145694732666016	0.0	0.0	1.062285312E9	1.050107904E9	0.0	null	0.07000000029802322	0.05274999886751175	0.05249999836087227	0.9917500019073486	0.7375507354736328	0.0	244.0	371.0	0.0	0.0	0.0	0.0	0.0	0.0	null	null	null	null	null	null	null	null	334.0	335.0	332.0	334.0	336.0	331.0	336.0	338.0	335.0	334.0	335.0	
Sat Jun 03 23:39:00 UTC 2017	0.0	1.048293376E9	2541.16162109375	0.0	2.5731072E7	0.0	4.0	8.65734656E8	47.673362731933594	0.0	0.0	1.062285312E9	1.050107904E9	0.0	0.0	0.07874999940395355	0.05225000157952309	0.04650000110268593	0.9919999837875366	0.7375252842903137	0.0	244.0	371.0	0.0	0.0	0.0	0.0	0.0	0.0	null	null	null	null	null	null	null	null	335.0	333.0	335.0	335.0	334.0	335.0	334.0	333.0	334.0	334.0	334.0	
Sat Jun 03 23:38:00 UTC 2017	0.0	1.047281664E9	2541.16162109375	0.0	2.5731072E7	0.0	4.0	8.65734656E8	47.673362731933594	0.0	0.0	1.0612736E9	1.050107904E9	0.0	0.0	0.07400000095367432	0.0494999997317791	0.04774999991059303	0.9919999837875366	0.7374993562698364	0.0	244.0	371.0	0.0	0.0	0.0	0.0	0.0	0.0	null	null	null	null	null	null	null	null	335.0	337.0	336.0	335.0	334.0	336.0	333.0	336.0	334.0	334.0	334.0	
Sat Jun 03 23:37:00 UTC 2017	0.0	1.048293376E9	2541.16162109375	0.0	2.5731072E7	0.0	2.0	8.65734656E8	41.12739944458008	0.0	1.0	1.062285312E9	1.050107904E9	0.0	0.0	0.07275000214576721	0.04574999958276749	0.048250000923871994	0.9922500252723694	0.7374856472015381	0.0	244.0	371.0	0.0	0.0	0.0	0.0	0.0	0.0	null	null	null	null	null	null	null	null	333.0	336.0	334.0	334.0	337.0	333.0	336.0	334.0	336.0	336.0	336.0	
Sat Jun 03 23:36:00 UTC 2017	0.0	1.048293376E9	2401.037841796875	0.0	2.5731072E7	0.0	4.0	8.65984512E8	41.12739944458008	0.0	0.0	1.0612736E9	1.050107904E9	0.0	0.0	0.07750000059604645	0.05324999988079071	0.048250000923871994	0.9922500252723694	0.7374812960624695	0.0	244.0	371.0	0.0	0.0	0.0	0.0	0.0	0.0	null	null	null	null	null	null	null	null	337.0	335.0	333.0	335.0	333.0	331.0	331.0	335.0	333.0	337.0	337.0	
Sat Jun 03 23:35:00 UTC 2017	0.0	1.048293376E9	2811.418212890625	0.0	2.5731072E7	0.0	3.0	8.65611776E8	53.93076705932617	0.0	0.0	1.062285312E9	1.050107904E9	0.0	0.0	0.07074999809265137	0.0507499985396862	0.04625000059604645	0.9919999837875366	0.7374651432037354	0.0	244.0	371.0	0.0	0.0	0.0	0.0	0.0	0.0	null	null	null	null	null	null	null	null	333.0	334.0	336.0	336.0	336.0	337.0	333.0	337.0	336.0	333.0	336.0	
Sat Jun 03 23:34:00 UTC 2017	0.0	1.047281664E9	2811.418212890625	0.0	2.5731072E7	0.0	2.0	8.65521664E8	52.90641784667969	0.0	0.0	1.0612736E9	1.050107904E9	0.0	0.0	0.0767500028014183	0.05375000089406967	0.048250000923871994	0.9919999837875366	0.7374475002288818	0.0	244.0	371.0	0.0	0.0	0.0	0.0	0.0	0.0	null	null	null	null	null	null	null	null	338.0	332.0	334.0	333.0	336.0	331.0	337.0	333.0	332.0	336.0	334.0	
Sat Jun 03 23:33:00 UTC 2017	0.0	1.047281664E9	2966.857177734375	0.0	2.5731072E7	0.0	2.0	8.65521664E8	41.52652359008789	0.0	0.0	1.062285312E9	1.050107904E9	0.0	0.0	0.0820000022649765	0.04749999940395355	0.05000000074505806	0.9919999837875366	0.7374460697174072	0.0	244.0	371.0	0.0	0.0	0.0	0.0	0.0	0.0	null	null	null	null	null	null	null	null	335.0	334.0	336.0	337.0	336.0	332.0	332.0	338.0	333.0	334.0	331.0	
Sat Jun 03 23:32:00 UTC 2017	0.0	1.048293376E9	2966.857177734375	0.0	2.5731072E7	0.0	2.0	8.65521664E8	41.52652359008789	0.0	0.0	1.062285312E9	1.050107904E9	0.0	null	0.06650000065565109	0.04625000059604645	0.04724999889731407	0.9922500252723694	0.7374299168586731	0.0	244.0	371.0	0.0	0.0	0.0	0.0	0.0	0.0	null	null	null	null	null	null	null	null	332.0	334.0	335.0	335.0	335.0	336.0	334.0	335.0	338.0	334.0	335.0	
Sat Jun 03 23:31:00 UTC 2017	0.0	1.048293376E9	2212.102294921875	0.0	2.5731072E7	0.0	2.0	8.65308672E8	41.52652359008789	0.0	0.0	1.062285312E9	1.050107904E9	0.0	0.0	0.10575000196695328	0.051750000566244125	0.04675000160932541	0.9919999837875366	0.737413763999939	0.0	244.0	371.0	0.0	0.0	0.0	0.0	0.0	0.0	null	null	null	null	null	null	null	null	338.0	335.0	334.0	335.0	334.0	335.0	333.0	335.0	334.0	334.0	330.0	
Sat Jun 03 23:30:00 UTC 2017	0.0	1.048293376E9	3922.735107421875	0.0	2.5731072E7	0.0	3.0	8.65398784E8	48.4305534362793	0.0	0.0	1.0612736E9	1.050107904E9	0.0	0.0	0.07050000131130219	0.054749999195337296	0.04625000059604645	0.9919999837875366	0.7374127507209778	0.0	244.0	371.0	0.0	0.0	0.0	0.0	0.0	0.0	null	null	null	null	null	null	null	null	334.0	334.0	337.0	333.0	336.0	335.0	339.0	332.0	337.0	334.0	338.0	
Sat Jun 03 23:29:00 UTC 2017	0.0	1.048293376E9	2484.033447265625	0.0	2.5731072E7	0.0	2.0	8.65308672E8	48.4305534362793	0.0	0.0	1.0612736E9	1.050107904E9	0.0	0.0	0.0729999989271164	0.04574999958276749	0.04650000110268593	0.9919999837875366	0.7373946905136108	0.0	244.0	371.0	0.0	0.0	0.0	0.0	0.0	0.0	null	null	null	null	null	null	null	null	336.0	335.0	335.0	336.0	333.0	334.0	332.0	334.0	333.0	335.0	336.0	
Sat Jun 03 23:28:00 UTC 2017	0.0	1.048293376E9	2354.65087890625	0.0	2.5731072E7	0.0	2.0	8.65308672E8	48.4305534362793	0.0	0.0	1.0612736E9	1.050107904E9	0.0	null	0.07999999821186066	0.05225000157952309	0.04724999889731407	0.9919999837875366	0.7395362257957458	0.0	244.0	371.0	0.0	0.0	0.0	0.0	0.0	0.0	null	null	null	null	null	null	null	null	331.0	334.0	334.0	333.0	337.0	335.0	338.0	333.0	337.0	333.0	331.0	
Sat Jun 03 23:27:00 UTC 2017	0.0	1.048293376E9	2467.76416015625	0.0	2.5731072E7	0.0	2.0	8.65308672E8	37.79705047607422	0.0	0.0	1.0612736E9	1.050107904E9	0.0	0.0	0.07074999809265137	0.054249998182058334	0.0442500002682209	0.9917500019073486	0.7373530864715576	0.0	244.0	371.0	0.0	0.0	0.0	0.0	0.0	0.0	null	null	null	null	null	null	null	null	335.0	333.0	334.0	336.0	332.0	332.0	334.0	337.0	333.0	334.0	332.0	
Sat Jun 03 23:26:00 UTC 2017	0.0	1.047281664E9	2467.76416015625	0.0	2.5731072E7	0.0	2.0	8.65554432E8	50.48935317993164	0.0	0.0	1.062285312E9	1.050107904E9	0.0	0.0	0.08250000327825546	0.04975000023841858	0.04899999871850014	0.9919999837875366	0.7373496890068054	0.0	244.0	371.0	0.0	0.0	0.0	0.0	0.0	0.0	null	null	null	null	null	null	null	null	337.0	335.0	339.0	333.0	337.0	332.0	332.0	334.0	335.0	336.0	337.0	
Sat Jun 03 23:25:00 UTC 2017	0.0	1.048293376E9	2467.76416015625	0.0	2.5731072E7	0.0	2.0	8.65185792E8	50.48935317993164	0.0	0.0	1.062285312E9	1.050107904E9	0.0	null	0.0754999965429306	0.04975000023841858	0.04899999871850014	0.9919999837875366	0.7373359799385071	0.0	244.0	371.0	0.0	0.0	0.0	0.0	0.0	0.0	null	null	null	null	null	null	null	null	334.0	332.0	333.0	335.0	331.0	338.0	337.0	335.0	333.0	332.0	334.0	
Sat Jun 03 23:24:00 UTC 2017	0.0	1.047281664E9	2467.76416015625	0.0	2.5731072E7	0.0	2.0	8.6509568E8	50.48935317993164	0.0	0.0	1.0612736E9	1.050107904E9	0.0	null	0.07474999874830246	0.051750000566244125	0.04625000059604645	0.9919999837875366	0.7394819259643555	0.0	244.0	371.0	0.0	0.0	0.0	0.0	0.0	0.0	null	null	null	null	null	null	null	null	338.0	336.0	333.0	332.0	337.0	333.0	336.0	336.0	337.0	334.0	334.0	
Sat Jun 03 23:23:00 UTC 2017	0.0	1.047281664E9	3056.969482421875	0.0	2.5731072E7	0.0	2.0	8.64047104E8	44.34485626220703	0.0	0.0	1.062285312E9	1.050107904E9	0.0	null	0.07374999672174454	0.04800000041723251	0.04574999958276749	0.9919999837875366	0.7388047575950623	0.0	244.0	371.0	0.0	0.0	0.0	0.0	0.0	0.0	null	null	null	null	null	null	null	null	332.0	332.0	333.0	333.0	335.0	337.0	332.0	331.0	332.0	337.0	332.0	
Sat Jun 03 23:22:00 UTC 2017	0.0	1.047281664E9	2151.142822265625	0.0	2.5731072E7	0.0	2.0	8.64047104E8	44.34485626220703	0.0	0.0	1.0612736E9	1.050107904E9	0.0	null	0.06949999928474426	0.05050000175833702	0.0494999997317791	0.9917500019073486	0.7385185360908508	0.0	244.0	371.0	0.0	0.0	0.0	0.0	0.0	0.0	null	null	null	null	null	null	null	null	335.0	337.0	336.0	340.0	334.0	337.0	334.0	338.0	338.0	334.0	332.0	
Sat Jun 03 23:21:00 UTC 2017	0.0	1.047281664E9	3463.387939453125	0.0	2.5731072E7	0.0	2.0	8.63817728E8	44.34485626220703	0.0	0.0	1.062285312E9	1.050107904E9	0.0	null	0.10949999839067459	0.050999999046325684	0.04774999991059303	0.9912499785423279	0.7395479679107666	0.0	244.0	371.0	0.0	0.0	0.0	0.0	0.0	0.0	null	null	null	null	null	null	null	null	334.0	332.0	333.0	335.0	332.0	334.0	334.0	333.0	330.0	331.0	334.0	
Sat Jun 03 23:20:00 UTC 2017	0.0	1.048293376E9	3463.387939453125	0.0	2.5731072E7	0.0	6.0	8.6390784E8	44.34485626220703	0.0	0.0	1.062285312E9	1.050107904E9	0.0	0.0	0.07925000041723251	0.048500001430511475	0.04574999958276749	0.9917500019073486	0.7387362718582153	0.0	244.0	371.0	0.0	0.0	0.0	0.0	0.0	0.0	null	null	null	null	null	null	null	null	339.0	337.0	330.0	334.0	335.0	333.0	336.0	336.0	337.0	338.0	331.0	
Sat Jun 03 23:19:00 UTC 2017	0.0	1.048293376E9	2849.508544921875	0.0	2.5731072E7	0.0	2.0	8.6171648E8	51.17839431762695	0.0	0.0	1.062285312E9	1.050107904E9	0.0	0.0	0.06424999982118607	0.05299999937415123	0.045249998569488525	0.9919999837875366	0.7372444868087769	0.0	244.0	371.0	0.0	0.0	0.0	0.0	0.0	0.0	null	null	null	null	null	null	null	null	334.0	332.0	335.0	334.0	335.0	338.0	333.0	334.0	332.0	333.0	334.0	
Sat Jun 03 23:18:00 UTC 2017	0.0	1.048293376E9	2207.0458984375	0.0	2.5731072E7	0.0	2.0	8.6171648E8	49.18184280395508	0.0	0.0	1.0612736E9	1.050107904E9	0.0	0.0	0.07874999940395355	0.048250000923871994	0.04924999922513962	0.9919999837875366	0.7372161149978638	0.0	244.0	371.0	0.0	0.0	0.0	0.0	0.0	0.0	null	null	null	null	null	null	null	null	332.0	338.0	337.0	335.0	332.0	329.0	333.0	335.0	336.0	332.0	337.0	
Sat Jun 03 23:17:00 UTC 2017	0.0	1.047281664E9	2207.0458984375	0.0	2.5731072E7	0.0	2.0	8.6171648E8	49.18184280395508	0.0	0.0	1.062285312E9	1.050107904E9	0.0	0.0	0.0742499977350235	0.05299999937415123	0.048250000923871994	0.9919999837875366	0.7372366189956665	0.0	244.0	371.0	0.0	0.0	0.0	0.0	0.0	0.0	null	null	null	null	null	null	null	null	338.0	331.0	333.0	332.0	335.0	336.0	335.0	336.0	335.0	335.0	330.0	
Sat Jun 03 23:16:00 UTC 2017	0.0	1.048293376E9	2207.0458984375	0.0	2.5731072E7	0.0	2.0	8.61597696E8	36.33391189575195	0.0	0.0	1.0612736E9	1.050107904E9	0.0	0.0	0.07774999737739563	0.0494999997317791	0.04749999940395355	0.9917500019073486	0.7372028827667236	0.0	244.0	371.0	0.0	0.0	0.0	0.0	0.0	0.0	null	null	null	null	null	null	null	null	335.0	336.0	337.0	334.0	335.0	335.0	335.0	337.0	334.0	333.0	335.0	
Sat Jun 03 23:15:00 UTC 2017	0.0	1.048293376E9	2922.396484375	0.0	2.5731072E7	0.0	2.0	8.61597696E8	36.33391189575195	0.0	0.0	1.062285312E9	1.050107904E9	0.0	0.0	0.0754999965429306	0.04749999940395355	0.048250000923871994	0.9919999837875366	0.7386804819107056	0.0	244.0	371.0	0.0	0.0	0.0	0.0	0.0	0.0	null	null	null	null	null	null	null	null	335.0	335.0	337.0	337.0	336.0	334.0	335.0	333.0	336.0	337.0	335.0	
Sat Jun 03 23:14:00 UTC 2017	0.0	1.048293376E9	2915.663818359375	0.0	2.5731072E7	0.0	2.0	8.6151168E8	36.33391189575195	0.0	0.0	1.062285312E9	1.050107904E9	0.0	0.0	0.07349999994039536	0.05025000125169754	0.0442500002682209	0.9919999837875366	0.7371563911437988	0.0	244.0	371.0	0.0	0.0	0.0	0.0	0.0	0.0	null	null	null	null	null	null	null	null	336.0	336.0	332.0	333.0	334.0	332.0	333.0	336.0	335.0	334.0	330.0	
Sat Jun 03 23:13:00 UTC 2017	0.0	1.047281664E9	2915.663818359375	0.0	2.5731072E7	0.0	2.0	8.6151168E8	39.997520446777344	0.0	0.0	1.0612736E9	1.050107904E9	0.0	0.0	0.07625000178813934	0.05000000074505806	0.051249999552965164	0.9917500019073486	0.7371436953544617	0.0	244.0	371.0	0.0	0.0	0.0	0.0	0.0	0.0	null	null	null	null	null	null	null	null	334.0	337.0	336.0	334.0	335.0	334.0	332.0	334.0	332.0	336.0	332.0	
Sat Jun 03 23:12:00 UTC 2017	0.0	1.047281664E9	2692.808349609375	0.0	2.5731072E7	0.0	3.0	8.6151168E8	39.997520446777344	0.0	0.0	1.062285312E9	1.050107904E9	0.0	0.0	0.08100000023841858	0.054499998688697815	0.0442500002682209	0.9917500019073486	0.7392935156822205	0.0	244.0	371.0	0.0	0.0	0.0	0.0	0.0	0.0	null	null	null	null	null	null	null	null	334.0	330.0	335.0	336.0	334.0	333.0	334.0	331.0	337.0	331.0	334.0	
Sat Jun 03 23:11:00 UTC 2017	1.0	1.048293376E9	2692.808349609375	0.0	2.5731072E7	0.0	3.0	8.61298688E8	55.622718811035156	0.0	0.0	1.0612736E9	1.050107904E9	0.0	0.0	0.09724999964237213	0.04699999839067459	0.05225000157952309	0.9915000200271606	0.7371240854263306	0.0	244.0	371.0	0.0	0.0	0.0	0.0	0.0	0.0	null	null	null	null	null	null	null	null	331.0	335.0	335.0	331.0	332.0	333.0	334.0	334.0	331.0	334.0	333.0	
Sat Jun 03 23:10:00 UTC 2017	0.0	1.047281664E9	2692.808349609375	0.0	2.5731072E7	0.0	4.0	8.62015488E8	55.622718811035156	1.0	0.0	1.062285312E9	1.050107904E9	0.0	0.0	0.0767500028014183	0.05575000122189522	0.04500000178813934	0.9915000200271606	0.7371054887771606	0.0	244.0	371.0	0.0	0.0	0.0	0.0	0.0	0.0	null	null	null	null	null	null	null	null	334.0	334.0	334.0	335.0	335.0	337.0	335.0	336.0	335.0	334.0	333.0	
Sat Jun 03 23:09:00 UTC 2017	0.0	1.047281664E9	3149.585693359375	0.0	2.5731072E7	0.0	4.0	8.61351936E8	55.622718811035156	0.0	0.0	1.0612736E9	1.050107904E9	0.0	0.0	0.08224999904632568	0.04975000023841858	0.05000000074505806	0.9919999837875366	0.7371544241905212	0.0	244.0	371.0	0.0	0.0	0.0	0.0	0.0	0.0	null	null	null	null	null	null	null	null	336.0	335.0	335.0	335.0	336.0	334.0	335.0	336.0	333.0	338.0	335.0	
Sat Jun 03 23:08:00 UTC 2017	0.0	1.047281664E9	2422.850341796875	0.0	2.5731072E7	0.0	3.0	8.61351936E8	47.14622116088867	0.0	0.0	1.062285312E9	1.050107904E9	0.0	0.0	0.06525000184774399	0.04800000041723251	0.04800000041723251	0.9917500019073486	0.7381011843681335	0.0	244.0	371.0	0.0	0.0	0.0	0.0	0.0	0.0	null	null	null	null	null	null	null	null	336.0	336.0	334.0	331.0	333.0	335.0	332.0	332.0	334.0	331.0	335.0	
Sat Jun 03 23:07:00 UTC 2017	0.0	1.047281664E9	2361.753173828125	0.0	2.5731072E7	0.0	3.0	8.61351936E8	53.51865768432617	0.0	0.0	1.0612736E9	1.050107904E9	0.0	0.0	0.08150000125169754	0.050999999046325684	0.04374999925494194	0.9915000200271606	0.7370560765266418	0.0	244.0	371.0	0.0	0.0	0.0	0.0	0.0	0.0	null	null	null	null	null	null	null	null	333.0	335.0	337.0	335.0	333.0	332.0	336.0	337.0	331.0	337.0	333.0	
Sat Jun 03 23:06:00 UTC 2017	0.0	1.048293376E9	2361.753173828125	0.0	2.5731072E7	0.0	2.0	8.61229056E8	53.51865768432617	0.0	0.0	1.062285312E9	1.050107904E9	0.0	0.0	0.07500000298023224	0.04975000023841858	0.04574999958276749	0.9917500019073486	0.7370590567588806	0.0	244.0	371.0	0.0	0.0	0.0	0.0	0.0	0.0	null	null	null	null	null	null	null	null	333.0	333.0	332.0	336.0	337.0	331.0	335.0	334.0	333.0	331.0	333.0	
Sat Jun 03 23:05:00 UTC 2017	0.0	1.048293376E9	2395.021484375	0.0	2.5731072E7	0.0	3.0	8.61229056E8	33.15629196166992	0.0	0.0	1.062285312E9	1.050107904E9	0.0	0.0	0.0754999965429306	0.05274999886751175	0.048500001430511475	0.9919999837875366	0.7370125651359558	0.0	244.0	371.0	0.0	0.0	0.0	0.0	0.0	0.0	null	null	null	null	null	null	null	null	335.0	338.0	334.0	330.0	334.0	338.0	333.0	335.0	335.0	337.0	336.0	
Sat Jun 03 23:04:00 UTC 2017	0.0	1.047281664E9	2395.021484375	0.0	2.5731072E7	0.0	2.0	8.61138944E8	43.27675247192383	0.0	0.0	1.062285312E9	1.050107904E9	0.0	0.0	0.06949999928474426	0.04625000059604645	0.05025000125169754	0.9917500019073486	0.7369831800460815	0.0	244.0	371.0	0.0	0.0	0.0	0.0	0.0	0.0	null	null	null	null	null	null	null	null	338.0	335.0	336.0	334.0	333.0	333.0	334.0	330.0	332.0	333.0	333.0	
Sat Jun 03 23:03:00 UTC 2017	0.0	1.047281664E9	2622.28662109375	0.0	2.5731072E7	0.0	2.0	8.61138944E8	56.428768157958984	0.0	0.0	1.0612736E9	1.050107904E9	0.0	0.0	0.07724999636411667	0.05324999988079071	0.0442500002682209	0.9919999837875366	0.7369802594184875	0.0	244.0	371.0	0.0	0.0	0.0	0.0	0.0	0.0	null	null	null	null	null	null	null	null	335.0	335.0	335.0	335.0	334.0	336.0	333.0	335.0	336.0	336.0	335.0	
Sat Jun 03 23:02:00 UTC 2017	0.0	1.047281664E9	2626.002197265625	0.0	2.5731072E7	0.0	3.0	8.61138944E8	56.428768157958984	0.0	0.0	1.062285312E9	1.050107904E9	0.0	0.0	0.07275000214576721	0.051750000566244125	0.04975000023841858	0.9919999837875366	0.7369636297225952	0.0	244.0	371.0	0.0	0.0	0.0	0.0	0.0	0.0	null	null	null	null	null	null	null	null	335.0	336.0	329.0	334.0	332.0	336.0	333.0	335.0	335.0	333.0	337.0	
Sat Jun 03 23:01:00 UTC 2017	0.0	1.048293376E9	2626.002197265625	0.0	2.5731072E7	0.0	4.0	8.60925952E8	56.428768157958984	0.0	1.0	1.0612736E9	1.050107904E9	0.0	0.0	0.10625000298023224	0.04800000041723251	0.04349999874830246	0.9919999837875366	0.7369479537010193	0.0	244.0	371.0	0.0	0.0	0.0	0.0	0.0	0.0	null	null	null	null	null	null	null	null	334.0	335.0	334.0	335.0	336.0	335.0	337.0	336.0	334.0	333.0	334.0	
Sat Jun 03 23:00:00 UTC 2017	0.0	1.047281664E9	2626.002197265625	0.0	2.5731072E7	0.0	5.0	8.61016064E8	58.87763595581055	0.0	0.0	1.0612736E9	1.050107904E9	0.0	0.0	0.07175000011920929	0.054999999701976776	0.05624999850988388	0.9922500252723694	0.7369293570518494	0.0	244.0	371.0	0.0	0.0	0.0	0.0	0.0	0.0	null	null	null	null	null	null	null	null	336.0	332.0	335.0	331.0	335.0	334.0	331.0	335.0	335.0	336.0	332.0	
Sat Jun 03 22:59:00 UTC 2017	0.0	1.048293376E9	2626.002197265625	0.0	2.5731072E7	0.0	3.0	8.60925952E8	38.623565673828125	0.0	0.0	1.0612736E9	1.050107904E9	0.0	0.0	0.07450000196695328	0.04724999889731407	0.042750000953674316	0.9917500019073486	0.7369239926338196	0.0	244.0	371.0	0.0	0.0	0.0	0.0	0.0	0.0	null	null	null	null	null	null	null	null	332.0	334.0	337.0	335.0	336.0	336.0	334.0	334.0	334.0	332.0	335.0	
Sat Jun 03 22:58:00 UTC 2017	0.0	1.047281664E9	2626.002197265625	0.0	2.5731072E7	0.0	2.0	8.60925952E8	38.623565673828125	0.0	0.0	1.062285312E9	1.050107904E9	0.0	0.0	0.08025000244379044	0.05000000074505806	0.051249999552965164	0.9919999837875366	0.7369039058685303	0.0	244.0	371.0	0.0	0.0	0.0	0.0	0.0	0.0	null	null	null	null	null	null	null	null	336.0	336.0	333.0	334.0	333.0	336.0	335.0	336.0	331.0	335.0	335.0	
Sat Jun 03 22:57:00 UTC 2017	0.0	1.048293376E9	2626.002197265625	0.0	2.5731072E7	0.0	2.0	8.60925952E8	48.830322265625	0.0	0.0	1.0612736E9	1.050107904E9	0.0	0.0	0.07575000077486038	0.0560000017285347	0.04724999889731407	0.9919999837875366	0.736922025680542	0.0	244.0	371.0	0.0	0.0	0.0	0.0	0.0	0.0	null	null	null	null	null	null	null	null	337.0	337.0	335.0	334.0	334.0	335.0	332.0	336.0	335.0	331.0	333.0	
Sat Jun 03 22:56:00 UTC 2017	0.0	1.048293376E9	2662.82421875	0.0	2.5731072E7	0.0	2.0	8.60717056E8	48.830322265625	0.0	0.0	1.062285312E9	1.050107904E9	0.0	0.0	0.07199999690055847	0.045499999076128006	0.04699999839067459	0.9919999837875366	0.7368525862693787	0.0	244.0	371.0	0.0	0.0	0.0	0.0	0.0	0.0	null	null	null	null	null	null	null	null	332.0	334.0	335.0	334.0	333.0	334.0	337.0	333.0	336.0	335.0	335.0	
Sat Jun 03 22:55:00 UTC 2017	0.0	1.048293376E9	2615.83154296875	0.0	2.5731072E7	0.0	2.0	8.60807168E8	48.830322265625	0.0	0.0	1.0612736E9	1.050107904E9	0.0	0.0	0.07824999839067459	0.04899999871850014	0.04749999940395355	0.9922500252723694	0.7367972731590271	0.0	244.0	371.0	0.0	0.0	0.0	0.0	0.0	0.0	null	null	null	null	null	null	null	null	335.0	336.0	335.0	337.0	332.0	333.0	331.0	336.0	333.0	336.0	337.0	
Sat Jun 03 22:54:00 UTC 2017	0.0	1.048293376E9	2654.898193359375	0.0	2.5731072E7	0.0	5.0	8.60717056E8	32.122501373291016	0.0	0.0	1.0612736E9	1.050107904E9	0.0	0.0	0.07199999690055847	0.054749999195337296	0.04874999821186066	0.9919999837875366	0.7367963194847107	0.0	244.0	371.0	0.0	0.0	0.0	0.0	0.0	0.0	null	null	null	null	null	null	null	null	337.0	334.0	338.0	333.0	335.0	340.0	335.0	331.0	336.0	328.0	335.0	
Sat Jun 03 22:53:00 UTC 2017	0.0	1.047281664E9	2654.898193359375	0.0	2.5731072E7	0.0	4.0	8.59664384E8	32.122501373291016	0.0	0.0	1.0612736E9	1.050107904E9	0.0	0.0	0.07124999910593033	0.04699999839067459	0.04600000008940697	0.9917500019073486	0.7367771863937378	0.0	244.0	371.0	0.0	0.0	0.0	0.0	0.0	0.0	null	null	null	null	null	null	null	null	332.0	335.0	332.0	331.0	330.0	333.0	338.0	338.0	336.0	333.0	333.0	
Sat Jun 03 22:52:00 UTC 2017	0.0	1.048293376E9	2654.898193359375	0.0	2.5731072E7	0.0	2.0	8.59664384E8	39.28953552246094	0.0	0.0	1.062285312E9	1.050107904E9	0.0	0.0	0.07625000178813934	0.052000001072883606	0.04675000160932541	0.9917500019073486	0.7367693781852722	0.0	244.0	371.0	0.0	0.0	0.0	0.0	0.0	0.0	null	null	null	null	null	null	null	null	330.0	333.0	335.0	339.0	336.0	336.0	338.0	332.0	336.0	336.0	333.0	
Sat Jun 03 22:51:00 UTC 2017	0.0	1.048293376E9	2556.09765625	0.0	2.5731072E7	0.0	2.0	8.59664384E8	39.28953552246094	0.0	0.0	1.062285312E9	1.050107904E9	0.0	0.0	0.1120000034570694	0.051750000566244125	0.051500000059604645	0.9919999837875366	0.7367410063743591	0.0	244.0	371.0	0.0	0.0	0.0	0.0	0.0	0.0	null	null	null	null	null	null	null	null	337.0	334.0	335.0	336.0	336.0	334.0	335.0	335.0	335.0	339.0	335.0	
Sat Jun 03 22:50:00 UTC 2017	0.0	1.047281664E9	2556.09765625	0.0	2.5731072E7	0.0	4.0	8.59541504E8	62.98789978027344	0.0	0.0	1.062285312E9	1.050107904E9	0.0	null	0.0702499970793724	0.05225000157952309	0.04749999940395355	0.9915000200271606	0.7367469072341919	0.0	244.0	371.0	0.0	0.0	0.0	0.0	0.0	0.0	null	null	null	null	null	null	null	null	331.0	333.0	336.0	333.0	336.0	334.0	332.0	333.0	335.0	334.0	333.0	
Sat Jun 03 22:49:00 UTC 2017	0.0	1.048293376E9	2556.09765625	0.0	2.5731072E7	0.0	4.0	8.59451392E8	62.006988525390625	0.0	0.0	1.0612736E9	1.050107904E9	0.0	null	0.0742499977350235	0.048250000923871994	0.04774999991059303	0.9917500019073486	0.7366519570350647	0.0	244.0	371.0	0.0	0.0	0.0	0.0	0.0	0.0	null	null	null	null	null	null	null	null	337.0	337.0	335.0	339.0	332.0	335.0	335.0	335.0	336.0	334.0	336.0	
Sat Jun 03 22:48:00 UTC 2017	0.0	1.048293376E9	2459.677978515625	0.0	2.5731072E7	0.0	2.0	8.59451392E8	39.28145980834961	0.0	1.0	1.062285312E9	1.050107904E9	0.0	null	0.07824999839067459	0.050999999046325684	0.05025000125169754	0.9919999837875366	0.7361827492713928	0.0	244.0	371.0	0.0	0.0	0.0	0.0	0.0	0.0	null	null	null	null	null	null	null	null	332.0	335.0	334.0	334.0	333.0	333.0	332.0	332.0	331.0	333.0	331.0	
Sat Jun 03 22:47:00 UTC 2017	0.0	1.047281664E9	2459.677978515625	0.0	2.5731072E7	0.0	2.0	8.59451392E8	39.28145980834961	1.0	2.0	1.062285312E9	1.050107904E9	0.0	0.0	0.07150000333786011	0.06274999678134918	0.0442500002682209	0.9919999837875366	0.7367419600486755	0.0	244.0	371.0	0.0	0.0	0.0	0.0	0.0	0.0	null	null	null	null	null	null	null	null	336.0	331.0	335.0	335.0	336.0	338.0	337.0	332.0	337.0	339.0	339.0	
Sat Jun 03 22:46:00 UTC 2017	0.0	1.047281664E9	2150.604248046875	0.0	2.5731072E7	0.0	2.0	8.59324416E8	39.60087203979492	0.0	0.0	1.0612736E9	1.050107904E9	0.0	0.0	0.08474999666213989	0.04600000008940697	0.04625000059604645	0.9922500252723694	0.7362869381904602	0.0	244.0	371.0	0.0	0.0	0.0	0.0	0.0	0.0	null	null	null	null	null	null	null	null	333.0	338.0	332.0	337.0	338.0	333.0	332.0	337.0	336.0	334.0	335.0	
Sat Jun 03 22:45:00 UTC 2017	0.0	1.047281664E9	3664.761962890625	0.0	2.5731072E7	0.0	2.0	8.59328512E8	51.74173355102539	0.0	0.0	1.062285312E9	1.050107904E9	0.0	0.0	0.06875000149011612	0.0560000017285347	0.04749999940395355	0.9922500252723694	0.7362820506095886	0.0	244.0	371.0	0.0	0.0	0.0	0.0	0.0	0.0	null	null	null	null	null	null	null	null	334.0	332.0	333.0	334.0	334.0	333.0	340.0	331.0	333.0	333.0	331.0	
Sat Jun 03 22:44:00 UTC 2017	0.0	1.047281664E9	2492.60791015625	0.0	2.5731072E7	0.0	4.0	8.592384E8	43.559539794921875	1.0	0.0	1.062285312E9	1.050107904E9	0.0	0.0	0.07750000059604645	0.042249999940395355	0.050999999046325684	0.9922500252723694	0.7362791299819946	0.0	244.0	371.0	0.0	0.0	0.0	0.0	0.0	0.0	null	null	null	null	null	null	null	null	335.0	337.0	338.0	336.0	334.0	335.0	334.0	336.0	335.0	335.0	335.0	
Sat Jun 03 22:43:00 UTC 2017	0.0	1.048293376E9	2492.60791015625	0.0	2.5731072E7	0.0	5.0	8.592384E8	40.021114349365234	0.0	0.0	1.062285312E9	1.050107904E9	0.0	null	0.06849999725818634	0.054749999195337296	0.048250000923871994	0.9919999837875366	0.7363349199295044	0.0	244.0	371.0	0.0	0.0	0.0	0.0	0.0	0.0	null	null	null	null	null	null	null	null	335.0	337.0	333.0	334.0	335.0	333.0	332.0	337.0	336.0	337.0	338.0	
Sat Jun 03 22:42:00 UTC 2017	0.0	1.047281664E9	2492.60791015625	0.0	2.5731072E7	0.0	4.0	8.592384E8	44.28877639770508	0.0	0.0	1.062285312E9	1.050107904E9	0.0	null	0.07850000262260437	0.052000001072883606	0.04724999889731407	0.9919999837875366	0.7369137406349182	0.0	244.0	371.0	0.0	0.0	0.0	0.0	0.0	0.0	null	null	null	null	null	null	null	null	337.0	328.0	333.0	336.0	337.0	336.0	335.0	334.0	335.0	336.0	331.0	
Sat Jun 03 22:41:00 UTC 2017	0.0	1.047281664E9	2915.0771484375	0.0	2.5731072E7	0.0	2.0	8.592384E8	44.28877639770508	0.0	0.0	1.0612736E9	1.050107904E9	0.0	null	0.09175000339746475	0.04600000008940697	0.045249998569488525	0.9919999837875366	0.7362399697303772	0.0	244.0	371.0	0.0	0.0	0.0	0.0	0.0	0.0	null	null	null	null	null	null	null	null	332.0	334.0	333.0	337.0	334.0	332.0	337.0	332.0	335.0	335.0	335.0	
Sat Jun 03 22:40:00 UTC 2017	0.0	1.047281664E9	2725.956298828125	0.0	2.5731072E7	0.0	2.0	8.59119616E8	44.28877639770508	0.0	0.0	1.0612736E9	1.050107904E9	0.0	0.0	0.07625000178813934	0.0560000017285347	0.051500000059604645	0.9922500252723694	0.7361651062965393	0.0	244.0	371.0	0.0	0.0	0.0	0.0	0.0	0.0	null	null	null	null	null	null	null	null	335.0	338.0	335.0	333.0	336.0	335.0	337.0	336.0	336.0	333.0	334.0	
Sat Jun 03 22:39:00 UTC 2017	0.0	1.047281664E9	2295.72021484375	0.0	2.5731072E7	0.0	4.0	8.59029504E8	58.135379791259766	0.0	0.0	1.0612736E9	1.050107904E9	0.0	0.0	0.08224999904632568	0.050999999046325684	0.04774999991059303	0.9922500252723694	0.7362199425697327	0.0	244.0	371.0	0.0	0.0	0.0	0.0	0.0	0.0	null	null	null	null	null	null	null	null	337.0	339.0	336.0	334.0	334.0	338.0	332.0	334.0	335.0	334.0	335.0	
Sat Jun 03 22:38:00 UTC 2017	0.0	1.048293376E9	2295.72021484375	0.0	2.5731072E7	0.0	2.0	8.59029504E8	42.0183219909668	0.0	0.0	1.0612736E9	1.050107904E9	0.0	null	0.07374999672174454	0.04574999958276749	0.04699999839067459	0.9919999837875366	0.7361313700675964	0.0	244.0	371.0	0.0	0.0	0.0	0.0	0.0	0.0	null	null	null	null	null	null	null	null	334.0	334.0	334.0	333.0	335.0	330.0	335.0	340.0	335.0	337.0	333.0	
Sat Jun 03 22:37:00 UTC 2017	0.0	1.047281664E9	2295.72021484375	0.0	2.5731072E7	0.0	2.0	8.59029504E8	36.006195068359375	0.0	0.0	1.0612736E9	1.050107904E9	0.0	0.0	0.0702499970793724	0.05350000038743019	0.04699999839067459	0.9919999837875366	0.7361122965812683	0.0	244.0	371.0	0.0	0.0	0.0	0.0	0.0	0.0	null	null	null	null	null	null	null	null	332.0	337.0	335.0	337.0	332.0	337.0	334.0	330.0	334.0	330.0	333.0	
Sat Jun 03 22:36:00 UTC 2017	0.0	1.047281664E9	3198.73583984375	0.0	2.5731072E7	0.0	2.0	8.593408E8	36.006195068359375	0.0	0.0	1.062285312E9	1.050107904E9	0.0	0.0	0.07349999994039536	0.054249998182058334	0.05324999988079071	0.9919999837875366	0.7361113429069519	0.0	244.0	371.0	0.0	0.0	0.0	0.0	0.0	0.0	null	null	null	null	null	null	null	null	333.0	335.0	336.0	334.0	334.0	334.0	335.0	339.0	334.0	337.0	335.0	
Sat Jun 03 22:35:00 UTC 2017	0.0	1.047281664E9	3601.000244140625	0.0	2.5731072E7	0.0	2.0	8.58906624E8	39.56226348876953	0.0	0.0	1.0612736E9	1.050107904E9	0.0	0.0	0.0742499977350235	0.0494999997317791	0.04100000113248825	0.9922500252723694	0.7361348271369934	0.0	244.0	371.0	0.0	0.0	0.0	0.0	0.0	0.0	null	null	null	null	null	null	null	null	337.0	336.0	337.0	334.0	331.0	332.0	334.0	335.0	336.0	330.0	331.0	
Sat Jun 03 22:34:00 UTC 2017	0.0	1.048293376E9	3601.000244140625	0.0	2.5731072E7	0.0	2.0	8.58816512E8	50.67609786987305	0.0	0.0	1.0612736E9	1.050107904E9	0.0	0.0	0.0767500028014183	0.04749999940395355	0.05025000125169754	0.9919999837875366	0.7384025454521179	0.0	244.0	371.0	0.0	0.0	0.0	0.0	0.0	0.0	null	null	null	null	null	null	null	null	334.0	335.0	332.0	337.0	336.0	335.0	337.0	333.0	336.0	336.0	335.0	
Sat Jun 03 22:33:00 UTC 2017	0.0	1.047281664E9	3601.000244140625	0.0	2.5731072E7	0.0	4.0	8.58816512E8	51.27308654785156	0.0	1.0	1.062285312E9	1.050107904E9	0.0	0.0	0.06599999964237213	0.05225000157952309	0.04650000110268593	0.9917500019073486	0.7361034750938416	0.0	244.0	371.0	0.0	0.0	0.0	0.0	0.0	0.0	null	null	null	null	null	null	null	null	333.0	333.0	333.0	336.0	333.0	334.0	329.0	333.0	334.0	334.0	334.0	
Sat Jun 03 22:32:00 UTC 2017	0.0	1.048293376E9	3601.000244140625	0.0	2.5731072E7	0.0	6.0	8.58816512E8	54.67393112182617	0.0	1.0	1.0612736E9	1.050107904E9	0.0	0.0	0.08699999749660492	0.051249999552965164	0.0494999997317791	0.9919999837875366	0.736082911491394	0.0	244.0	371.0	0.0	0.0	0.0	0.0	0.0	0.0	null	null	null	null	null	null	null	null	333.0	336.0	336.0	333.0	338.0	333.0	336.0	337.0	332.0	333.0	333.0	
Sat Jun 03 22:31:00 UTC 2017	0.0	1.047281664E9	3601.000244140625	0.0	2.5731072E7	0.0	3.0	8.58693632E8	54.67393112182617	0.0	0.0	1.0612736E9	1.050107904E9	0.0	0.0	0.0925000011920929	0.05674999952316284	0.05000000074505806	0.9922500252723694	0.7360677719116211	0.0	244.0	371.0	0.0	0.0	0.0	0.0	0.0	0.0	null	null	null	null	null	null	null	null	334.0	335.0	339.0	336.0	331.0	336.0	333.0	335.0	335.0	336.0	336.0	
Sat Jun 03 22:30:00 UTC 2017	0.0	1.047281664E9	2552.639892578125	0.0	2.5731072E7	0.0	3.0	8.58693632E8	43.774166107177734	0.0	0.0	1.0612736E9	1.050107904E9	0.0	0.0	0.06750000268220901	0.048500001430511475	0.045249998569488525	0.9917500019073486	0.7360643744468689	0.0	244.0	371.0	0.0	0.0	0.0	0.0	0.0	0.0	null	null	null	null	null	null	null	null	338.0	337.0	333.0	332.0	338.0	333.0	335.0	335.0	331.0	335.0	338.0	
Sat Jun 03 22:29:00 UTC 2017	0.0	1.047281664E9	2613.497802734375	0.0	2.5731072E7	0.0	2.0	8.5860352E8	44.446510314941406	0.0	0.0	1.062285312E9	1.050107904E9	0.0	0.0	0.07074999809265137	0.051750000566244125	0.050999999046325684	0.9919999837875366	0.7360496520996094	0.0	244.0	371.0	0.0	0.0	0.0	0.0	0.0	0.0	null	null	null	null	null	null	null	null	329.0	334.0	335.0	335.0	331.0	334.0	334.0	337.0	335.0	332.0	332.0	
Sat Jun 03 22:28:00 UTC 2017	0.0	1.047281664E9	2465.529541015625	0.0	2.5731072E7	0.0	2.0	8.5860352E8	44.446510314941406	0.0	0.0	1.0612736E9	1.050107904E9	0.0	0.0	0.0794999971985817	0.04625000059604645	0.0430000014603138	0.9919999837875366	0.7358774542808533	0.0	244.0	371.0	0.0	0.0	0.0	0.0	0.0	0.0	null	null	null	null	null	null	null	null	335.0	336.0	337.0	337.0	335.0	337.0	335.0	332.0	336.0	338.0	334.0	
Sat Jun 03 22:27:00 UTC 2017	0.0	1.047281664E9	2790.345703125	0.0	2.5731072E7	0.0	2.0	8.5860352E8	44.446510314941406	0.0	0.0	1.0612736E9	1.050107904E9	0.0	null	0.08025000244379044	0.051500000059604645	0.04874999821186066	0.9922500252723694	0.7359836101531982	0.0	244.0	371.0	0.0	0.0	0.0	0.0	0.0	0.0	null	null	null	null	null	null	null	null	332.0	331.0	333.0	335.0	335.0	333.0	336.0	335.0	336.0	333.0	332.0	
Sat Jun 03 22:26:00 UTC 2017	0.0	1.047281664E9	2686.44921875	0.0	2.5731072E7	0.0	3.0	8.5860352E8	44.446510314941406	0.0	0.0	1.062285312E9	1.050107904E9	0.0	null	0.06424999982118607	0.051500000059604645	0.04899999871850014	0.9919999837875366	0.7359762787818909	0.0	244.0	371.0	0.0	0.0	0.0	0.0	0.0	0.0	null	null	null	null	null	null	null	null	336.0	334.0	334.0	333.0	335.0	334.0	335.0	337.0	333.0	336.0	336.0	
Sat Jun 03 22:25:00 UTC 2017	0.0	1.048293376E9	2686.44921875	0.0	2.5731072E7	0.0	2.0	8.58484736E8	60.52204132080078	0.0	0.0	1.062285312E9	1.050107904E9	0.0	0.0	0.0767500028014183	0.04800000041723251	0.05050000175833702	0.9919999837875366	0.735954761505127	0.0	244.0	371.0	0.0	0.0	0.0	0.0	0.0	0.0	null	null	null	null	null	null	null	null	331.0	336.0	337.0	338.0	334.0	336.0	331.0	333.0	335.0	334.0	335.0	
Sat Jun 03 22:24:00 UTC 2017	0.0	1.047281664E9	2686.44921875	0.0	2.5731072E7	0.0	2.0	8.58394624E8	60.52204132080078	0.0	0.0	1.062285312E9	1.050107904E9	0.0	0.0	0.08299999684095383	0.054749999195337296	0.04574999958276749	0.9919999837875366	0.7359366416931152	0.0	244.0	371.0	0.0	0.0	0.0	0.0	0.0	0.0	null	null	null	null	null	null	null	null	334.0	335.0	334.0	335.0	336.0	334.0	335.0	335.0	334.0	330.0	334.0	
Sat Jun 03 22:23:00 UTC 2017	0.0	1.048293376E9	2686.44921875	0.0	2.5731072E7	0.0	2.0	8.58394624E8	43.760093688964844	0.0	0.0	1.062285312E9	1.050107904E9	0.0	null	0.07175000011920929	0.04874999821186066	0.05050000175833702	0.9917500019073486	0.7359327077865601	0.0	244.0	371.0	0.0	0.0	0.0	0.0	0.0	0.0	null	null	null	null	null	null	null	null	334.0	334.0	338.0	334.0	333.0	334.0	335.0	336.0	334.0	336.0	334.0	
Sat Jun 03 22:22:00 UTC 2017	0.0	1.047281664E9	2686.44921875	0.0	2.5731072E7	0.0	3.0	8.58394624E8	52.103797912597656	0.0	0.0	1.0612736E9	1.050107904E9	0.0	null	0.07124999910593033	0.05575000122189522	0.0430000014603138	0.9922500252723694	0.735945463180542	0.0	244.0	371.0	0.0	0.0	0.0	0.0	0.0	0.0	null	null	null	null	null	null	null	null	334.0	333.0	335.0	336.0	332.0	332.0	332.0	332.0	336.0	335.0	330.0	
Sat Jun 03 22:21:00 UTC 2017	0.0	1.047281664E9	2320.91162109375	0.0	2.5731072E7	0.0	3.0	8.58271744E8	31.877962112426758	0.0	0.0	1.0612736E9	1.050107904E9	0.0	null	0.1067499965429306	0.048250000923871994	0.0507499985396862	0.9919999837875366	0.7359073162078857	0.0	244.0	371.0	0.0	0.0	0.0	0.0	0.0	0.0	null	null	null	null	null	null	null	null	332.0	335.0	337.0	333.0	335.0	334.0	333.0	336.0	334.0	336.0	337.0	
Sat Jun 03 22:20:00 UTC 2017	0.0	1.048293376E9	2320.91162109375	0.0	2.5731072E7	0.0	4.0	8.58271744E8	64.68128204345703	0.0	0.0	1.062285312E9	1.050107904E9	0.0	null	0.06800000369548798	0.04924999922513962	0.04924999922513962	0.9925000071525574	0.7359087467193604	0.0	244.0	371.0	0.0	0.0	0.0	0.0	0.0	0.0	null	null	null	null	null	null	null	null	335.0	337.0	335.0	337.0	335.0	334.0	334.0	333.0	336.0	337.0	334.0	
Sat Jun 03 22:19:00 UTC 2017	0.0	1.047281664E9	2320.91162109375	0.0	2.5731072E7	0.0	3.0	8.58181632E8	64.68128204345703	0.0	0.0	1.062285312E9	1.050107904E9	0.0	0.0	0.08474999666213989	0.052000001072883606	0.04374999925494194	0.9919999837875366	0.735895037651062	0.0	244.0	371.0	0.0	0.0	0.0	0.0	0.0	0.0	null	null	null	null	null	null	null	null	335.0	333.0	335.0	334.0	337.0	334.0	333.0	338.0	335.0	331.0	335.0	
Sat Jun 03 22:18:00 UTC 2017	0.0	1.047281664E9	2967.2724609375	0.0	2.5731072E7	0.0	4.0	8.58181632E8	64.68128204345703	0.0	0.0	1.0612736E9	1.050107904E9	0.0	0.0	0.07000000029802322	0.054499998688697815	0.05324999988079071	0.9922500252723694	0.7358784079551697	0.0	244.0	371.0	0.0	0.0	0.0	0.0	0.0	0.0	null	null	null	null	null	null	null	null	335.0	335.0	333.0	337.0	333.0	334.0	331.0	334.0	335.0	335.0	331.0	
Sat Jun 03 22:17:00 UTC 2017	0.0	1.048293376E9	2967.2724609375	0.0	2.5731072E7	0.0	4.0	8.58181632E8	67.88200378417969	0.0	0.0	1.0612736E9	1.050107904E9	0.0	0.0	0.07400000095367432	0.048500001430511475	0.041749998927116394	0.9919999837875366	0.7358838319778442	0.0	244.0	371.0	0.0	0.0	0.0	0.0	0.0	0.0	null	null	null	null	null	null	null	null	334.0	333.0	338.0	334.0	337.0	336.0	334.0	332.0	334.0	338.0	334.0	
Sat Jun 03 22:16:00 UTC 2017	0.0	1.048293376E9	3424.974609375	0.0	2.5731072E7	0.0	5.0	8.54818816E8	46.992374420166016	0.0	0.0	1.062285312E9	1.050107904E9	0.0	0.0	0.07124999910593033	0.054999999701976776	0.04800000041723251	0.9919999837875366	0.7358666658401489	0.0	244.0	371.0	0.0	0.0	0.0	0.0	0.0	0.0	null	null	null	null	null	null	null	null	334.0	338.0	333.0	336.0	336.0	332.0	339.0	336.0	332.0	333.0	336.0	
Sat Jun 03 22:15:00 UTC 2017	0.0	1.047281664E9	3424.974609375	0.0	2.5731072E7	0.0	3.0	8.54908928E8	50.96299743652344	0.0	0.0	1.0612736E9	1.050107904E9	0.0	0.0	0.08100000023841858	0.04625000059604645	0.05274999886751175	0.9922500252723694	0.7358906269073486	0.0	244.0	371.0	0.0	0.0	0.0	0.0	0.0	0.0	null	null	null	null	null	null	null	null	334.0	334.0	335.0	332.0	335.0	334.0	334.0	336.0	336.0	335.0	334.0	
Sat Jun 03 22:14:00 UTC 2017	0.0	1.047281664E9	2387.761474609375	0.0	2.5731072E7	0.0	2.0	8.54818816E8	46.31313705444336	0.0	0.0	1.062285312E9	1.050107904E9	0.0	0.0	0.07199999690055847	0.04874999821186066	0.04349999874830246	0.9922500252723694	0.7380571365356445	0.0	244.0	371.0	0.0	0.0	0.0	0.0	0.0	0.0	null	null	null	null	null	null	null	null	335.0	336.0	333.0	336.0	336.0	332.0	335.0	335.0	334.0	334.0	335.0	
Sat Jun 03 22:13:00 UTC 2017	0.0	1.047281664E9	2968.387451171875	0.0	2.5731072E7	0.0	4.0	8.54818816E8	46.31313705444336	0.0	0.0	1.062285312E9	1.050107904E9	0.0	0.0	0.07699999958276749	0.05674999952316284	0.04800000041723251	0.9919999837875366	0.7357546091079712	0.0	244.0	371.0	0.0	0.0	0.0	0.0	0.0	0.0	null	null	null	null	null	null	null	null	338.0	331.0	339.0	331.0	333.0	335.0	334.0	333.0	335.0	330.0	334.0	
Sat Jun 03 22:12:00 UTC 2017	0.0	1.047281664E9	2964.69140625	0.0	2.5731072E7	0.0	3.0	8.54818816E8	51.354896545410156	0.0	0.0	1.0612736E9	1.050107904E9	0.0	0.0	0.07599999755620956	0.04874999821186066	0.04699999839067459	0.9922500252723694	0.7357208728790283	0.0	244.0	371.0	0.0	0.0	0.0	0.0	0.0	0.0	null	null	null	null	null	null	null	null	333.0	336.0	335.0	334.0	338.0	330.0	336.0	331.0	338.0	334.0	335.0	
Sat Jun 03 22:11:00 UTC 2017	0.0	1.047281664E9	2385.898193359375	0.0	2.5731072E7	0.0	3.0	8.5495808E8	51.354896545410156	0.0	0.0	1.062285312E9	1.050107904E9	0.0	0.0	0.09525000303983688	0.05299999937415123	0.0494999997317791	0.9922500252723694	0.7369225025177002	0.0	244.0	371.0	0.0	0.0	0.0	0.0	0.0	0.0	null	null	null	null	null	null	null	null	335.0	336.0	333.0	337.0	332.0	333.0	337.0	338.0	335.0	334.0	334.0	
Sat Jun 03 22:10:00 UTC 2017	0.0	1.047281664E9	2492.770263671875	0.0	2.5731072E7	0.0	2.0	8.54679552E8	51.354896545410156	0.0	0.0	1.062285312E9	1.050107904E9	0.0	0.0	0.08150000125169754	0.0442500002682209	0.04899999871850014	0.9919999837875366	0.7363466620445251	0.0	244.0	371.0	0.0	0.0	0.0	0.0	0.0	0.0	null	null	null	null	null	null	null	null	334.0	335.0	336.0	333.0	335.0	334.0	333.0	334.0	332.0	337.0	336.0	
Sat Jun 03 22:09:00 UTC 2017	0.0	1.048293376E9	2492.770263671875	0.0	2.5731072E7	0.0	2.0	8.5458944E8	51.354896545410156	0.0	0.0	1.0612736E9	1.050107904E9	0.0	0.0	0.07225000113248825	0.05375000089406967	0.0507499985396862	0.9919999837875366	0.7368535399436951	0.0	244.0	371.0	0.0	0.0	0.0	0.0	0.0	0.0	null	null	null	null	null	null	null	null	333.0	338.0	337.0	339.0	337.0	337.0	332.0	334.0	337.0	335.0	333.0	
Sat Jun 03 22:08:00 UTC 2017	0.0	1.048293376E9	2423.659423828125	0.0	2.5731072E7	0.0	6.0	8.5458944E8	51.354896545410156	0.0	0.0	1.062285312E9	1.050107904E9	0.0	0.0	0.07100000232458115	0.0494999997317791	0.048500001430511475	0.9922500252723694	0.7356768250465393	0.0	244.0	371.0	0.0	0.0	0.0	0.0	0.0	0.0	null	null	null	null	null	null	null	null	333.0	334.0	332.0	331.0	333.0	331.0	336.0	332.0	333.0	334.0	334.0	
Sat Jun 03 22:07:00 UTC 2017	0.0	1.048293376E9	2863.94970703125	0.0	2.5731072E7	0.0	3.0	8.53536768E8	55.78493881225586	0.0	0.0	1.0612736E9	1.050107904E9	0.0	0.0	0.08025000244379044	0.04774999991059303	0.0442500002682209	0.9922500252723694	0.7376388311386108	0.0	244.0	371.0	0.0	0.0	0.0	0.0	0.0	0.0	null	null	null	null	null	null	null	null	336.0	335.0	334.0	338.0	334.0	336.0	332.0	336.0	335.0	339.0	338.0	
Sat Jun 03 22:06:00 UTC 2017	0.0	1.048293376E9	2839.7421875	0.0	2.5731072E7	0.0	2.0	8.53327872E8	55.78493881225586	0.0	0.0	1.0612736E9	1.050107904E9	0.0	0.0	0.07699999958276749	0.057750001549720764	0.04800000041723251	0.9922500252723694	0.7357203960418701	0.0	244.0	371.0	0.0	0.0	0.0	0.0	0.0	0.0	null	null	null	null	null	null	null	null	334.0	333.0	336.0	335.0	338.0	333.0	340.0	335.0	335.0	332.0	333.0	
Sat Jun 03 22:05:00 UTC 2017	0.0	1.048293376E9	2786.23095703125	0.0	2.5731072E7	0.0	3.0	8.53417984E8	43.44972610473633	0.0	0.0	1.062285312E9	1.050107904E9	0.0	0.0	0.07199999690055847	0.05050000175833702	0.0494999997317791	0.9919999837875366	0.737883448600769	0.0	244.0	371.0	0.0	0.0	0.0	0.0	0.0	0.0	null	null	null	null	null	null	null	null	335.0	333.0	337.0	335.0	332.0	337.0	332.0	333.0	335.0	339.0	335.0	
Sat Jun 03 22:04:00 UTC 2017	0.0	1.047281664E9	2786.23095703125	0.0	2.5731072E7	0.0	2.0	8.53327872E8	43.44972610473633	0.0	0.0	1.062285312E9	1.050107904E9	0.0	0.0	0.0767500028014183	0.04699999839067459	0.04675000160932541	0.9922500252723694	0.7357066869735718	0.0	244.0	371.0	0.0	0.0	0.0	0.0	0.0	0.0	null	null	null	null	null	null	null	null	335.0	335.0	337.0	332.0	337.0	331.0	341.0	335.0	332.0	332.0	336.0	
Sat Jun 03 22:03:00 UTC 2017	0.0	1.048293376E9	2786.23095703125	0.0	2.5731072E7	0.0	2.0	8.53327872E8	45.16842269897461	1.0	2.0	1.062285312E9	1.050107904E9	0.0	0.0	0.06925000250339508	0.05299999937415123	0.045499999076128006	0.9919999837875366	0.735689103603363	0.0	244.0	371.0	0.0	0.0	0.0	0.0	0.0	0.0	null	null	null	null	null	null	null	null	335.0	336.0	333.0	332.0	330.0	338.0	332.0	334.0	333.0	334.0	334.0	
Sat Jun 03 22:02:00 UTC 2017	0.0	1.047281664E9	2786.23095703125	0.0	2.5731072E7	0.0	2.0	8.53327872E8	55.508392333984375	0.0	1.0	1.0612736E9	1.050107904E9	0.0	0.0	0.08474999666213989	0.050999999046325684	0.04800000041723251	0.9919999837875366	0.7356851696968079	0.0	244.0	371.0	0.0	0.0	0.0	0.0	0.0	0.0	null	null	null	null	null	null	null	null	336.0	335.0	335.0	336.0	332.0	332.0	334.0	336.0	335.0	335.0	337.0	
Sat Jun 03 22:01:00 UTC 2017	0.0	1.048293376E9	2786.23095703125	0.0	2.5731072E7	0.0	2.0	8.5311488E8	55.508392333984375	0.0	0.0	1.062285312E9	1.050107904E9	0.0	0.0	0.10275000333786011	0.05700000002980232	0.04650000110268593	0.9919999837875366	0.7356705069541931	0.0	244.0	371.0	0.0	0.0	0.0	0.0	0.0	0.0	null	null	null	null	null	null	null	null	333.0	334.0	335.0	335.0	333.0	335.0	336.0	332.0	336.0	331.0	332.0	
Sat Jun 03 22:00:00 UTC 2017	0.0	1.048293376E9	2741.9951171875	0.0	2.5731072E7	0.0	2.0	8.53204992E8	55.508392333984375	0.0	0.0	1.0612736E9	1.050107904E9	0.0	0.0	0.07100000232458115	0.045499999076128006	0.05025000125169754	0.9919999837875366	0.7356499433517456	0.0	244.0	371.0	0.0	0.0	0.0	0.0	0.0	0.0	null	null	null	null	null	null	null	null	335.0	330.0	336.0	334.0	337.0	332.0	333.0	333.0	334.0	335.0	336.0	
Sat Jun 03 21:59:00 UTC 2017	0.0	1.047281664E9	2741.9951171875	0.0	2.5731072E7	0.0	3.0	8.5311488E8	63.35356903076172	0.0	0.0	1.062285312E9	1.050107904E9	0.0	0.0	0.07349999994039536	0.04975000023841858	0.04699999839067459	0.9919999837875366	0.7356958985328674	0.0	244.0	371.0	0.0	0.0	0.0	0.0	0.0	0.0	null	null	null	null	null	null	null	null	335.0	334.0	337.0	336.0	334.0	338.0	335.0	338.0	336.0	335.0	336.0	
Sat Jun 03 21:58:00 UTC 2017	0.0	1.047281664E9	2728.586181640625	0.0	2.5731072E7	0.0	3.0	8.5311488E8	43.592166900634766	0.0	1.0	1.0612736E9	1.050107904E9	0.0	0.0	0.08100000023841858	0.05400000140070915	0.051500000059604645	0.9919999837875366	0.7355907559394836	0.0	244.0	371.0	0.0	0.0	0.0	0.0	0.0	0.0	null	null	null	null	null	null	null	null	333.0	334.0	332.0	334.0	335.0	333.0	328.0	330.0	333.0	331.0	338.0	
Sat Jun 03 21:57:00 UTC 2017	0.0	1.047281664E9	2538.120361328125	0.0	2.5731072E7	0.0	3.0	8.5311488E8	48.06180191040039	0.0	1.0	1.062285312E9	1.050107904E9	0.0	0.0	0.07450000196695328	0.0572500005364418	0.045249998569488525	0.9917500019073486	0.7355755567550659	0.0	244.0	371.0	0.0	0.0	0.0	0.0	0.0	0.0	null	null	null	null	null	null	null	null	333.0	335.0	334.0	333.0	331.0	335.0	335.0	338.0	336.0	333.0	332.0	
Sat Jun 03 21:56:00 UTC 2017	0.0	1.047281664E9	2771.07763671875	0.0	2.5731072E7	0.0	2.0	8.52897792E8	48.06180191040039	0.0	0.0	1.0612736E9	1.050107904E9	0.0	0.0	0.07325000315904617	0.04899999871850014	0.04574999958276749	0.9919999837875366	0.7355750799179077	0.0	244.0	371.0	0.0	0.0	0.0	0.0	0.0	0.0	null	null	null	null	null	null	null	null	334.0	335.0	338.0	334.0	336.0	335.0	335.0	333.0	336.0	333.0	335.0	
Sat Jun 03 21:55:00 UTC 2017	0.0	1.047281664E9	2779.4375	0.0	2.5731072E7	0.0	2.0	8.52987904E8	51.573856353759766	0.0	0.0	1.0612736E9	1.050107904E9	0.0	null	0.08150000125169754	0.05274999886751175	0.04699999839067459	0.9919999837875366	0.7355584502220154	0.0	244.0	371.0	0.0	0.0	0.0	0.0	0.0	0.0	null	null	null	null	null	null	null	null	336.0	334.0	332.0	333.0	336.0	334.0	335.0	336.0	337.0	335.0	336.0	
Sat Jun 03 21:54:00 UTC 2017	0.0	1.048293376E9	2779.4375	0.0	2.5731072E7	0.0	2.0	8.52897792E8	51.573856353759766	0.0	0.0	1.0612736E9	1.050107904E9	0.0	0.0	0.07225000113248825	0.042249999940395355	0.04924999922513962	0.9922500252723694	0.7355491518974304	0.0	244.0	371.0	0.0	0.0	0.0	0.0	0.0	0.0	null	null	null	null	null	null	null	null	331.0	333.0	336.0	336.0	332.0	335.0	335.0	335.0	334.0	337.0	335.0	
Sat Jun 03 21:53:00 UTC 2017	0.0	1.047281664E9	2779.4375	0.0	2.5731072E7	0.0	2.0	8.52897792E8	42.79800796508789	0.0	0.0	1.0612736E9	1.050107904E9	0.0	0.0	0.08100000023841858	0.052000001072883606	0.05025000125169754	0.9922500252723694	0.7378203272819519	0.0	244.0	371.0	0.0	0.0	0.0	0.0	0.0	0.0	null	null	null	null	null	null	null	null	335.0	337.0	337.0	332.0	337.0	332.0	335.0	332.0	335.0	333.0	333.0	
Sat Jun 03 21:52:00 UTC 2017	0.0	1.047281664E9	2909.110595703125	0.0	2.5731072E7	0.0	2.0	8.52897792E8	42.79800796508789	0.0	0.0	1.062285312E9	1.050107904E9	0.0	0.0	0.06825000047683716	0.05025000125169754	0.04475000128149986	0.9919999837875366	0.7368447184562683	0.0	244.0	371.0	0.0	0.0	0.0	0.0	0.0	0.0	null	null	null	null	null	null	null	null	335.0	334.0	334.0	334.0	336.0	335.0	332.0	335.0	337.0	334.0	336.0	
Sat Jun 03 21:51:00 UTC 2017	0.0	1.047281664E9	2790.69384765625	0.0	2.5731072E7	0.0	2.0	8.52688896E8	42.79800796508789	0.0	0.0	1.0612736E9	1.050107904E9	0.0	0.0	0.10774999856948853	0.0572500005364418	0.04724999889731407	0.9919999837875366	0.7354762554168701	0.0	244.0	371.0	0.0	0.0	0.0	0.0	0.0	0.0	null	null	null	null	null	null	null	null	332.0	331.0	332.0	336.0	333.0	336.0	337.0	333.0	333.0	337.0	335.0	
Sat Jun 03 21:50:00 UTC 2017	0.0	1.048293376E9	2790.69384765625	0.0	2.5731072E7	0.0	3.0	8.52774912E8	42.79800796508789	0.0	0.0	1.0612736E9	1.050107904E9	0.0	0.0	0.07150000333786011	0.048250000923871994	0.051249999552965164	0.9922500252723694	0.736396074295044	0.0	244.0	371.0	0.0	0.0	0.0	0.0	0.0	0.0	null	null	null	null	null	null	null	null	332.0	335.0	338.0	333.0	334.0	336.0	335.0	329.0	338.0	336.0	334.0	
Sat Jun 03 21:49:00 UTC 2017	0.0	1.047281664E9	2790.69384765625	0.0	2.5731072E7	0.0	2.0	8.526848E8	36.08261489868164	0.0	0.0	1.0612736E9	1.050107904E9	0.0	null	0.07575000077486038	0.05225000157952309	0.04450000077486038	0.9919999837875366	0.7354126572608948	0.0	244.0	371.0	0.0	0.0	0.0	0.0	0.0	0.0	null	null	null	null	null	null	null	null	332.0	334.0	333.0	333.0	335.0	334.0	333.0	338.0	335.0	332.0	338.0	
Sat Jun 03 21:48:00 UTC 2017	0.0	1.047281664E9	2615.679443359375	0.0	2.5731072E7	0.0	2.0	8.526848E8	36.08261489868164	0.0	0.0	1.062285312E9	1.050107904E9	0.0	null	0.07450000196695328	0.04800000041723251	0.04749999940395355	0.9919999837875366	0.7353979349136353	0.0	244.0	371.0	0.0	0.0	0.0	0.0	0.0	0.0	null	null	null	null	null	null	null	null	335.0	334.0	336.0	336.0	335.0	334.0	335.0	332.0	331.0	336.0	332.0	
Sat Jun 03 21:47:00 UTC 2017	0.0	1.048293376E9	2615.679443359375	0.0	2.5731072E7	0.0	3.0	8.526848E8	51.914154052734375	0.0	0.0	1.0612736E9	1.050107904E9	0.0	null	0.07800000160932541	0.0507499985396862	0.0442500002682209	0.9917500019073486	0.7375737428665161	0.0	244.0	371.0	0.0	0.0	0.0	0.0	0.0	0.0	null	null	null	null	null	null	null	null	335.0	337.0	332.0	330.0	337.0	330.0	335.0	333.0	336.0	334.0	333.0	
Sat Jun 03 21:46:00 UTC 2017	0.0	1.047281664E9	2615.679443359375	0.0	2.5731072E7	0.0	2.0	8.526848E8	51.914154052734375	0.0	0.0	1.062285312E9	1.050107904E9	0.0	null	0.07599999755620956	0.04800000041723251	0.0507499985396862	0.9917500019073486	0.735362708568573	0.0	244.0	371.0	0.0	0.0	0.0	0.0	0.0	0.0	null	null	null	null	null	null	null	null	335.0	336.0	338.0	337.0	330.0	335.0	330.0	338.0	336.0	332.0	336.0	
Sat Jun 03 21:45:00 UTC 2017	0.0	1.047281664E9	2816.033203125	0.0	2.5731072E7	0.0	3.0	8.52566016E8	51.914154052734375	0.0	0.0	1.0612736E9	1.050107904E9	0.0	null	0.07500000298023224	0.05225000157952309	0.0442500002682209	0.9917500019073486	0.7353416681289673	0.0	244.0	371.0	0.0	0.0	0.0	0.0	0.0	0.0	null	null	null	null	null	null	null	null	337.0	335.0	331.0	334.0	336.0	335.0	338.0	335.0	332.0	336.0	335.0	
Sat Jun 03 21:44:00 UTC 2017	0.0	1.048293376E9	2816.033203125	0.0	2.5731072E7	0.0	2.0	8.52475904E8	44.75774002075195	0.0	0.0	1.0612736E9	1.050107904E9	0.0	0.0	0.07625000178813934	0.04774999991059303	0.050999999046325684	0.9917500019073486	0.7353402376174927	0.0	244.0	371.0	0.0	0.0	0.0	0.0	0.0	0.0	null	null	null	null	null	null	null	null	334.0	331.0	335.0	334.0	336.0	334.0	333.0	331.0	336.0	333.0	334.0	
Sat Jun 03 21:43:00 UTC 2017	0.0	1.047281664E9	2816.033203125	0.0	2.5731072E7	0.0	2.0	8.52475904E8	44.75774002075195	0.0	0.0	1.0612736E9	1.050107904E9	0.0	0.0	0.0742499977350235	0.054249998182058334	0.04500000178813934	0.9915000200271606	0.7354493141174316	0.0	244.0	371.0	0.0	0.0	0.0	0.0	0.0	0.0	null	null	null	null	null	null	null	null	334.0	337.0	334.0	334.0	334.0	335.0	334.0	336.0	333.0	338.0	335.0	
Sat Jun 03 21:42:00 UTC 2017	0.0	1.047281664E9	2267.30322265625	0.0	2.5731072E7	0.0	2.0	8.52475904E8	44.75774002075195	1.0	1.0	1.062285312E9	1.050107904E9	0.0	0.0	0.06624999642372131	0.05649999901652336	0.0507499985396862	0.9915000200271606	0.7354581356048584	0.0	244.0	371.0	0.0	0.0	0.0	0.0	0.0	0.0	null	null	null	null	null	null	null	null	331.0	335.0	333.0	330.0	332.0	334.0	331.0	332.0	334.0	330.0	333.0	
Sat Jun 03 21:41:00 UTC 2017	0.0	1.048293376E9	2267.30322265625	0.0	2.5731072E7	0.0	2.0	8.52262912E8	47.5728759765625	1.0	1.0	1.0612736E9	1.050107904E9	0.0	0.0	0.10074999928474426	0.04699999839067459	0.04574999958276749	0.9919999837875366	0.7354605793952942	0.0	244.0	371.0	0.0	0.0	0.0	0.0	0.0	0.0	null	null	null	null	null	null	null	null	336.0	334.0	335.0	334.0	337.0	334.0	334.0	335.0	339.0	336.0	334.0	
Sat Jun 03 21:40:00 UTC 2017	0.0	1.048293376E9	3011.2607421875	0.0	2.5731072E7	0.0	3.0	8.52353024E8	42.89030456542969	1.0	1.0	1.0612736E9	1.050107904E9	0.0	0.0	0.07874999940395355	0.057999998331069946	0.048500001430511475	0.9919999837875366	0.7354366183280945	0.0	244.0	371.0	0.0	0.0	0.0	0.0	0.0	0.0	null	null	null	null	null	null	null	null	331.0	336.0	338.0	335.0	333.0	336.0	334.0	332.0	332.0	340.0	337.0	
Sat Jun 03 21:39:00 UTC 2017	0.0	1.048293376E9	2868.20849609375	0.0	2.5731072E7	0.0	3.0	8.52262912E8	42.89030456542969	0.0	0.0	1.062285312E9	1.050107904E9	0.0	0.0	0.07649999856948853	0.04899999871850014	0.0442500002682209	0.9915000200271606	0.7377058267593384	0.0	244.0	371.0	0.0	0.0	0.0	0.0	0.0	0.0	null	null	null	null	null	null	null	null	337.0	333.0	332.0	333.0	337.0	334.0	335.0	332.0	335.0	331.0	334.0	
Sat Jun 03 21:38:00 UTC 2017	1.0	1.047281664E9	2868.20849609375	0.0	2.5731072E7	0.0	4.0	8.52262912E8	44.034156799316406	0.0	0.0	1.062285312E9	1.050107904E9	0.0	0.0	0.07374999672174454	0.05400000140070915	0.050999999046325684	0.9917500019073486	0.735410213470459	0.0	244.0	371.0	0.0	0.0	0.0	0.0	0.0	0.0	null	null	null	null	null	null	null	null	335.0	330.0	334.0	333.0	332.0	331.0	336.0	338.0	335.0	333.0	332.0	
Sat Jun 03 21:37:00 UTC 2017	0.0	1.048293376E9	2868.20849609375	0.0	2.5731072E7	0.0	3.0	8.52262912E8	43.177303314208984	0.0	0.0	1.062285312E9	1.050107904E9	0.0	null	0.07074999809265137	0.0494999997317791	0.045249998569488525	0.9919999837875366	0.7360173463821411	0.0	244.0	371.0	0.0	0.0	0.0	0.0	0.0	0.0	null	null	null	null	null	null	null	null	334.0	334.0	334.0	332.0	334.0	336.0	332.0	334.0	330.0	336.0	334.0	
Sat Jun 03 21:36:00 UTC 2017	0.0	1.047281664E9	2868.20849609375	0.0	2.5731072E7	0.0	2.0	8.5204992E8	43.177303314208984	0.0	0.0	1.0612736E9	1.050107904E9	0.0	null	0.07100000232458115	0.04650000110268593	0.05050000175833702	0.9919999837875366	0.7353768944740295	0.0	244.0	371.0	0.0	0.0	0.0	0.0	0.0	0.0	null	null	null	null	null	null	null	null	331.0	339.0	338.0	334.0	333.0	334.0	333.0	331.0	338.0	337.0	335.0	
Sat Jun 03 21:35:00 UTC 2017	0.0	1.047281664E9	2837.277099609375	0.0	2.5731072E7	0.0	2.0	8.52140032E8	44.9420280456543	0.0	0.0	1.0612736E9	1.050107904E9	0.0	0.0	0.0872500017285347	0.05624999850988388	0.04574999958276749	0.9919999837875366	0.7366348505020142	0.0	244.0	371.0	0.0	0.0	0.0	0.0	0.0	0.0	null	null	null	null	null	null	null	null	335.0	332.0	332.0	337.0	334.0	335.0	335.0	334.0	337.0	334.0	334.0	
Sat Jun 03 21:34:00 UTC 2017	0.0	1.047281664E9	2738.352783203125	0.0	2.5731072E7	0.0	3.0	8.5204992E8	44.9420280456543	0.0	0.0	1.062285312E9	1.050107904E9	0.0	0.0	0.0689999982714653	0.05050000175833702	0.04699999839067459	0.9919999837875366	0.7352511882781982	0.0	244.0	371.0	0.0	0.0	0.0	0.0	0.0	0.0	null	null	null	null	null	null	null	null	336.0	336.0	335.0	332.0	337.0	338.0	336.0	333.0	330.0	334.0	337.0	
Sat Jun 03 21:33:00 UTC 2017	0.0	1.048293376E9	2738.352783203125	0.0	2.5731072E7	0.0	2.0	8.5204992E8	57.717140197753906	0.0	0.0	1.0612736E9	1.050107904E9	0.0	0.0	0.07649999856948853	0.048250000923871994	0.04699999839067459	0.9917500019073486	0.7352169156074524	0.0	244.0	371.0	0.0	0.0	0.0	0.0	0.0	0.0	null	null	null	null	null	null	null	null	334.0	335.0	333.0	333.0	333.0	331.0	331.0	335.0	336.0	336.0	332.0	
Sat Jun 03 21:32:00 UTC 2017	0.0	1.048293376E9	2510.08154296875	0.0	2.5731072E7	0.0	3.0	8.5204992E8	57.717140197753906	1.0	3.0	1.062285312E9	1.050107904E9	0.0	0.0	0.07400000095367432	0.060499999672174454	0.048250000923871994	0.9919999837875366	0.7351455092430115	0.0	244.0	371.0	0.0	0.0	0.0	0.0	0.0	0.0	null	null	null	null	null	null	null	null	334.0	335.0	334.0	337.0	337.0	336.0	333.0	336.0	339.0	336.0	336.0	
Sat Jun 03 21:31:00 UTC 2017	0.0	1.048293376E9	2542.522216796875	0.0	2.5731072E7	0.0	2.0	8.51841024E8	40.16120910644531	1.0	1.0	1.0612736E9	1.050107904E9	0.0	0.0	0.09650000184774399	0.051750000566244125	0.05225000157952309	0.9922500252723694	0.7351269125938416	0.0	244.0	371.0	0.0	0.0	0.0	0.0	0.0	0.0	null	null	null	null	null	null	null	null	340.0	334.0	336.0	336.0	336.0	334.0	334.0	332.0	335.0	333.0	335.0	
Sat Jun 03 21:30:00 UTC 2017	0.0	1.047281664E9	2542.522216796875	0.0	2.5731072E7	0.0	2.0	8.51931136E8	56.226741790771484	0.0	0.0	1.062285312E9	1.050107904E9	0.0	0.0	0.08375000208616257	0.051750000566244125	0.0442500002682209	0.9922500252723694	0.735124945640564	0.0	244.0	371.0	0.0	0.0	0.0	0.0	0.0	0.0	null	null	null	null	null	null	null	null	334.0	335.0	336.0	333.0	332.0	331.0	335.0	333.0	334.0	335.0	332.0	
Sat Jun 03 21:29:00 UTC 2017	0.0	1.047281664E9	2382.714111328125	0.0	2.5731072E7	0.0	2.0	8.51841024E8	57.096466064453125	0.0	0.0	1.0612736E9	1.050107904E9	0.0	0.0	0.06849999725818634	0.04724999889731407	0.04574999958276749	0.9922500252723694	0.7364146709442139	0.0	244.0	371.0	0.0	0.0	0.0	0.0	0.0	0.0	null	null	null	null	null	null	null	null	334.0	336.0	335.0	335.0	335.0	335.0	335.0	336.0	333.0	330.0	335.0	
Sat Jun 03 21:28:00 UTC 2017	0.0	1.048293376E9	2382.714111328125	0.0	2.5731072E7	0.0	2.0	8.51841024E8	57.096466064453125	0.0	0.0	1.0612736E9	1.050107904E9	0.0	0.0	0.0767500028014183	0.0507499985396862	0.05324999988079071	0.9919999837875366	0.7359224557876587	0.0	244.0	371.0	0.0	0.0	0.0	0.0	0.0	0.0	null	null	null	null	null	null	null	null	336.0	336.0	334.0	337.0	336.0	334.0	332.0	335.0	334.0	337.0	334.0	
Sat Jun 03 21:27:00 UTC 2017	0.0	1.047281664E9	2382.714111328125	0.0	2.5731072E7	0.0	2.0	8.51841024E8	57.096466064453125	0.0	0.0	1.0612736E9	1.050107904E9	0.0	null	0.07400000095367432	0.04874999821186066	0.04724999889731407	0.9919999837875366	0.735062301158905	0.0	244.0	371.0	0.0	0.0	0.0	0.0	0.0	0.0	null	null	null	null	null	null	null	null	337.0	337.0	335.0	331.0	334.0	335.0	334.0	335.0	334.0	333.0	334.0	
Sat Jun 03 21:26:00 UTC 2017	0.0	1.048293376E9	2382.714111328125	0.0	2.5731072E7	0.0	4.0	8.52086784E8	57.096466064453125	0.0	0.0	1.062285312E9	1.050107904E9	0.0	null	0.07325000315904617	0.05525000020861626	0.04975000023841858	0.9922500252723694	0.7349585890769958	0.0	244.0	371.0	0.0	0.0	0.0	0.0	0.0	0.0	null	null	null	null	null	null	null	null	332.0	335.0	333.0	335.0	335.0	333.0	337.0	333.0	337.0	337.0	338.0	
Sat Jun 03 21:25:00 UTC 2017	0.0	1.048293376E9	2371.780029296875	0.0	2.5731072E7	0.0	3.0	8.51718144E8	47.35595703125	0.0	0.0	1.062285312E9	1.050107904E9	0.0	0.0	0.07325000315904617	0.04800000041723251	0.045249998569488525	0.9922500252723694	0.7349546551704407	0.0	244.0	371.0	0.0	0.0	0.0	0.0	0.0	0.0	null	null	null	null	null	null	null	null	336.0	332.0	334.0	335.0	335.0	335.0	333.0	335.0	332.0	334.0	336.0	
Sat Jun 03 21:24:00 UTC 2017	0.0	1.047281664E9	2371.780029296875	0.0	2.5731072E7	0.0	3.0	8.51628032E8	33.75737380981445	0.0	0.0	1.0612736E9	1.050107904E9	0.0	0.0	0.08025000244379044	0.052000001072883606	0.05000000074505806	0.9919999837875366	0.7349399924278259	0.0	244.0	371.0	0.0	0.0	0.0	0.0	0.0	0.0	null	null	null	null	null	null	null	null	334.0	334.0	335.0	333.0	330.0	336.0	332.0	335.0	334.0	332.0	334.0	
Sat Jun 03 21:23:00 UTC 2017	0.0	1.048293376E9	2371.780029296875	0.0	2.5731072E7	0.0	3.0	8.51628032E8	33.75737380981445	0.0	0.0	1.0612736E9	1.050107904E9	0.0	0.0	0.06949999928474426	0.052000001072883606	0.04500000178813934	0.9922500252723694	0.7349199652671814	0.0	244.0	371.0	0.0	0.0	0.0	0.0	0.0	0.0	null	null	null	null	null	null	null	null	334.0	337.0	336.0	336.0	336.0	334.0	337.0	338.0	334.0	333.0	336.0	
Sat Jun 03 21:22:00 UTC 2017	0.0	1.048293376E9	3268.81689453125	0.0	2.5731072E7	0.0	4.0	8.51628032E8	35.879215240478516	0.0	0.0	1.0612736E9	1.050107904E9	0.0	0.0	0.0820000022649765	0.050999999046325684	0.04574999958276749	0.9919999837875366	0.7350080013275146	0.0	244.0	371.0	0.0	0.0	0.0	0.0	0.0	0.0	null	null	null	null	null	null	null	null	335.0	329.0	335.0	337.0	335.0	334.0	335.0	329.0	335.0	335.0	331.0	
Sat Jun 03 21:21:00 UTC 2017	0.0	1.048293376E9	2385.241943359375	0.0	2.5731072E7	0.0	5.0	8.51873792E8	35.879215240478516	0.0	0.0	1.0612736E9	1.050107904E9	0.0	0.0	0.09049999713897705	0.04774999991059303	0.048250000923871994	0.9922500252723694	0.7349199652671814	0.0	244.0	371.0	0.0	0.0	0.0	0.0	0.0	0.0	null	null	null	null	null	null	null	null	333.0	336.0	337.0	334.0	335.0	336.0	329.0	335.0	337.0	334.0	334.0	
Sat Jun 03 21:20:00 UTC 2017	0.0	1.048293376E9	2856.755859375	0.0	2.5731072E7	0.0	5.0	8.51505152E8	35.879215240478516	0.0	0.0	1.0612736E9	1.050107904E9	0.0	0.0	0.08349999785423279	0.05674999952316284	0.052000001072883606	0.9919999837875366	0.7348998785018921	0.0	244.0	371.0	0.0	0.0	0.0	0.0	0.0	0.0	null	null	null	null	null	null	null	null	334.0	338.0	334.0	336.0	336.0	333.0	334.0	335.0	335.0	334.0	335.0	
Sat Jun 03 21:19:00 UTC 2017	0.0	1.047281664E9	2856.755859375	0.0	2.5731072E7	0.0	2.0	8.49313792E8	35.879215240478516	0.0	0.0	1.062285312E9	1.050107904E9	0.0	0.0	0.07124999910593033	0.04600000008940697	0.04574999958276749	0.9919999837875366	0.734971821308136	0.0	244.0	371.0	0.0	0.0	0.0	0.0	0.0	0.0	null	null	null	null	null	null	null	null	333.0	334.0	338.0	330.0	336.0	336.0	336.0	336.0	333.0	337.0	333.0	
Sat Jun 03 21:18:00 UTC 2017	0.0	1.048293376E9	2856.755859375	0.0	2.5731072E7	0.0	2.0	8.49313792E8	55.5373649597168	0.0	0.0	1.062285312E9	1.050107904E9	0.0	0.0	0.07050000131130219	0.05649999901652336	0.048500001430511475	0.9922500252723694	0.7348974347114563	0.0	244.0	371.0	0.0	0.0	0.0	0.0	0.0	0.0	null	null	null	null	null	null	null	null	337.0	336.0	332.0	337.0	335.0	331.0	331.0	333.0	338.0	330.0	335.0	
Sat Jun 03 21:17:00 UTC 2017	0.0	1.048293376E9	2536.580810546875	0.0	2.5731072E7	0.0	2.0	8.49313792E8	55.5373649597168	0.0	0.0	1.062285312E9	1.050107904E9	0.0	0.0	0.0767500028014183	0.04724999889731407	0.05050000175833702	0.9919999837875366	0.7347785234451294	0.0	244.0	371.0	0.0	0.0	0.0	0.0	0.0	0.0	null	null	null	null	null	null	null	null	332.0	331.0	334.0	332.0	337.0	335.0	336.0	337.0	332.0	335.0	337.0	
Sat Jun 03 21:16:00 UTC 2017	0.0	1.048293376E9	2935.03466796875	0.0	2.5731072E7	0.0	2.0	8.49195008E8	43.3156623840332	0.0	0.0	1.062285312E9	1.050107904E9	0.0	0.0	0.0794999971985817	0.054499998688697815	0.04650000110268593	0.9919999837875366	0.734774649143219	0.0	244.0	371.0	0.0	0.0	0.0	0.0	0.0	0.0	null	null	null	null	null	null	null	null	334.0	336.0	335.0	335.0	334.0	336.0	334.0	333.0	333.0	337.0	333.0	
Sat Jun 03 21:15:00 UTC 2017	0.0	1.047281664E9	2935.03466796875	0.0	2.5731072E7	0.0	2.0	8.49195008E8	46.319358825683594	0.0	0.0	1.0612736E9	1.050107904E9	0.0	0.0	0.07800000160932541	0.04699999839067459	0.05050000175833702	0.9922500252723694	0.7368109822273254	0.0	244.0	371.0	0.0	0.0	0.0	0.0	0.0	0.0	null	null	null	null	null	null	null	null	336.0	336.0	336.0	332.0	334.0	330.0	333.0	333.0	337.0	336.0	334.0	
Sat Jun 03 21:14:00 UTC 2017	0.0	1.047281664E9	2716.099853515625	0.0	2.5731072E7	0.0	2.0	8.49104896E8	46.319358825683594	0.0	0.0	1.062285312E9	1.050107904E9	0.0	0.0	0.07400000095367432	0.051500000059604645	0.04650000110268593	0.9919999837875366	0.73487788438797	0.0	244.0	371.0	0.0	0.0	0.0	0.0	0.0	0.0	null	null	null	null	null	null	null	null	337.0	329.0	332.0	333.0	334.0	336.0	332.0	335.0	331.0	336.0	336.0	
Sat Jun 03 21:13:00 UTC 2017	0.0	1.047281664E9	2732.721923828125	0.0	2.5731072E7	0.0	4.0	8.49104896E8	55.37627029418945	0.0	0.0	1.0612736E9	1.050107904E9	0.0	0.0	0.06875000149011612	0.0507499985396862	0.051750000566244125	0.9922500252723694	0.7348514199256897	0.0	244.0	371.0	0.0	0.0	0.0	0.0	0.0	0.0	null	null	null	null	null	null	null	null	331.0	337.0	338.0	333.0	333.0	334.0	335.0	336.0	335.0	335.0	335.0	
Sat Jun 03 21:12:00 UTC 2017	0.0	1.047281664E9	2485.061767578125	0.0	2.5731072E7	0.0	5.0	8.49104896E8	55.37627029418945	0.0	0.0	1.0612736E9	1.050107904E9	0.0	null	0.07325000315904617	0.051500000059604645	0.04675000160932541	0.9922500252723694	0.7348000407218933	0.0	244.0	371.0	0.0	0.0	0.0	0.0	0.0	0.0	null	null	null	null	null	null	null	null	336.0	331.0	333.0	334.0	339.0	333.0	333.0	332.0	334.0	334.0	335.0	
Sat Jun 03 21:11:00 UTC 2017	0.0	1.048293376E9	2485.061767578125	0.0	2.5731072E7	0.0	3.0	8.49350656E8	55.37627029418945	0.0	0.0	1.062285312E9	1.050107904E9	0.0	null	0.1054999977350235	0.04699999839067459	0.04324999824166298	0.9917500019073486	0.7347844243049622	0.0	244.0	371.0	0.0	0.0	0.0	0.0	0.0	0.0	null	null	null	null	null	null	null	null	335.0	337.0	335.0	337.0	332.0	335.0	337.0	337.0	335.0	336.0	335.0	
Sat Jun 03 21:10:00 UTC 2017	0.0	1.047281664E9	2485.061767578125	0.0	2.5731072E7	0.0	3.0	8.4924416E8	55.37627029418945	1.0	1.0	1.062285312E9	1.050107904E9	0.0	0.0	0.07575000077486038	0.05324999988079071	0.04800000041723251	0.9919999837875366	0.7347937226295471	0.0	244.0	371.0	0.0	0.0	0.0	0.0	0.0	0.0	null	null	null	null	null	null	null	null	335.0	334.0	336.0	333.0	336.0	335.0	334.0	336.0	335.0	332.0	332.0	
Sat Jun 03 21:09:00 UTC 2017	0.0	1.048293376E9	2485.061767578125	0.0	2.5731072E7	0.0	2.0	8.48830464E8	55.37627029418945	0.0	1.0	1.0612736E9	1.050107904E9	0.0	0.0	0.07100000232458115	0.054749999195337296	0.0494999997317791	0.9917500019073486	0.7370619773864746	0.0	244.0	371.0	0.0	0.0	0.0	0.0	0.0	0.0	null	null	null	null	null	null	null	null	334.0	336.0	332.0	333.0	333.0	333.0	334.0	335.0	335.0	335.0	339.0	
Sat Jun 03 21:08:00 UTC 2017	0.0	1.048293376E9	2825.904052734375	0.0	2.5731072E7	0.0	2.0	8.48830464E8	50.220375061035156	0.0	1.0	1.0612736E9	1.050107904E9	0.0	0.0	0.07824999839067459	0.05274999886751175	0.0507499985396862	0.9922500252723694	0.7347609400749207	0.0	244.0	371.0	0.0	0.0	0.0	0.0	0.0	0.0	null	null	null	null	null	null	null	null	334.0	332.0	332.0	338.0	333.0	334.0	336.0	333.0	335.0	336.0	333.0	
Sat Jun 03 21:07:00 UTC 2017	0.0	1.048293376E9	3561.545654296875	0.0	2.5731072E7	0.0	3.0	8.48830464E8	38.96807861328125	1.0	1.0	1.0612736E9	1.050107904E9	0.0	0.0	0.06599999964237213	0.05274999886751175	0.04774999991059303	0.9919999837875366	0.7347594499588013	0.0	244.0	371.0	0.0	0.0	0.0	0.0	0.0	0.0	null	null	null	null	null	null	null	null	335.0	334.0	339.0	335.0	335.0	335.0	335.0	338.0	336.0	335.0	331.0	
Sat Jun 03 21:06:00 UTC 2017	0.0	1.047281664E9	3561.545654296875	0.0	2.5731072E7	0.0	2.0	8.48703488E8	50.42681121826172	0.0	0.0	1.0612736E9	1.050107904E9	0.0	null	0.07575000077486038	0.05050000175833702	0.048500001430511475	0.9922500252723694	0.7347443103790283	0.0	244.0	371.0	0.0	0.0	0.0	0.0	0.0	0.0	null	null	null	null	null	null	null	null	334.0	334.0	331.0	333.0	334.0	331.0	331.0	336.0	331.0	331.0	338.0	
Sat Jun 03 21:05:00 UTC 2017	0.0	1.048293376E9	3561.545654296875	0.0	2.5731072E7	0.0	4.0	8.48703488E8	50.42681121826172	0.0	0.0	1.0612736E9	1.050107904E9	0.0	0.0	0.07275000214576721	0.05400000140070915	0.04874999821186066	0.9915000200271606	0.7370003461837769	0.0	244.0	371.0	0.0	0.0	0.0	0.0	0.0	0.0	null	null	null	null	null	null	null	null	335.0	335.0	338.0	333.0	337.0	336.0	334.0	336.0	338.0	334.0	331.0	
Sat Jun 03 21:04:00 UTC 2017	0.0	1.047281664E9	3561.545654296875	0.0	2.5731072E7	0.0	6.0	8.48613376E8	50.42681121826172	0.0	0.0	1.062285312E9	1.050107904E9	0.0	0.0	0.08174999803304672	0.04699999839067459	0.04975000023841858	0.9922500252723694	0.7347971200942993	0.0	244.0	371.0	0.0	0.0	0.0	0.0	0.0	0.0	null	null	null	null	null	null	null	null	336.0	337.0	332.0	339.0	332.0	333.0	338.0	333.0	332.0	337.0	336.0	
Sat Jun 03 21:03:00 UTC 2017	0.0	1.047281664E9	2712.85205078125	0.0	2.5731072E7	0.0	9.0	8.48613376E8	50.42681121826172	0.0	1.0	1.0612736E9	1.050107904E9	0.0	0.0	0.07699999958276749	0.05624999850988388	0.04924999922513962	0.9919999837875366	0.7347041964530945	0.0	244.0	371.0	0.0	0.0	0.0	0.0	0.0	0.0	null	null	null	null	null	null	null	null	333.0	334.0	334.0	337.0	335.0	334.0	329.0	333.0	335.0	335.0	338.0	
Sat Jun 03 21:02:00 UTC 2017	0.0	1.048293376E9	2712.85205078125	0.0	2.5731072E7	0.0	4.0	8.475648E8	50.42681121826172	0.0	0.0	1.0612736E9	1.050107904E9	0.0	0.0	0.07124999910593033	0.04625000059604645	0.04724999889731407	0.9917500019073486	0.7346845865249634	0.0	244.0	371.0	0.0	0.0	0.0	0.0	0.0	0.0	null	null	null	null	null	null	null	null	336.0	332.0	338.0	334.0	337.0	334.0	336.0	333.0	334.0	335.0	332.0	
Sat Jun 03 21:01:00 UTC 2017	0.0	1.048293376E9	3169.878173828125	0.0	2.5731072E7	0.0	2.0	8.47351808E8	50.42681121826172	0.0	0.0	1.062285312E9	1.050107904E9	0.0	0.0	0.10300000011920929	0.05525000020861626	0.041749998927116394	0.9919999837875366	0.7346929311752319	0.0	244.0	371.0	0.0	0.0	0.0	0.0	0.0	0.0	null	null	null	null	null	null	null	null	331.0	338.0	334.0	336.0	333.0	334.0	337.0	338.0	338.0	335.0	334.0	
Sat Jun 03 21:00:00 UTC 2017	0.0	1.047281664E9	3169.878173828125	0.0	2.5731072E7	0.0	2.0	8.4744192E8	50.42681121826172	0.0	0.0	1.0612736E9	1.050107904E9	0.0	0.0	0.06975000351667404	0.045249998569488525	0.05000000074505806	0.9919999837875366	0.7346699237823486	0.0	244.0	371.0	0.0	0.0	0.0	0.0	0.0	0.0	null	null	null	null	null	null	null	null	337.0	335.0	331.0	332.0	334.0	337.0	334.0	330.0	334.0	335.0	335.0	
Sat Jun 03 20:59:00 UTC 2017	0.0	1.048293376E9	3169.878173828125	0.0	2.5731072E7	0.0	2.0	8.47351808E8	50.42681121826172	0.0	0.0	1.062285312E9	1.050107904E9	0.0	0.0	0.07750000059604645	0.05624999850988388	0.0494999997317791	0.9919999837875366	0.7369308471679688	0.0	244.0	371.0	0.0	0.0	0.0	0.0	0.0	0.0	null	null	null	null	null	null	null	null	337.0	335.0	336.0	339.0	339.0	333.0	333.0	332.0	336.0	335.0	336.0	
Sat Jun 03 20:58:00 UTC 2017	0.0	1.047281664E9	3169.878173828125	0.0	2.5731072E7	0.0	2.0	8.47351808E8	50.42681121826172	0.0	0.0	1.062285312E9	1.050107904E9	0.0	0.0	0.07824999839067459	0.04874999821186066	0.04399999976158142	0.9919999837875366	0.735901415348053	0.0	244.0	371.0	0.0	0.0	0.0	0.0	0.0	0.0	null	null	null	null	null	null	null	null	331.0	333.0	331.0	332.0	330.0	337.0	334.0	337.0	332.0	335.0	334.0	
Sat Jun 03 20:57:00 UTC 2017	0.0	1.047281664E9	2903.701416015625	0.0	2.5731072E7	0.0	2.0	8.47351808E8	42.912662506103516	0.0	0.0	1.0612736E9	1.050107904E9	0.0	0.0	0.06849999725818634	0.04975000023841858	0.04975000023841858	0.9919999837875366	0.7346380949020386	0.0	244.0	371.0	0.0	0.0	0.0	0.0	0.0	0.0	null	null	null	null	null	null	null	null	332.0	334.0	335.0	334.0	335.0	330.0	337.0	330.0	336.0	339.0	336.0	
Sat Jun 03 20:56:00 UTC 2017	0.0	1.047281664E9	2491.948486328125	0.0	2.5731072E7	0.0	3.0	8.47601664E8	37.27653884887695	0.0	0.0	1.0612736E9	1.050107904E9	0.0	0.0	0.0832500010728836	0.04800000041723251	0.04874999821186066	0.9922500252723694	0.7346161007881165	0.0	244.0	371.0	0.0	0.0	0.0	0.0	0.0	0.0	null	null	null	null	null	null	null	null	335.0	332.0	339.0	335.0	334.0	338.0	331.0	336.0	335.0	331.0	334.0	
Sat Jun 03 20:55:00 UTC 2017	0.0	1.047281664E9	2893.406982421875	0.0	2.5731072E7	0.0	2.0	8.47233024E8	37.27653884887695	0.0	0.0	1.062285312E9	1.050107904E9	0.0	0.0	0.06674999743700027	0.05375000089406967	0.048500001430511475	0.9922500252723694	0.7367860078811646	0.0	244.0	371.0	0.0	0.0	0.0	0.0	0.0	0.0	null	null	null	null	null	null	null	null	332.0	336.0	332.0	336.0	335.0	332.0	335.0	335.0	337.0	337.0	334.0	
Sat Jun 03 20:54:00 UTC 2017	0.0	1.047281664E9	2925.960205078125	0.0	2.5731072E7	0.0	2.0	8.47142912E8	56.249298095703125	0.0	0.0	1.0612736E9	1.050107904E9	0.0	0.0	0.0832500010728836	0.048500001430511475	0.04349999874830246	0.9922500252723694	0.7345985174179077	0.0	244.0	371.0	0.0	0.0	0.0	0.0	0.0	0.0	null	null	null	null	null	null	null	null	334.0	337.0	335.0	333.0	331.0	335.0	336.0	333.0	334.0	330.0	335.0	
Sat Jun 03 20:53:00 UTC 2017	0.0	1.047281664E9	2595.8017578125	0.0	2.5731072E7	0.0	2.0	8.47142912E8	56.249298095703125	0.0	0.0	1.0612736E9	1.050107904E9	0.0	0.0	0.07374999672174454	0.04924999922513962	0.04874999821186066	0.9919999837875366	0.7345779538154602	0.0	244.0	371.0	0.0	0.0	0.0	0.0	0.0	0.0	null	null	null	null	null	null	null	null	334.0	334.0	333.0	336.0	335.0	337.0	333.0	337.0	335.0	335.0	336.0	
Sat Jun 03 20:52:00 UTC 2017	0.0	1.048293376E9	2595.8017578125	0.0	2.5731072E7	0.0	3.0	8.47142912E8	57.940887451171875	0.0	0.0	1.062285312E9	1.050107904E9	0.0	0.0	0.06825000047683716	0.054499998688697815	0.0494999997317791	0.9922500252723694	0.7345662117004395	0.0	244.0	371.0	0.0	0.0	0.0	0.0	0.0	0.0	null	null	null	null	null	null	null	null	333.0	336.0	334.0	331.0	334.0	331.0	337.0	334.0	332.0	333.0	332.0	
Sat Jun 03 20:51:00 UTC 2017	0.0	1.048293376E9	3190.130126953125	0.0	2.5731072E7	0.0	3.0	8.47388672E8	64.97616577148438	1.0	1.0	1.062285312E9	1.050107904E9	0.0	null	0.10374999791383743	0.051500000059604645	0.04774999991059303	0.9922500252723694	0.7368241548538208	0.0	244.0	371.0	0.0	0.0	0.0	0.0	0.0	0.0	null	null	null	null	null	null	null	null	335.0	337.0	338.0	336.0	335.0	337.0	333.0	335.0	336.0	334.0	334.0	
Sat Jun 03 20:50:00 UTC 2017	0.0	1.047281664E9	3190.130126953125	0.0	2.5731072E7	0.0	3.0	8.47020032E8	64.97616577148438	1.0	0.0	1.0612736E9	1.050107904E9	0.0	null	0.07724999636411667	0.052000001072883606	0.048500001430511475	0.9919999837875366	0.7345407605171204	0.0	244.0	371.0	0.0	0.0	0.0	0.0	0.0	0.0	null	null	null	null	null	null	null	null	334.0	334.0	336.0	335.0	334.0	333.0	335.0	330.0	334.0	333.0	335.0	
Sat Jun 03 20:49:00 UTC 2017	0.0	1.047281664E9	2336.329345703125	0.0	2.5731072E7	0.0	2.0	8.4692992E8	64.97616577148438	1.0	0.0	1.062285312E9	1.050107904E9	0.0	null	0.06674999743700027	0.05700000002980232	0.04500000178813934	0.9922500252723694	0.7345339059829712	0.0	244.0	371.0	0.0	0.0	0.0	0.0	0.0	0.0	null	null	null	null	null	null	null	null	334.0	336.0	335.0	336.0	333.0	335.0	331.0	336.0	334.0	337.0	337.0	
Sat Jun 03 20:48:00 UTC 2017	0.0	1.047281664E9	2395.59716796875	0.0	2.5731072E7	0.0	2.0	8.4692992E8	64.97616577148438	1.0	1.0	1.0612736E9	1.050107904E9	0.0	null	0.0742499977350235	0.05299999937415123	0.05000000074505806	0.9922500252723694	0.7349771857261658	0.0	244.0	371.0	0.0	0.0	0.0	0.0	0.0	0.0	null	null	null	null	null	null	null	null	335.0	335.0	337.0	336.0	335.0	335.0	335.0	335.0	337.0	331.0	333.0	
Sat Jun 03 20:47:00 UTC 2017	0.0	1.048293376E9	2395.59716796875	0.0	2.5731072E7	0.0	2.0	8.4692992E8	64.97616577148438	0.0	0.0	1.0612736E9	1.050107904E9	0.0	0.0	0.08025000244379044	0.04800000041723251	0.04899999871850014	0.9919999837875366	0.7345128655433655	0.0	244.0	371.0	0.0	0.0	0.0	0.0	0.0	0.0	null	null	null	null	null	null	null	null	334.0	334.0	332.0	331.0	336.0	334.0	334.0	333.0	333.0	336.0	337.0	
Sat Jun 03 20:46:00 UTC 2017	0.0	1.048293376E9	2784.265625	0.0	2.5731072E7	0.0	3.0	8.46716928E8	64.97616577148438	0.0	0.0	1.0612736E9	1.050107904E9	0.0	0.0	0.07124999910593033	0.052000001072883606	0.0442500002682209	0.9922500252723694	0.7345089316368103	0.0	244.0	371.0	0.0	0.0	0.0	0.0	0.0	0.0	null	null	null	null	null	null	null	null	336.0	335.0	337.0	337.0	335.0	333.0	334.0	335.0	336.0	334.0	334.0	
Sat Jun 03 20:45:00 UTC 2017	0.0	1.047281664E9	2784.265625	0.0	2.5731072E7	0.0	2.0	8.4680704E8	64.97616577148438	0.0	0.0	1.0612736E9	1.050107904E9	0.0	null	0.0794999971985817	0.048500001430511475	0.0494999997317791	0.9919999837875366	0.7345651984214783	0.0	244.0	371.0	0.0	0.0	0.0	0.0	0.0	0.0	null	null	null	null	null	null	null	null	332.0	334.0	335.0	334.0	334.0	338.0	334.0	338.0	336.0	334.0	335.0	
Sat Jun 03 20:44:00 UTC 2017	0.0	1.047281664E9	2645.7841796875	0.0	2.5731072E7	0.0	3.0	8.46716928E8	64.97616577148438	0.0	0.0	1.0612736E9	1.050107904E9	0.0	0.0	0.07374999672174454	0.051500000059604645	0.04475000128149986	0.9919999837875366	0.7362703084945679	0.0	244.0	371.0	0.0	0.0	0.0	0.0	0.0	0.0	null	null	null	null	null	null	null	null	335.0	337.0	333.0	332.0	332.0	334.0	334.0	335.0	336.0	335.0	337.0	
Sat Jun 03 20:43:00 UTC 2017	0.0	1.047281664E9	2740.932861328125	0.0	2.5731072E7	0.0	2.0	8.46716928E8	64.97616577148438	0.0	0.0	1.062285312E9	1.050107904E9	0.0	0.0	0.06849999725818634	0.05525000020861626	0.04874999821186066	0.9925000071525574	0.734474241733551	0.0	244.0	371.0	0.0	0.0	0.0	0.0	0.0	0.0	null	null	null	null	null	null	null	null	330.0	335.0	338.0	337.0	337.0	334.0	333.0	334.0	336.0	335.0	334.0	
Sat Jun 03 20:42:00 UTC 2017	0.0	1.047281664E9	2222.5703125	0.0	2.5731072E7	0.0	3.0	8.46716928E8	64.97616577148438	0.0	0.0	1.0612736E9	1.050107904E9	0.0	0.0	0.07649999856948853	0.050999999046325684	0.04874999821186066	0.9917500019073486	0.7344541549682617	0.0	244.0	371.0	0.0	0.0	0.0	0.0	0.0	0.0	null	null	null	null	null	null	null	null	338.0	334.0	335.0	334.0	333.0	335.0	334.0	332.0	334.0	335.0	335.0	
Sat Jun 03 20:41:00 UTC 2017	0.0	1.047281664E9	2703.4228515625	0.0	2.5731072E7	0.0	2.0	8.46508032E8	64.97616577148438	0.0	0.0	1.0612736E9	1.050107904E9	0.0	0.0	0.10199999809265137	0.04650000110268593	0.045249998569488525	0.9919999837875366	0.7344311475753784	0.0	244.0	371.0	0.0	0.0	0.0	0.0	0.0	0.0	null	null	null	null	null	null	null	null	334.0	334.0	332.0	333.0	336.0	332.0	337.0	331.0	334.0	335.0	332.0	
Sat Jun 03 20:40:00 UTC 2017	0.0	1.048293376E9	2703.4228515625	0.0	2.5731072E7	0.0	2.0	8.46598144E8	33.9461784362793	0.0	0.0	1.062285312E9	1.050107904E9	0.0	0.0	0.07325000315904617	0.05225000157952309	0.051249999552965164	0.9919999837875366	0.7344306707382202	0.0	244.0	371.0	0.0	0.0	0.0	0.0	0.0	0.0	null	null	null	null	null	null	null	null	335.0	334.0	336.0	336.0	335.0	335.0	335.0	338.0	333.0	334.0	332.0	
Sat Jun 03 20:39:00 UTC 2017	0.0	1.047281664E9	2703.4228515625	0.0	2.5731072E7	0.0	5.0	8.46508032E8	62.84040451049805	0.0	0.0	1.0612736E9	1.050107904E9	0.0	0.0	0.0754999965429306	0.05274999886751175	0.04800000041723251	0.9922500252723694	0.736690104007721	0.0	244.0	371.0	0.0	0.0	0.0	0.0	0.0	0.0	null	null	null	null	null	null	null	null	333.0	336.0	333.0	336.0	335.0	336.0	333.0	337.0	337.0	335.0	335.0	
Sat Jun 03 20:38:00 UTC 2017	0.0	1.047281664E9	2977.780029296875	0.0	2.5731072E7	0.0	2.0	8.46508032E8	70.2153091430664	1.0	2.0	1.062285312E9	1.050107904E9	0.0	0.0	0.06825000047683716	0.05624999850988388	0.04625000059604645	0.9922500252723694	0.7343729138374329	0.0	244.0	371.0	0.0	0.0	0.0	0.0	0.0	0.0	null	null	null	null	null	null	null	null	335.0	333.0	332.0	332.0	333.0	334.0	334.0	336.0	334.0	332.0	335.0	
Sat Jun 03 20:37:00 UTC 2017	0.0	1.048293376E9	2977.780029296875	0.0	2.5731072E7	0.0	2.0	8.46508032E8	66.09276580810547	0.0	0.0	1.062285312E9	1.050107904E9	0.0	null	0.0702499970793724	0.04874999821186066	0.04699999839067459	0.9922500252723694	0.7343651056289673	0.0	244.0	371.0	0.0	0.0	0.0	0.0	0.0	0.0	null	null	null	null	null	null	null	null	331.0	335.0	334.0	335.0	333.0	335.0	336.0	331.0	334.0	336.0	333.0	
Sat Jun 03 20:36:00 UTC 2017	0.0	1.048293376E9	2676.458740234375	0.0	2.5731072E7	0.0	5.0	8.46385152E8	66.09276580810547	0.0	0.0	1.0612736E9	1.050107904E9	0.0	null	0.07925000041723251	0.051750000566244125	0.05400000140070915	0.9919999837875366	0.7343714833259583	0.0	244.0	371.0	0.0	0.0	0.0	0.0	0.0	0.0	null	null	null	null	null	null	null	null	337.0	337.0	333.0	336.0	337.0	335.0	334.0	338.0	334.0	333.0	334.0	
Sat Jun 03 20:35:00 UTC 2017	0.0	1.047281664E9	2676.458740234375	0.0	2.5731072E7	0.0	2.0	8.46385152E8	62.30558776855469	0.0	0.0	1.062285312E9	1.050107904E9	0.0	null	0.07349999994039536	0.04975000023841858	0.042750000953674316	0.9919999837875366	0.7344468235969543	0.0	244.0	371.0	0.0	0.0	0.0	0.0	0.0	0.0	null	null	null	null	null	null	null	null	332.0	336.0	336.0	334.0	334.0	332.0	335.0	334.0	335.0	333.0	332.0	
Sat Jun 03 20:34:00 UTC 2017	0.0	1.047281664E9	2631.9677734375	0.0	2.5731072E7	0.0	2.0	8.46299136E8	62.30558776855469	0.0	0.0	1.0612736E9	1.050107904E9	0.0	null	0.08100000023841858	0.04699999839067459	0.051500000059604645	0.9919999837875366	0.7356445789337158	0.0	244.0	371.0	0.0	0.0	0.0	0.0	0.0	0.0	null	null	null	null	null	null	null	null	340.0	333.0	335.0	338.0	333.0	334.0	337.0	332.0	337.0	338.0	336.0	
Sat Jun 03 20:33:00 UTC 2017	0.0	1.048293376E9	2631.9677734375	0.0	2.5731072E7	0.0	2.0	8.46299136E8	62.30558776855469	1.0	1.0	1.0612736E9	1.050107904E9	0.0	null	0.06800000369548798	0.0560000017285347	0.0430000014603138	0.9919999837875366	0.7343524098396301	0.0	244.0	371.0	0.0	0.0	0.0	0.0	0.0	0.0	null	null	null	null	null	null	null	null	333.0	337.0	333.0	335.0	338.0	338.0	335.0	338.0	334.0	333.0	330.0	
Sat Jun 03 20:32:00 UTC 2017	0.0	1.048293376E9	2844.826171875	0.0	2.5731072E7	0.0	2.0	8.46299136E8	54.28792190551758	3.0	4.0	1.062285312E9	1.050107904E9	0.0	null	0.0807500034570694	0.060750000178813934	0.04874999821186066	0.9917500019073486	0.7342868447303772	0.0	244.0	371.0	0.0	0.0	0.0	0.0	0.0	0.0	null	null	null	null	null	null	null	null	334.0	333.0	335.0	333.0	334.0	331.0	334.0	334.0	332.0	335.0	332.0	
Sat Jun 03 20:31:00 UTC 2017	0.0	1.047281664E9	2844.826171875	0.0	2.5731072E7	0.0	4.0	8.46086144E8	54.28792190551758	0.0	0.0	1.062285312E9	1.050107904E9	0.0	0.0	0.09875000268220901	0.05000000074505806	0.04724999889731407	0.9917500019073486	0.7365546226501465	0.0	244.0	371.0	0.0	0.0	0.0	0.0	0.0	0.0	null	null	null	null	null	null	null	null	337.0	334.0	336.0	338.0	333.0	339.0	335.0	333.0	332.0	336.0	334.0	
Sat Jun 03 20:30:00 UTC 2017	0.0	1.047281664E9	2669.216796875	0.0	2.5731072E7	0.0	2.0	8.46176256E8	54.28792190551758	0.0	0.0	1.0612736E9	1.050107904E9	0.0	0.0	0.07249999791383743	0.054249998182058334	0.048250000923871994	0.9915000200271606	0.7342457175254822	0.0	244.0	371.0	0.0	0.0	0.0	0.0	0.0	0.0	null	null	null	null	null	null	null	null	332.0	336.0	333.0	333.0	334.0	333.0	334.0	337.0	335.0	336.0	336.0	
Sat Jun 03 20:29:00 UTC 2017	0.0	1.048293376E9	2669.216796875	0.0	2.5731072E7	0.0	2.0	8.46086144E8	58.65018844604492	0.0	0.0	1.0612736E9	1.050107904E9	0.0	0.0	0.06800000369548798	0.04600000008940697	0.04675000160932541	0.9919999837875366	0.7342457175254822	0.0	244.0	371.0	0.0	0.0	0.0	0.0	0.0	0.0	null	null	null	null	null	null	null	null	335.0	334.0	331.0	340.0	334.0	338.0	333.0	338.0	334.0	334.0	334.0	
Sat Jun 03 20:28:00 UTC 2017	0.0	1.047281664E9	2669.216796875	0.0	2.5731072E7	0.0	2.0	8.46086144E8	58.65018844604492	0.0	0.0	1.0612736E9	1.050107904E9	0.0	0.0	0.07050000131130219	0.05350000038743019	0.04874999821186066	0.9919999837875366	0.7365130186080933	0.0	244.0	371.0	0.0	0.0	0.0	0.0	0.0	0.0	null	null	null	null	null	null	null	null	334.0	332.0	335.0	332.0	336.0	335.0	335.0	330.0	337.0	335.0	338.0	
Sat Jun 03 20:27:00 UTC 2017	0.0	1.047281664E9	3081.4990234375	0.0	2.5731072E7	0.0	3.0	8.46086144E8	58.65018844604492	0.0	0.0	1.0612736E9	1.050107904E9	0.0	0.0	0.08124999701976776	0.05350000038743019	0.045249998569488525	0.9919999837875366	0.7342149019241333	0.0	244.0	371.0	0.0	0.0	0.0	0.0	0.0	0.0	null	null	null	null	null	null	null	null	334.0	338.0	333.0	333.0	333.0	332.0	335.0	336.0	334.0	332.0	332.0	
Sat Jun 03 20:26:00 UTC 2017	0.0	1.047281664E9	3124.305908203125	0.0	2.5731072E7	0.0	2.0	8.45877248E8	54.72145462036133	0.0	0.0	1.0612736E9	1.050107904E9	0.0	0.0	0.06949999928474426	0.04650000110268593	0.045249998569488525	0.9919999837875366	0.7342065572738647	0.0	244.0	371.0	0.0	0.0	0.0	0.0	0.0	0.0	null	null	null	null	null	null	null	null	339.0	334.0	335.0	334.0	338.0	337.0	336.0	334.0	336.0	337.0	338.0	
Sat Jun 03 20:25:00 UTC 2017	0.0	1.048293376E9	3124.305908203125	0.0	2.5731072E7	0.0	2.0	8.45963264E8	36.77490234375	0.0	0.0	1.0612736E9	1.050107904E9	0.0	null	0.07649999856948853	0.05249999836087227	0.05000000074505806	0.9917500019073486	0.7341894507408142	0.0	244.0	371.0	0.0	0.0	0.0	0.0	0.0	0.0	null	null	null	null	null	null	null	null	334.0	334.0	337.0	332.0	332.0	333.0	331.0	338.0	334.0	333.0	334.0	
Sat Jun 03 20:24:00 UTC 2017	0.0	1.047281664E9	3124.305908203125	0.0	2.5731072E7	0.0	5.0	8.45873152E8	56.83998489379883	0.0	0.0	1.0612736E9	1.050107904E9	0.0	0.0	0.07925000041723251	0.05249999836087227	0.04450000077486038	0.9917500019073486	0.7341654896736145	0.0	244.0	371.0	0.0	0.0	0.0	0.0	0.0	0.0	null	null	null	null	null	null	null	null	333.0	334.0	331.0	336.0	339.0	337.0	339.0	332.0	335.0	334.0	335.0	
Sat Jun 03 20:23:00 UTC 2017	0.0	1.047281664E9	2482.2607421875	0.0	2.5731072E7	0.0	2.0	8.42719232E8	62.060951232910156	0.0	0.0	1.062285312E9	1.050107904E9	0.0	0.0	0.06624999642372131	0.05000000074505806	0.05025000125169754	0.9919999837875366	0.7364538311958313	0.0	244.0	371.0	0.0	0.0	0.0	0.0	0.0	0.0	null	null	null	null	null	null	null	null	335.0	334.0	338.0	335.0	335.0	337.0	332.0	335.0	337.0	336.0	334.0	
Sat Jun 03 20:22:00 UTC 2017	0.0	1.047281664E9	2927.978515625	0.0	2.5731072E7	0.0	2.0	8.42719232E8	64.72362518310547	0.0	0.0	1.0612736E9	1.050107904E9	0.0	0.0	0.07824999839067459	0.05249999836087227	0.04450000077486038	0.9922500252723694	0.7341517806053162	0.0	244.0	371.0	0.0	0.0	0.0	0.0	0.0	0.0	null	null	null	null	null	null	null	null	333.0	336.0	331.0	330.0	332.0	336.0	335.0	334.0	334.0	330.0	335.0	
Sat Jun 03 20:21:00 UTC 2017	0.0	1.048293376E9	2927.978515625	0.0	2.5731072E7	0.0	2.0	8.42600448E8	64.72362518310547	0.0	0.0	1.062285312E9	1.050107904E9	0.0	0.0	0.09600000083446503	0.05274999886751175	0.04800000041723251	0.9922500252723694	0.7341615557670593	0.0	244.0	371.0	0.0	0.0	0.0	0.0	0.0	0.0	null	null	null	null	null	null	null	null	335.0	333.0	340.0	335.0	335.0	332.0	334.0	335.0	334.0	336.0	334.0	
Sat Jun 03 20:20:00 UTC 2017	0.0	1.047281664E9	2927.978515625	0.0	2.5731072E7	0.0	2.0	8.42600448E8	43.26884841918945	0.0	0.0	1.062285312E9	1.050107904E9	0.0	null	0.08399999886751175	0.04924999922513962	0.04349999874830246	0.9922500252723694	0.7341361045837402	0.0	244.0	371.0	0.0	0.0	0.0	0.0	0.0	0.0	null	null	null	null	null	null	null	null	335.0	334.0	334.0	333.0	337.0	336.0	334.0	335.0	334.0	335.0	337.0	
Sat Jun 03 20:19:00 UTC 2017	0.0	1.048293376E9	2927.978515625	0.0	2.5731072E7	0.0	3.0	8.42510336E8	46.43851852416992	0.0	0.0	1.062285312E9	1.050107904E9	0.0	0.0	0.06575000286102295	0.048500001430511475	0.052000001072883606	0.9919999837875366	0.7341160774230957	0.0	244.0	371.0	0.0	0.0	0.0	0.0	0.0	0.0	null	null	null	null	null	null	null	null	336.0	334.0	335.0	335.0	332.0	334.0	337.0	334.0	334.0	334.0	333.0	
Sat Jun 03 20:18:00 UTC 2017	0.0	1.047281664E9	2927.978515625	0.0	2.5731072E7	0.0	2.0	8.42510336E8	47.46039581298828	0.0	0.0	1.0612736E9	1.050107904E9	0.0	0.0	0.08100000023841858	0.05525000020861626	0.04475000128149986	0.9922500252723694	0.7341645359992981	0.0	244.0	371.0	0.0	0.0	0.0	0.0	0.0	0.0	null	null	null	null	null	null	null	null	334.0	333.0	336.0	335.0	335.0	337.0	333.0	337.0	337.0	334.0	336.0	
Sat Jun 03 20:17:00 UTC 2017	0.0	1.047281664E9	2568.461669921875	0.0	2.5731072E7	0.0	3.0	8.42510336E8	47.46039581298828	0.0	0.0	1.0612736E9	1.050107904E9	0.0	0.0	0.07249999791383743	0.0507499985396862	0.04774999991059303	0.9919999837875366	0.7340891361236572	0.0	244.0	371.0	0.0	0.0	0.0	0.0	0.0	0.0	null	null	null	null	null	null	null	null	334.0	335.0	333.0	335.0	333.0	334.0	334.0	334.0	335.0	334.0	336.0	
Sat Jun 03 20:16:00 UTC 2017	0.0	1.048293376E9	2568.461669921875	0.0	2.5731072E7	0.0	2.0	8.4238336E8	47.46039581298828	0.0	0.0	1.062285312E9	1.050107904E9	0.0	0.0	0.08100000023841858	0.045499999076128006	0.04724999889731407	0.9922500252723694	0.7350510358810425	0.0	244.0	371.0	0.0	0.0	0.0	0.0	0.0	0.0	null	null	null	null	null	null	null	null	335.0	336.0	335.0	333.0	339.0	335.0	334.0	333.0	333.0	337.0	332.0	
Sat Jun 03 20:15:00 UTC 2017	0.0	1.047281664E9	2568.461669921875	0.0	2.5731072E7	0.0	2.0	8.4238336E8	47.46039581298828	0.0	0.0	1.062285312E9	1.050107904E9	0.0	0.0	0.07124999910593033	0.051750000566244125	0.048500001430511475	0.9922500252723694	0.7340637445449829	0.0	244.0	371.0	0.0	0.0	0.0	0.0	0.0	0.0	null	null	null	null	null	null	null	null	336.0	335.0	330.0	336.0	334.0	334.0	334.0	337.0	335.0	335.0	337.0	
Sat Jun 03 20:14:00 UTC 2017	0.0	1.047281664E9	3263.902099609375	0.0	2.5731072E7	0.0	2.0	8.42293248E8	42.589298248291016	0.0	0.0	1.0612736E9	1.050107904E9	0.0	0.0	0.07325000315904617	0.05025000125169754	0.042750000953674316	0.9925000071525574	0.7340534329414368	0.0	244.0	371.0	0.0	0.0	0.0	0.0	0.0	0.0	null	null	null	null	null	null	null	null	333.0	336.0	335.0	334.0	334.0	337.0	327.0	335.0	336.0	335.0	334.0	
Sat Jun 03 20:13:00 UTC 2017	0.0	1.047281664E9	2527.56982421875	0.0	2.5731072E7	0.0	2.0	8.42293248E8	53.35105514526367	0.0	0.0	1.062285312E9	1.050107904E9	0.0	0.0	0.07249999791383743	0.04874999821186066	0.05274999886751175	0.9919999837875366	0.734035313129425	0.0	244.0	371.0	0.0	0.0	0.0	0.0	0.0	0.0	null	null	null	null	null	null	null	null	335.0	334.0	333.0	336.0	335.0	336.0	334.0	335.0	337.0	331.0	331.0	
Sat Jun 03 20:12:00 UTC 2017	0.0	1.047281664E9	2693.7646484375	0.0	2.5731072E7	0.0	3.0	8.42293248E8	37.184085845947266	0.0	0.0	1.0612736E9	1.050107904E9	0.0	0.0	0.08474999666213989	0.05400000140070915	0.04500000178813934	0.9922500252723694	0.7339922785758972	0.0	244.0	371.0	0.0	0.0	0.0	0.0	0.0	0.0	null	null	null	null	null	null	null	null	334.0	336.0	336.0	335.0	334.0	334.0	333.0	334.0	334.0	335.0	333.0	
Sat Jun 03 20:11:00 UTC 2017	0.0	1.048293376E9	2693.7646484375	0.0	2.5731072E7	0.0	4.0	8.42080256E8	37.184085845947266	0.0	0.0	1.0612736E9	1.050107904E9	0.0	0.0	0.09049999713897705	0.05299999937415123	0.04924999922513962	0.9919999837875366	0.7339296340942383	0.0	244.0	371.0	0.0	0.0	0.0	0.0	0.0	0.0	null	null	null	null	null	null	null	null	337.0	335.0	334.0	333.0	335.0	331.0	335.0	333.0	335.0	337.0	334.0	
Sat Jun 03 20:10:00 UTC 2017	0.0	1.047281664E9	2693.7646484375	0.0	2.5731072E7	0.0	4.0	8.42432512E8	37.184085845947266	0.0	0.0	1.062285312E9	1.050107904E9	0.0	0.0	0.07500000298023224	0.04774999991059303	0.04399999976158142	0.9922500252723694	0.7339262366294861	0.0	244.0	371.0	0.0	0.0	0.0	0.0	0.0	0.0	null	null	null	null	null	null	null	null	335.0	335.0	335.0	337.0	335.0	336.0	334.0	331.0	329.0	336.0	335.0	
Sat Jun 03 20:09:00 UTC 2017	0.0	1.047281664E9	2314.060546875	0.0	2.5731072E7	0.0	2.0	8.42141696E8	48.67011260986328	0.0	0.0	1.062285312E9	1.050107904E9	0.0	null	0.07724999636411667	0.048250000923871994	0.04749999940395355	0.9922500252723694	0.7338890433311462	0.0	244.0	371.0	0.0	0.0	0.0	0.0	0.0	0.0	null	null	null	null	null	null	null	null	335.0	335.0	335.0	331.0	335.0	333.0	334.0	337.0	337.0	331.0	333.0	
Sat Jun 03 20:08:00 UTC 2017	0.0	1.047281664E9	2637.983642578125	0.0	2.5731072E7	0.0	2.0	8.42141696E8	48.67011260986328	0.0	0.0	1.062285312E9	1.050107904E9	0.0	0.0	0.07199999690055847	0.05400000140070915	0.048500001430511475	0.9922500252723694	0.7338768243789673	0.0	244.0	371.0	0.0	0.0	0.0	0.0	0.0	0.0	null	null	null	null	null	null	null	null	333.0	338.0	336.0	339.0	333.0	337.0	335.0	334.0	336.0	335.0	331.0	
Sat Jun 03 20:07:00 UTC 2017	0.0	1.048293376E9	2637.983642578125	0.0	2.5731072E7	0.0	2.0	8.42141696E8	48.58860778808594	0.0	0.0	1.0612736E9	1.050107904E9	0.0	0.0	0.07800000160932541	0.04874999821186066	0.04475000128149986	0.9919999837875366	0.7338763475418091	0.0	244.0	371.0	0.0	0.0	0.0	0.0	0.0	0.0	null	null	null	null	null	null	null	null	333.0	334.0	335.0	333.0	336.0	332.0	332.0	334.0	335.0	334.0	334.0	
Sat Jun 03 20:06:00 UTC 2017	0.0	1.048293376E9	2835.352294921875	0.0	2.5731072E7	0.0	3.0	8.41916416E8	48.58860778808594	0.0	0.0	1.0612736E9	1.050107904E9	0.0	null	0.07100000232458115	0.05375000089406967	0.0507499985396862	0.9919999837875366	0.7338606715202332	0.0	244.0	371.0	0.0	0.0	0.0	0.0	0.0	0.0	null	null	null	null	null	null	null	null	333.0	335.0	333.0	337.0	334.0	334.0	335.0	336.0	334.0	335.0	336.0	
Sat Jun 03 20:05:00 UTC 2017	0.0	1.047281664E9	2835.352294921875	0.0	2.5731072E7	0.0	6.0	8.42006528E8	45.361427307128906	0.0	0.0	1.062285312E9	1.050107904E9	0.0	null	0.0820000022649765	0.045499999076128006	0.04774999991059303	0.9919999837875366	0.7338728904724121	0.0	244.0	371.0	0.0	0.0	0.0	0.0	0.0	0.0	null	null	null	null	null	null	null	null	336.0	336.0	339.0	334.0	336.0	333.0	334.0	333.0	331.0	332.0	334.0	
Sat Jun 03 20:04:00 UTC 2017	0.0	1.047281664E9	3507.92529296875	0.0	2.5731072E7	0.0	2.0	8.41916416E8	42.285850524902344	0.0	0.0	1.062285312E9	1.050107904E9	0.0	0.0	0.0729999989271164	0.051500000059604645	0.05000000074505806	0.9919999837875366	0.7338704466819763	0.0	244.0	371.0	0.0	0.0	0.0	0.0	0.0	0.0	null	null	null	null	null	null	null	null	333.0	332.0	334.0	334.0	334.0	337.0	333.0	331.0	339.0	333.0	334.0	
Sat Jun 03 20:03:00 UTC 2017	0.0	1.048293376E9	3507.92529296875	0.0	2.5731072E7	0.0	2.0	8.41916416E8	42.285850524902344	0.0	0.0	1.062285312E9	1.050107904E9	0.0	0.0	0.07275000214576721	0.05400000140070915	0.04724999889731407	0.9919999837875366	0.7338523268699646	0.0	244.0	371.0	0.0	0.0	0.0	0.0	0.0	0.0	null	null	null	null	null	null	null	null	335.0	335.0	336.0	337.0	333.0	332.0	335.0	334.0	332.0	339.0	332.0	
Sat Jun 03 20:02:00 UTC 2017	0.0	1.047281664E9	3507.92529296875	0.0	2.5731072E7	0.0	2.0	8.41916416E8	38.05143356323242	0.0	0.0	1.0612736E9	1.050107904E9	0.0	0.0	0.07225000113248825	0.051500000059604645	0.045249998569488525	0.9919999837875366	0.7338347434997559	0.0	244.0	371.0	0.0	0.0	0.0	0.0	0.0	0.0	null	null	null	null	null	null	null	null	329.0	339.0	333.0	336.0	333.0	336.0	334.0	334.0	338.0	332.0	334.0	
Sat Jun 03 20:01:00 UTC 2017	0.0	1.047281664E9	2376.105712890625	0.0	2.5731072E7	0.0	4.0	8.41916416E8	50.07377624511719	0.0	0.0	1.062285312E9	1.050107904E9	0.0	0.0	0.09600000083446503	0.04975000023841858	0.04500000178813934	0.9922500252723694	0.7338318228721619	0.0	244.0	371.0	0.0	0.0	0.0	0.0	0.0	0.0	null	null	null	null	null	null	null	null	339.0	334.0	335.0	333.0	336.0	331.0	337.0	336.0	334.0	335.0	335.0	
Sat Jun 03 20:00:00 UTC 2017	0.0	1.048293376E9	2376.105712890625	0.0	2.5731072E7	0.0	2.0	8.4074496E8	36.65852355957031	0.0	0.0	1.062285312E9	1.050107904E9	0.0	null	0.06975000351667404	0.04749999940395355	0.04574999958276749	0.9919999837875366	0.7338342666625977	0.0	244.0	371.0	0.0	0.0	0.0	0.0	0.0	0.0	null	null	null	null	null	null	null	null	335.0	337.0	335.0	335.0	335.0	337.0	335.0	340.0	332.0	333.0	332.0	
Sat Jun 03 19:59:00 UTC 2017	0.0	1.048293376E9	2452.9609375	0.0	2.5731072E7	0.0	3.0	8.40654848E8	40.31040573120117	0.0	0.0	1.0612736E9	1.050107904E9	0.0	null	0.07874999940395355	0.04625000059604645	0.05050000175833702	0.9922500252723694	0.7338151931762695	0.0	244.0	371.0	0.0	0.0	0.0	0.0	0.0	0.0	null	null	null	null	null	null	null	null	335.0	334.0	337.0	335.0	334.0	336.0	335.0	332.0	333.0	333.0	337.0	
Sat Jun 03 19:58:00 UTC 2017	0.0	1.048293376E9	2441.884765625	0.0	2.5731072E7	0.0	2.0	8.40654848E8	46.46949768066406	0.0	0.0	1.062285312E9	1.050107904E9	0.0	null	0.0742499977350235	0.05849999934434891	0.04675000160932541	0.9922500252723694	0.7338215112686157	0.0	244.0	371.0	0.0	0.0	0.0	0.0	0.0	0.0	null	null	null	null	null	null	null	null	332.0	333.0	335.0	333.0	331.0	332.0	337.0	335.0	332.0	336.0	334.0	
Sat Jun 03 19:57:00 UTC 2017	0.0	1.047281664E9	2441.884765625	0.0	2.5731072E7	0.0	2.0	8.40654848E8	49.29970169067383	0.0	0.0	1.0612736E9	1.050107904E9	0.0	null	0.07325000315904617	0.045249998569488525	0.048500001430511475	0.9919999837875366	0.7338034510612488	0.0	244.0	371.0	0.0	0.0	0.0	0.0	0.0	0.0	null	null	null	null	null	null	null	null	335.0	334.0	330.0	332.0	339.0	337.0	334.0	335.0	336.0	334.0	335.0	
Sat Jun 03 19:56:00 UTC 2017	0.0	1.047281664E9	2779.665283203125	0.0	2.5731072E7	0.0	3.0	8.40966144E8	49.29970169067383	0.0	0.0	1.0612736E9	1.050107904E9	0.0	null	0.07625000178813934	0.05525000020861626	0.04324999824166298	0.9917500019073486	0.7337813973426819	0.0	244.0	371.0	0.0	0.0	0.0	0.0	0.0	0.0	null	null	null	null	null	null	null	null	335.0	334.0	336.0	335.0	333.0	331.0	332.0	334.0	332.0	336.0	335.0	
Sat Jun 03 19:55:00 UTC 2017	0.0	1.048293376E9	2779.665283203125	0.0	2.5731072E7	0.0	3.0	8.40531968E8	37.21892547607422	0.0	0.0	1.062285312E9	1.050107904E9	0.0	null	0.07325000315904617	0.04475000128149986	0.051249999552965164	0.9922500252723694	0.7337799668312073	0.0	244.0	371.0	0.0	0.0	0.0	0.0	0.0	0.0	null	null	null	null	null	null	null	null	337.0	336.0	332.0	334.0	331.0	338.0	336.0	336.0	335.0	332.0	335.0	
Sat Jun 03 19:54:00 UTC 2017	0.0	1.047281664E9	2779.665283203125	0.0	2.5731072E7	0.0	2.0	8.40441856E8	37.21892547607422	0.0	0.0	1.0612736E9	1.050107904E9	0.0	null	0.07175000011920929	0.05299999937415123	0.04749999940395355	0.9922500252723694	0.7349600791931152	0.0	244.0	371.0	0.0	0.0	0.0	0.0	0.0	0.0	null	null	null	null	null	null	null	null	335.0	337.0	336.0	339.0	338.0	336.0	335.0	334.0	338.0	333.0	333.0	
Sat Jun 03 19:53:00 UTC 2017	0.0	1.047281664E9	2373.109375	0.0	2.5731072E7	0.0	2.0	8.40441856E8	57.124088287353516	0.0	0.0	1.062285312E9	1.050107904E9	0.0	null	0.08224999904632568	0.04699999839067459	0.04625000059604645	0.9922500252723694	0.7337173223495483	0.0	244.0	371.0	0.0	0.0	0.0	0.0	0.0	0.0	null	null	null	null	null	null	null	null	338.0	334.0	334.0	334.0	336.0	334.0	339.0	335.0	333.0	333.0	333.0	
Sat Jun 03 19:52:00 UTC 2017	0.0	1.047281664E9	2469.483642578125	0.0	2.5731072E7	0.0	2.0	8.40441856E8	57.124088287353516	0.0	0.0	1.062285312E9	1.050107904E9	0.0	null	0.07050000131130219	0.054249998182058334	0.04650000110268593	0.9922500252723694	0.7337182760238647	0.0	244.0	371.0	0.0	0.0	0.0	0.0	0.0	0.0	null	null	null	null	null	null	null	null	334.0	337.0	334.0	338.0	332.0	334.0	332.0	335.0	332.0	339.0	338.0	
Sat Jun 03 19:51:00 UTC 2017	0.0	1.048293376E9	2469.483642578125	0.0	2.5731072E7	0.0	3.0	8.40441856E8	43.9420051574707	0.0	0.0	1.062285312E9	1.050107904E9	0.0	0.0	0.09600000083446503	0.04874999821186066	0.04450000077486038	0.9919999837875366	0.7346028685569763	0.0	244.0	371.0	0.0	0.0	0.0	0.0	0.0	0.0	null	null	null	null	null	null	null	null	333.0	332.0	334.0	332.0	337.0	336.0	335.0	335.0	334.0	332.0	333.0	
Sat Jun 03 19:50:00 UTC 2017	0.0	1.048293376E9	2663.106689453125	0.0	2.5731072E7	0.0	2.0	8.40318976E8	43.9420051574707	0.0	0.0	1.062285312E9	1.050107904E9	0.0	0.0	0.0742499977350235	0.05375000089406967	0.04975000023841858	0.9917500019073486	0.7336977124214172	0.0	244.0	371.0	0.0	0.0	0.0	0.0	0.0	0.0	null	null	null	null	null	null	null	null	338.0	334.0	333.0	338.0	334.0	332.0	335.0	334.0	336.0	339.0	331.0	
Sat Jun 03 19:49:00 UTC 2017	0.0	1.047281664E9	2663.106689453125	0.0	2.5731072E7	0.0	2.0	8.40228864E8	47.4715461730957	0.0	0.0	1.062285312E9	1.050107904E9	0.0	0.0	0.0767500028014183	0.04324999824166298	0.048250000923871994	0.9919999837875366	0.733665943145752	0.0	244.0	371.0	0.0	0.0	0.0	0.0	0.0	0.0	null	null	null	null	null	null	null	null	331.0	334.0	335.0	335.0	334.0	335.0	335.0	337.0	335.0	332.0	334.0	
Sat Jun 03 19:48:00 UTC 2017	0.0	1.047281664E9	2676.5693359375	0.0	2.5731072E7	0.0	2.0	8.40228864E8	44.723506927490234	1.0	2.0	1.0612736E9	1.050107904E9	0.0	0.0	0.07500000298023224	0.054499998688697815	0.0442500002682209	0.9919999837875366	0.733656644821167	0.0	244.0	371.0	0.0	0.0	0.0	0.0	0.0	0.0	null	null	null	null	null	null	null	null	334.0	335.0	336.0	332.0	335.0	332.0	334.0	335.0	334.0	334.0	337.0	
Sat Jun 03 19:47:00 UTC 2017	0.0	1.048293376E9	2676.5693359375	0.0	2.5731072E7	0.0	4.0	8.40228864E8	44.723506927490234	0.0	0.0	1.062285312E9	1.050107904E9	0.0	0.0	0.07175000011920929	0.04774999991059303	0.05050000175833702	0.9915000200271606	0.7336385250091553	0.0	244.0	371.0	0.0	0.0	0.0	0.0	0.0	0.0	null	null	null	null	null	null	null	null	331.0	336.0	336.0	334.0	336.0	334.0	334.0	333.0	336.0	334.0	332.0	
Sat Jun 03 19:46:00 UTC 2017	0.0	1.047281664E9	2676.5693359375	0.0	2.5731072E7	0.0	2.0	8.4011008E8	44.723506927490234	0.0	0.0	1.062285312E9	1.050107904E9	0.0	0.0	0.08025000244379044	0.051249999552965164	0.0494999997317791	0.9917500019073486	0.733616054058075	0.0	244.0	371.0	0.0	0.0	0.0	0.0	0.0	0.0	null	null	null	null	null	null	null	null	336.0	336.0	335.0	337.0	332.0	334.0	336.0	334.0	336.0	333.0	335.0	
Sat Jun 03 19:45:00 UTC 2017	0.0	1.047281664E9	2911.072998046875	0.0	2.5731072E7	0.0	2.0	8.4011008E8	53.80491256713867	0.0	0.0	1.0612736E9	1.050107904E9	0.0	0.0	0.0754999965429306	0.05324999988079071	0.04475000128149986	0.9919999837875366	0.7358818650245667	0.0	244.0	371.0	0.0	0.0	0.0	0.0	0.0	0.0	null	null	null	null	null	null	null	null	335.0	335.0	329.0	334.0	334.0	333.0	333.0	333.0	333.0	335.0	332.0	
Sat Jun 03 19:44:00 UTC 2017	0.0	1.047281664E9	2739.68115234375	0.0	2.5731072E7	0.0	2.0	8.40019968E8	34.36558532714844	0.0	0.0	1.062285312E9	1.050107904E9	0.0	0.0	0.07925000041723251	0.054499998688697815	0.04650000110268593	0.9917500019073486	0.7335988879203796	0.0	244.0	371.0	0.0	0.0	0.0	0.0	0.0	0.0	null	null	null	null	null	null	null	null	335.0	331.0	334.0	333.0	335.0	336.0	335.0	336.0	335.0	333.0	337.0	
Sat Jun 03 19:43:00 UTC 2017	0.0	1.047281664E9	2652.47802734375	0.0	2.5731072E7	0.0	2.0	8.40019968E8	39.30121612548828	0.0	0.0	1.0612736E9	1.050107904E9	0.0	0.0	0.07150000333786011	0.04749999940395355	0.04749999940395355	0.9919999837875366	0.7335906028747559	0.0	244.0	371.0	0.0	0.0	0.0	0.0	0.0	0.0	null	null	null	null	null	null	null	null	334.0	334.0	335.0	336.0	333.0	337.0	336.0	334.0	334.0	335.0	331.0	
Sat Jun 03 19:42:00 UTC 2017	0.0	1.047281664E9	2684.816650390625	0.0	2.5731072E7	0.0	2.0	8.40019968E8	39.30121612548828	0.0	0.0	1.062285312E9	1.050107904E9	0.0	0.0	0.0729999989271164	0.05324999988079071	0.04724999889731407	0.9917500019073486	0.7335901260375977	0.0	244.0	371.0	0.0	0.0	0.0	0.0	0.0	0.0	null	null	null	null	null	null	null	null	333.0	333.0	336.0	334.0	335.0	335.0	333.0	334.0	334.0	336.0	335.0	
Sat Jun 03 19:41:00 UTC 2017	0.0	1.048293376E9	2684.816650390625	0.0	2.5731072E7	0.0	3.0	8.40019968E8	39.30121612548828	0.0	0.0	1.062285312E9	1.050107904E9	0.0	null	0.09775000065565109	0.0507499985396862	0.04650000110268593	0.9917500019073486	0.7335739731788635	0.0	244.0	371.0	0.0	0.0	0.0	0.0	0.0	0.0	null	null	null	null	null	null	null	null	333.0	334.0	335.0	334.0	331.0	334.0	336.0	334.0	337.0	334.0	334.0	
Sat Jun 03 19:40:00 UTC 2017	0.0	1.048293376E9	2956.85302734375	0.0	2.5731072E7	0.0	3.0	8.39897088E8	39.30121612548828	0.0	0.0	1.0612736E9	1.050107904E9	0.0	null	0.0820000022649765	0.04699999839067459	0.05000000074505806	0.9917500019073486	0.7335582971572876	0.0	244.0	371.0	0.0	0.0	0.0	0.0	0.0	0.0	null	null	null	null	null	null	null	null	333.0	337.0	335.0	333.0	333.0	334.0	333.0	334.0	333.0	330.0	331.0	
Sat Jun 03 19:39:00 UTC 2017	1.0	1.048293376E9	2585.001220703125	0.0	2.5731072E7	0.0	2.0	8.39806976E8	49.41107177734375	0.0	0.0	1.0612736E9	1.050107904E9	0.0	null	0.07575000077486038	0.04749999940395355	0.04475000128149986	0.9919999837875366	0.7335543632507324	0.0	244.0	371.0	0.0	0.0	0.0	0.0	0.0	0.0	null	null	null	null	null	null	null	null	334.0	333.0	334.0	335.0	335.0	336.0	335.0	331.0	332.0	336.0	335.0	
Sat Jun 03 19:38:00 UTC 2017	0.0	1.048293376E9	2462.80712890625	0.0	2.5731072E7	0.0	2.0	8.39806976E8	33.70698547363281	0.0	0.0	1.062285312E9	1.050107904E9	0.0	null	0.06825000047683716	0.054999999701976776	0.05225000157952309	0.9919999837875366	0.7335299253463745	0.0	244.0	371.0	0.0	0.0	0.0	0.0	0.0	0.0	null	null	null	null	null	null	null	null	336.0	334.0	332.0	335.0	334.0	334.0	334.0	337.0	337.0	337.0	333.0	
Sat Jun 03 19:37:00 UTC 2017	0.0	1.047281664E9	2462.80712890625	0.0	2.5731072E7	0.0	2.0	8.39806976E8	41.72614669799805	0.0	0.0	1.0612736E9	1.050107904E9	0.0	null	0.07925000041723251	0.051750000566244125	0.04075000062584877	0.9917500019073486	0.7357937693595886	0.0	244.0	371.0	0.0	0.0	0.0	0.0	0.0	0.0	null	null	null	null	null	null	null	null	336.0	333.0	334.0	334.0	335.0	334.0	334.0	331.0	330.0	333.0	335.0	
Sat Jun 03 19:36:00 UTC 2017	0.0	1.048293376E9	2462.80712890625	0.0	2.5731072E7	0.0	2.0	8.39593984E8	38.58122634887695	0.0	0.0	1.0612736E9	1.050107904E9	0.0	0.0	0.07999999821186066	0.05324999988079071	0.04924999922513962	0.9915000200271606	0.7335015535354614	0.0	244.0	371.0	0.0	0.0	0.0	0.0	0.0	0.0	null	null	null	null	null	null	null	null	335.0	336.0	334.0	332.0	330.0	335.0	337.0	336.0	334.0	335.0	336.0	
Sat Jun 03 19:35:00 UTC 2017	0.0	1.047281664E9	2462.80712890625	0.0	2.5731072E7	0.0	2.0	8.39684096E8	45.19518280029297	0.0	0.0	1.0612736E9	1.050107904E9	0.0	0.0	0.07400000095367432	0.05050000175833702	0.0507499985396862	0.9915000200271606	0.7358412146568298	0.0	244.0	371.0	0.0	0.0	0.0	0.0	0.0	0.0	null	null	null	null	null	null	null	null	335.0	336.0	330.0	333.0	340.0	335.0	330.0	332.0	337.0	335.0	332.0	
Sat Jun 03 19:34:00 UTC 2017	0.0	1.048293376E9	2462.80712890625	0.0	2.5731072E7	0.0	2.0	8.39593984E8	45.64173126220703	0.0	0.0	1.062285312E9	1.050107904E9	0.0	0.0	0.07175000011920929	0.04500000178813934	0.04600000008940697	0.9922500252723694	0.7335044741630554	0.0	244.0	371.0	0.0	0.0	0.0	0.0	0.0	0.0	null	null	null	null	null	null	null	null	336.0	336.0	334.0	337.0	335.0	336.0	336.0	335.0	333.0	335.0	336.0	
Sat Jun 03 19:33:00 UTC 2017	0.0	1.048293376E9	2698.13330078125	0.0	2.5731072E7	0.0	2.0	8.39593984E8	50.41864776611328	0.0	0.0	1.062285312E9	1.050107904E9	0.0	null	0.0689999982714653	0.05824999883770943	0.0494999997317791	0.9922500252723694	0.7334614396095276	0.0	244.0	371.0	0.0	0.0	0.0	0.0	0.0	0.0	null	null	null	null	null	null	null	null	336.0	333.0	335.0	335.0	332.0	335.0	335.0	336.0	335.0	333.0	335.0	
Sat Jun 03 19:32:00 UTC 2017	0.0	1.047281664E9	2698.13330078125	0.0	2.5731072E7	0.0	2.0	8.39593984E8	51.3565559387207	0.0	0.0	1.0612736E9	1.050107904E9	0.0	null	0.07599999755620956	0.04600000008940697	0.04625000059604645	0.9922500252723694	0.7334575057029724	0.0	244.0	371.0	0.0	0.0	0.0	0.0	0.0	0.0	null	null	null	null	null	null	null	null	332.0	334.0	335.0	333.0	334.0	335.0	336.0	335.0	334.0	333.0	335.0	
Sat Jun 03 19:31:00 UTC 2017	0.0	1.047281664E9	3226.6884765625	0.0	2.5731072E7	0.0	2.0	8.39860224E8	39.072696685791016	0.0	0.0	1.0612736E9	1.050107904E9	0.0	null	0.10175000131130219	0.05400000140070915	0.04749999940395355	0.9925000071525574	0.7343680262565613	0.0	244.0	371.0	0.0	0.0	0.0	0.0	0.0	0.0	null	null	null	null	null	null	null	null	333.0	332.0	336.0	335.0	335.0	334.0	336.0	334.0	334.0	335.0	333.0	
Sat Jun 03 19:30:00 UTC 2017	0.0	1.048293376E9	3226.6884765625	0.0	2.5731072E7	0.0	3.0	8.39487488E8	62.334877014160156	0.0	0.0	1.0612736E9	1.050107904E9	0.0	0.0	0.0742499977350235	0.04874999821186066	0.048250000923871994	0.9919999837875366	0.7334433197975159	0.0	244.0	371.0	0.0	0.0	0.0	0.0	0.0	0.0	null	null	null	null	null	null	null	null	337.0	335.0	336.0	335.0	336.0	335.0	332.0	335.0	334.0	332.0	338.0	
Sat Jun 03 19:29:00 UTC 2017	0.0	1.047281664E9	3226.6884765625	0.0	2.5731072E7	0.0	3.0	8.39397376E8	62.334877014160156	0.0	0.0	1.062285312E9	1.050107904E9	0.0	0.0	0.08150000125169754	0.05400000140070915	0.050999999046325684	0.9917500019073486	0.7356880903244019	0.0	244.0	371.0	0.0	0.0	0.0	0.0	0.0	0.0	null	null	null	null	null	null	null	null	333.0	339.0	335.0	334.0	334.0	336.0	338.0	332.0	335.0	335.0	336.0	
Sat Jun 03 19:28:00 UTC 2017	0.0	1.047281664E9	2289.334716796875	0.0	2.5731072E7	0.0	2.0	8.39397376E8	62.334877014160156	0.0	0.0	1.062285312E9	1.050107904E9	0.0	0.0	0.0702499970793724	0.048500001430511475	0.045499999076128006	0.9919999837875366	0.7333821654319763	0.0	244.0	371.0	0.0	0.0	0.0	0.0	0.0	0.0	null	null	null	null	null	null	null	null	337.0	332.0	332.0	334.0	332.0	333.0	331.0	333.0	334.0	335.0	335.0	
Sat Jun 03 19:27:00 UTC 2017	0.0	1.047281664E9	2883.03857421875	0.0	2.5731072E7	0.0	2.0	8.39397376E8	81.0007553100586	0.0	0.0	1.062285312E9	1.050107904E9	0.0	0.0	0.07474999874830246	0.04450000077486038	0.048250000923871994	0.9917500019073486	0.7334036827087402	0.0	244.0	371.0	0.0	0.0	0.0	0.0	0.0	0.0	null	null	null	null	null	null	null	null	331.0	336.0	336.0	331.0	337.0	335.0	336.0	334.0	331.0	335.0	334.0	
Sat Jun 03 19:26:00 UTC 2017	0.0	1.048293376E9	2883.03857421875	0.0	2.5731072E7	0.0	2.0	8.39397376E8	56.531219482421875	0.0	0.0	1.062285312E9	1.050107904E9	0.0	0.0	0.08124999701976776	0.052000001072883606	0.04625000059604645	0.9919999837875366	0.7333787083625793	0.0	244.0	371.0	0.0	0.0	0.0	0.0	0.0	0.0	null	null	null	null	null	null	null	null	338.0	333.0	331.0	335.0	336.0	336.0	334.0	339.0	334.0	334.0	338.0	
Sat Jun 03 19:25:00 UTC 2017	0.0	1.048293376E9	2656.87255859375	0.0	2.5731072E7	0.0	2.0	8.39274496E8	56.531219482421875	0.0	0.0	1.0612736E9	1.050107904E9	0.0	0.0	0.06875000149011612	0.05550000071525574	0.04625000059604645	0.9922500252723694	0.7334085702896118	0.0	244.0	371.0	0.0	0.0	0.0	0.0	0.0	0.0	null	null	null	null	null	null	null	null	331.0	338.0	339.0	335.0	332.0	336.0	334.0	335.0	340.0	334.0	334.0	
Sat Jun 03 19:24:00 UTC 2017	0.0	1.048293376E9	3206.864501953125	0.0	2.5731072E7	0.0	2.0	8.39184384E8	56.531219482421875	0.0	0.0	1.062285312E9	1.050107904E9	0.0	0.0	0.08425000309944153	0.04975000023841858	0.05050000175833702	0.9922500252723694	0.7333934307098389	0.0	244.0	371.0	0.0	0.0	0.0	0.0	0.0	0.0	null	null	null	null	null	null	null	null	336.0	333.0	332.0	339.0	335.0	333.0	336.0	332.0	333.0	332.0	332.0	
Sat Jun 03 19:23:00 UTC 2017	0.0	1.047281664E9	3206.864501953125	0.0	2.5731072E7	0.0	5.0	8.39184384E8	41.10551071166992	0.0	0.0	1.062285312E9	1.050107904E9	0.0	0.0	0.06575000286102295	0.04924999922513962	0.04349999874830246	0.9922500252723694	0.7340089082717896	0.0	244.0	371.0	0.0	0.0	0.0	0.0	0.0	0.0	null	null	null	null	null	null	null	null	335.0	335.0	335.0	334.0	338.0	334.0	337.0	336.0	334.0	338.0	335.0	
Sat Jun 03 19:22:00 UTC 2017	0.0	1.048293376E9	3206.864501953125	0.0	2.5731072E7	0.0	3.0	8.39184384E8	54.9157829284668	0.0	0.0	1.0612736E9	1.050107904E9	0.0	0.0	0.0860000029206276	0.04625000059604645	0.051249999552965164	0.9922500252723694	0.7348597645759583	0.0	244.0	371.0	0.0	0.0	0.0	0.0	0.0	0.0	null	null	null	null	null	null	null	null	333.0	332.0	332.0	333.0	333.0	336.0	335.0	336.0	334.0	332.0	338.0	
Sat Jun 03 19:21:00 UTC 2017	0.0	1.047281664E9	3206.864501953125	0.0	2.5731072E7	0.0	2.0	8.38971392E8	56.7580680847168	0.0	0.0	1.062285312E9	1.050107904E9	0.0	0.0	0.09099999815225601	0.05299999937415123	0.04349999874830246	0.9917500019073486	0.733359158039093	0.0	244.0	371.0	0.0	0.0	0.0	0.0	0.0	0.0	null	null	null	null	null	null	null	null	337.0	337.0	338.0	334.0	334.0	339.0	334.0	333.0	333.0	338.0	335.0	
Sat Jun 03 19:20:00 UTC 2017	0.0	1.047281664E9	2749.0205078125	0.0	2.5731072E7	0.0	2.0	8.39061504E8	65.67972564697266	0.0	0.0	1.0612736E9	1.050107904E9	0.0	0.0	0.08150000125169754	0.052000001072883606	0.05000000074505806	0.9919999837875366	0.7333400845527649	0.0	244.0	371.0	0.0	0.0	0.0	0.0	0.0	0.0	null	null	null	null	null	null	null	null	335.0	334.0	333.0	334.0	332.0	333.0	337.0	338.0	335.0	331.0	334.0	
Sat Jun 03 19:19:00 UTC 2017	0.0	1.047281664E9	2840.967529296875	0.0	2.5731072E7	0.0	2.0	8.38971392E8	53.38434600830078	0.0	0.0	1.0612736E9	1.050107904E9	0.0	0.0	0.06975000351667404	0.04625000059604645	0.045499999076128006	0.9919999837875366	0.7332808971405029	0.0	244.0	371.0	0.0	0.0	0.0	0.0	0.0	0.0	null	null	null	null	null	null	null	null	335.0	333.0	334.0	336.0	340.0	335.0	334.0	334.0	339.0	332.0	333.0	
Sat Jun 03 19:18:00 UTC 2017	0.0	1.047281664E9	2468.644775390625	0.0	2.5731072E7	0.0	2.0	8.38971392E8	53.38434600830078	0.0	1.0	1.062285312E9	1.050107904E9	0.0	0.0	0.08224999904632568	0.05849999934434891	0.04800000041723251	0.9922500252723694	0.7332813739776611	0.0	244.0	371.0	0.0	0.0	0.0	0.0	0.0	0.0	null	null	null	null	null	null	null	null	332.0	336.0	333.0	334.0	333.0	336.0	335.0	336.0	333.0	335.0	331.0	
Sat Jun 03 19:17:00 UTC 2017	0.0	1.047281664E9	2247.648681640625	0.0	2.5731072E7	0.0	4.0	8.38971392E8	32.880409240722656	0.0	1.0	1.0612736E9	1.050107904E9	0.0	0.0	0.07225000113248825	0.051500000059604645	0.04675000160932541	0.9922500252723694	0.7332740426063538	0.0	244.0	371.0	0.0	0.0	0.0	0.0	0.0	0.0	null	null	null	null	null	null	null	null	338.0	335.0	334.0	336.0	338.0	331.0	333.0	331.0	336.0	335.0	334.0	
Sat Jun 03 19:16:00 UTC 2017	0.0	1.047281664E9	2619.204833984375	0.0	2.5731072E7	0.0	4.0	8.35817472E8	32.880409240722656	1.0	2.0	1.062285312E9	1.050107904E9	0.0	0.0	0.0689999982714653	0.05400000140070915	0.051750000566244125	0.9917500019073486	0.7355653047561646	0.0	244.0	371.0	0.0	0.0	0.0	0.0	0.0	0.0	null	null	null	null	null	null	null	null	332.0	337.0	335.0	329.0	333.0	337.0	333.0	333.0	333.0	335.0	336.0	
Sat Jun 03 19:15:00 UTC 2017	0.0	1.048293376E9	2619.204833984375	0.0	2.5731072E7	0.0	3.0	8.35698688E8	32.880409240722656	0.0	0.0	1.0612736E9	1.050107904E9	0.0	0.0	0.07199999690055847	0.051249999552965164	0.04475000128149986	0.9917500019073486	0.7347345352172852	0.0	244.0	371.0	0.0	0.0	0.0	0.0	0.0	0.0	null	null	null	null	null	null	null	null	339.0	335.0	333.0	336.0	333.0	333.0	336.0	335.0	337.0	328.0	333.0	
Sat Jun 03 19:14:00 UTC 2017	0.0	1.047281664E9	2619.204833984375	0.0	2.5731072E7	0.0	2.0	8.35608576E8	44.71476745605469	0.0	0.0	1.062285312E9	1.050107904E9	0.0	0.0	0.07724999636411667	0.04899999871850014	0.048500001430511475	0.9917500019073486	0.7355217337608337	0.0	244.0	371.0	0.0	0.0	0.0	0.0	0.0	0.0	null	null	null	null	null	null	null	null	332.0	334.0	335.0	331.0	338.0	334.0	333.0	334.0	333.0	333.0	336.0	
Sat Jun 03 19:13:00 UTC 2017	0.0	1.047281664E9	2835.8798828125	0.0	2.5731072E7	0.0	2.0	8.35608576E8	42.16143798828125	0.0	0.0	1.062285312E9	1.050107904E9	0.0	0.0	0.08275000005960464	0.05324999988079071	0.04699999839067459	0.9915000200271606	0.7332192063331604	0.0	244.0	371.0	0.0	0.0	0.0	0.0	0.0	0.0	null	null	null	null	null	null	null	null	335.0	335.0	337.0	338.0	335.0	333.0	333.0	336.0	335.0	336.0	335.0	
Sat Jun 03 19:12:00 UTC 2017	0.0	1.047281664E9	3002.341796875	0.0	2.5731072E7	0.0	2.0	8.35608576E8	49.66652297973633	0.0	0.0	1.062285312E9	1.050107904E9	0.0	0.0	0.06975000351667404	0.04450000077486038	0.048250000923871994	0.9917500019073486	0.733212411403656	0.0	244.0	371.0	0.0	0.0	0.0	0.0	0.0	0.0	null	null	null	null	null	null	null	null	336.0	337.0	333.0	332.0	331.0	333.0	332.0	329.0	335.0	332.0	334.0	
Sat Jun 03 19:11:00 UTC 2017	0.0	1.047281664E9	2584.626220703125	0.0	2.5731072E7	0.0	3.0	8.35608576E8	49.66652297973633	0.0	0.0	1.062285312E9	1.050107904E9	0.0	0.0	0.09875000268220901	0.05324999988079071	0.05000000074505806	0.9915000200271606	0.7331952452659607	0.0	244.0	371.0	0.0	0.0	0.0	0.0	0.0	0.0	null	null	null	null	null	null	null	null	335.0	333.0	334.0	335.0	334.0	333.0	333.0	333.0	335.0	333.0	336.0	
Sat Jun 03 19:10:00 UTC 2017	0.0	1.048293376E9	2584.626220703125	0.0	2.5731072E7	0.0	3.0	8.3574784E8	53.302242279052734	0.0	0.0	1.0612736E9	1.050107904E9	0.0	0.0	0.0742499977350235	0.05375000089406967	0.04374999925494194	0.9917500019073486	0.7353896498680115	0.0	244.0	371.0	0.0	0.0	0.0	0.0	0.0	0.0	null	null	null	null	null	null	null	null	329.0	337.0	332.0	333.0	334.0	334.0	334.0	335.0	336.0	333.0	336.0	
Sat Jun 03 19:09:00 UTC 2017	0.0	1.048293376E9	2653.616455078125	0.0	2.5731072E7	0.0	3.0	8.35383296E8	73.3254165649414	0.0	0.0	1.0612736E9	1.050107904E9	0.0	null	0.07074999809265137	0.04650000110268593	0.048250000923871994	0.9917500019073486	0.7331839799880981	0.0	244.0	371.0	0.0	0.0	0.0	0.0	0.0	0.0	null	null	null	null	null	null	null	null	334.0	334.0	335.0	337.0	334.0	334.0	334.0	335.0	330.0	335.0	336.0	
Sat Jun 03 19:08:00 UTC 2017	0.0	1.048293376E9	2647.686767578125	0.0	2.5731072E7	0.0	2.0	8.35383296E8	73.3254165649414	0.0	0.0	1.062285312E9	1.050107904E9	0.0	null	0.08275000005960464	0.05400000140070915	0.04600000008940697	0.9915000200271606	0.7343127727508545	0.0	244.0	371.0	0.0	0.0	0.0	0.0	0.0	0.0	null	null	null	null	null	null	null	null	334.0	334.0	335.0	330.0	336.0	333.0	335.0	334.0	336.0	335.0	329.0	
Sat Jun 03 19:07:00 UTC 2017	0.0	1.047281664E9	2647.686767578125	0.0	2.5731072E7	0.0	3.0	8.35383296E8	73.3254165649414	0.0	0.0	1.062285312E9	1.050107904E9	0.0	0.0	0.07524999976158142	0.04899999871850014	0.048500001430511475	0.9915000200271606	0.733165442943573	0.0	244.0	371.0	0.0	0.0	0.0	0.0	0.0	0.0	null	null	null	null	null	null	null	null	333.0	335.0	334.0	334.0	334.0	334.0	335.0	332.0	330.0	329.0	333.0	
Sat Jun 03 19:06:00 UTC 2017	0.0	1.047281664E9	2630.60595703125	0.0	2.5731072E7	0.0	2.0	8.35629056E8	73.3254165649414	0.0	0.0	1.0612736E9	1.050107904E9	0.0	0.0	0.0689999982714653	0.05400000140070915	0.04800000041723251	0.9919999837875366	0.7331522107124329	0.0	244.0	371.0	0.0	0.0	0.0	0.0	0.0	0.0	null	null	null	null	null	null	null	null	334.0	335.0	334.0	334.0	334.0	336.0	337.0	339.0	335.0	336.0	338.0	
Sat Jun 03 19:05:00 UTC 2017	0.0	1.047281664E9	2374.140869140625	0.0	2.5731072E7	0.0	2.0	8.35260416E8	80.51652526855469	1.0	2.0	1.062285312E9	1.050107904E9	0.0	0.0	0.07050000131130219	0.05925000086426735	0.04724999889731407	0.9917500019073486	0.7331345677375793	0.0	244.0	371.0	0.0	0.0	0.0	0.0	0.0	0.0	null	null	null	null	null	null	null	null	332.0	338.0	335.0	337.0	332.0	334.0	333.0	333.0	337.0	334.0	333.0	
Sat Jun 03 19:04:00 UTC 2017	0.0	1.048293376E9	2374.140869140625	0.0	2.5731072E7	0.0	2.0	8.35170304E8	80.51652526855469	1.0	0.0	1.062285312E9	1.050107904E9	0.0	0.0	0.07800000160932541	0.042750000953674316	0.05050000175833702	0.9919999837875366	0.733130693435669	0.0	244.0	371.0	0.0	0.0	0.0	0.0	0.0	0.0	null	null	null	null	null	null	null	null	335.0	334.0	336.0	332.0	335.0	335.0	331.0	333.0	335.0	335.0	337.0	
Sat Jun 03 19:03:00 UTC 2017	0.0	1.048293376E9	2639.1025390625	0.0	2.5731072E7	0.0	4.0	8.35170304E8	80.51652526855469	1.0	2.0	1.062285312E9	1.050107904E9	0.0	0.0	0.07824999839067459	0.054749999195337296	0.0442500002682209	0.9917500019073486	0.7330959439277649	0.0	244.0	371.0	0.0	0.0	0.0	0.0	0.0	0.0	null	null	null	null	null	null	null	null	334.0	336.0	335.0	336.0	336.0	335.0	337.0	335.0	334.0	333.0	337.0	
Sat Jun 03 19:02:00 UTC 2017	0.0	1.047281664E9	2639.1025390625	0.0	2.5731072E7	0.0	2.0	8.35170304E8	43.800662994384766	1.0	1.0	1.0612736E9	1.050107904E9	0.0	0.0	0.07100000232458115	0.05550000071525574	0.0507499985396862	0.9915000200271606	0.7330939769744873	0.0	244.0	371.0	0.0	0.0	0.0	0.0	0.0	0.0	null	null	null	null	null	null	null	null	335.0	333.0	337.0	332.0	334.0	336.0	334.0	333.0	334.0	333.0	331.0	
Sat Jun 03 19:01:00 UTC 2017	0.0	1.047281664E9	2572.079833984375	0.0	2.5731072E7	0.0	2.0	8.34957312E8	46.525821685791016	1.0	0.0	1.0612736E9	1.050107904E9	0.0	0.0	0.11349999904632568	0.0494999997317791	0.041999999433755875	0.9922500252723694	0.7330753803253174	0.0	244.0	371.0	0.0	0.0	0.0	0.0	0.0	0.0	null	null	null	null	null	null	null	null	337.0	334.0	332.0	338.0	334.0	335.0	336.0	335.0	334.0	337.0	337.0	
Sat Jun 03 19:00:00 UTC 2017	0.0	1.047281664E9	3094.603515625	0.0	2.5731072E7	0.0	2.0	8.35047424E8	46.525821685791016	0.0	1.0	1.062285312E9	1.050107904E9	0.0	0.0	0.07374999672174454	0.05925000086426735	0.050999999046325684	0.9919999837875366	0.7330739498138428	0.0	244.0	371.0	0.0	0.0	0.0	0.0	0.0	0.0	null	null	null	null	null	null	null	null	337.0	337.0	335.0	333.0	334.0	335.0	335.0	333.0	334.0	333.0	335.0	
Sat Jun 03 18:59:00 UTC 2017	0.0	1.047281664E9	2923.467041015625	0.0	2.5731072E7	0.0	3.0	8.34957312E8	39.07400131225586	1.0	0.0	1.0612736E9	1.050107904E9	0.0	0.0	0.07225000113248825	0.04774999991059303	0.05000000074505806	0.9915000200271606	0.7353436350822449	0.0	244.0	371.0	0.0	0.0	0.0	0.0	0.0	0.0	null	null	null	null	null	null	null	null	331.0	333.0	333.0	335.0	335.0	332.0	335.0	336.0	334.0	337.0	332.0	
Sat Jun 03 18:58:00 UTC 2017	0.0	1.047281664E9	2478.572998046875	0.0	2.5731072E7	0.0	3.0	8.33908736E8	39.07400131225586	0.0	0.0	1.062285312E9	1.050107904E9	0.0	0.0	0.07850000262260437	0.05050000175833702	0.04749999940395355	0.9917500019073486	0.7330387234687805	0.0	244.0	371.0	0.0	0.0	0.0	0.0	0.0	0.0	null	null	null	null	null	null	null	null	335.0	332.0	333.0	334.0	334.0	334.0	334.0	332.0	334.0	332.0	334.0	
Sat Jun 03 18:57:00 UTC 2017	0.0	1.047281664E9	2854.514404296875	0.0	2.5731072E7	0.0	3.0	8.33908736E8	54.558292388916016	0.0	0.0	1.0612736E9	1.050107904E9	0.0	0.0	0.07199999690055847	0.05375000089406967	0.04500000178813934	0.9915000200271606	0.7330445647239685	0.0	244.0	371.0	0.0	0.0	0.0	0.0	0.0	0.0	null	null	null	null	null	null	null	null	331.0	335.0	338.0	332.0	330.0	334.0	332.0	337.0	332.0	330.0	333.0	
Sat Jun 03 18:56:00 UTC 2017	0.0	1.048293376E9	2854.514404296875	0.0	2.5731072E7	0.0	2.0	8.34158592E8	52.01219940185547	1.0	1.0	1.062285312E9	1.050107904E9	0.0	0.0	0.07925000041723251	0.05225000157952309	0.05000000074505806	0.9915000200271606	0.7353152632713318	0.0	244.0	371.0	0.0	0.0	0.0	0.0	0.0	0.0	null	null	null	null	null	null	null	null	332.0	333.0	332.0	330.0	336.0	334.0	335.0	333.0	335.0	336.0	334.0	
Sat Jun 03 18:55:00 UTC 2017	0.0	1.047281664E9	2854.514404296875	0.0	2.5731072E7	0.0	2.0	8.33789952E8	52.01219940185547	0.0	1.0	1.0612736E9	1.050107904E9	0.0	0.0	0.07225000113248825	0.05575000122189522	0.04399999976158142	0.9912499785423279	0.7330294251441956	0.0	244.0	371.0	0.0	0.0	0.0	0.0	0.0	0.0	null	null	null	null	null	null	null	null	336.0	332.0	337.0	335.0	333.0	333.0	333.0	330.0	331.0	335.0	336.0	
Sat Jun 03 18:54:00 UTC 2017	1.0	1.048293376E9	2854.514404296875	0.0	2.5731072E7	0.0	2.0	8.3369984E8	58.4813117980957	0.0	0.0	1.062285312E9	1.050107904E9	0.0	0.0	0.0742499977350235	0.054249998182058334	0.04975000023841858	0.9919999837875366	0.7330381870269775	0.0	244.0	371.0	0.0	0.0	0.0	0.0	0.0	0.0	null	null	null	null	null	null	null	null	331.0	338.0	335.0	331.0	332.0	336.0	334.0	336.0	338.0	335.0	334.0	
Sat Jun 03 18:53:00 UTC 2017	0.0	1.048293376E9	2666.2978515625	0.0	2.5731072E7	0.0	3.0	8.3369984E8	58.4813117980957	1.0	1.0	1.0612736E9	1.050107904E9	0.0	0.0	0.07175000011920929	0.05375000089406967	0.04399999976158142	0.9917500019073486	0.7330034375190735	0.0	244.0	371.0	0.0	0.0	0.0	0.0	0.0	0.0	null	null	null	null	null	null	null	null	335.0	335.0	336.0	335.0	332.0	336.0	334.0	334.0	334.0	331.0	336.0	
Sat Jun 03 18:52:00 UTC 2017	0.0	1.048293376E9	2962.060546875	0.0	2.5731072E7	0.0	2.0	8.3369984E8	58.4813117980957	1.0	1.0	1.062285312E9	1.050107904E9	0.0	0.0	0.07649999856948853	0.05000000074505806	0.04724999889731407	0.9917500019073486	0.7329887747764587	0.0	244.0	371.0	0.0	0.0	0.0	0.0	0.0	0.0	null	null	null	null	null	null	null	null	333.0	331.0	336.0	331.0	337.0	332.0	333.0	331.0	332.0	334.0	334.0	
Sat Jun 03 18:51:00 UTC 2017	0.0	1.047281664E9	2962.060546875	0.0	2.5731072E7	0.0	3.0	8.339456E8	58.4813117980957	1.0	1.0	1.062281216E9	1.050107904E9	0.0	0.0	0.09200000017881393	0.05400000140070915	0.051249999552965164	0.9917500019073486	0.732986330986023	0.0	244.0	371.0	0.0	0.0	0.0	0.0	0.0	0.0	null	null	null	null	null	null	null	null	332.0	334.0	333.0	335.0	335.0	338.0	333.0	333.0	338.0	333.0	335.0	
Sat Jun 03 18:50:00 UTC 2017	0.0	1.048293376E9	2962.060546875	0.0	2.5731072E7	0.0	5.0	8.3357696E8	35.41374969482422	1.0	1.0	1.061269504E9	1.050107904E9	0.0	0.0	0.07249999791383743	0.05299999937415123	0.048500001430511475	0.9919999837875366	0.7329731583595276	0.0	244.0	371.0	0.0	0.0	0.0	0.0	0.0	0.0	null	null	null	null	null	null	null	null	335.0	337.0	336.0	340.0	336.0	336.0	336.0	337.0	333.0	334.0	331.0	
Sat Jun 03 18:49:00 UTC 2017	0.0	1.048293376E9	2145.871337890625	0.0	2.5731072E7	0.0	2.0	8.33486848E8	60.30747985839844	1.0	1.0	1.061269504E9	1.050107904E9	0.0	0.0	0.07575000077486038	0.054249998182058334	0.04450000077486038	0.9919999837875366	0.7347986102104187	0.0	244.0	371.0	0.0	0.0	0.0	0.0	0.0	0.0	null	null	null	null	null	null	null	null	336.0	337.0	335.0	336.0	332.0	331.0	331.0	332.0	334.0	336.0	337.0	
Sat Jun 03 18:48:00 UTC 2017	0.0	1.048293376E9	3237.521484375	0.0	2.5731072E7	0.0	4.0	8.33486848E8	60.30747985839844	0.0	1.0	1.061269504E9	1.050107904E9	0.0	0.0	0.0729999989271164	0.04975000023841858	0.04675000160932541	0.9915000200271606	0.7347800135612488	0.0	244.0	371.0	0.0	0.0	0.0	0.0	0.0	0.0	null	null	null	null	null	null	null	null	333.0	334.0	335.0	333.0	334.0	334.0	335.0	338.0	335.0	333.0	338.0	
Sat Jun 03 18:47:00 UTC 2017	0.0	1.047281664E9	3237.521484375	0.0	2.5731072E7	0.0	2.0	8.33486848E8	60.30747985839844	1.0	0.0	1.061269504E9	1.050107904E9	0.0	0.0	0.08025000244379044	0.054999999701976776	0.04899999871850014	0.9919999837875366	0.7352012991905212	0.0	244.0	371.0	0.0	0.0	0.0	0.0	0.0	0.0	null	null	null	null	null	null	null	null	334.0	333.0	334.0	338.0	333.0	337.0	331.0	333.0	335.0	335.0	335.0	
Sat Jun 03 18:46:00 UTC 2017	0.0	1.047281664E9	2710.361328125	0.0	2.5731072E7	0.0	3.0	8.33732608E8	60.30747985839844	1.0	1.0	1.061269504E9	1.050107904E9	0.0	null	0.06949999928474426	0.04874999821186066	0.04874999821186066	0.9917500019073486	0.7329021692276001	0.0	244.0	371.0	0.0	0.0	0.0	0.0	0.0	0.0	null	null	null	null	null	null	null	null	333.0	334.0	332.0	330.0	336.0	328.0	336.0	333.0	334.0	335.0	334.0	
Sat Jun 03 18:45:00 UTC 2017	0.0	1.048293376E9	2710.361328125	0.0	2.5731072E7	0.0	2.0	8.33363968E8	60.11735916137695	1.0	1.0	1.061269504E9	1.050107904E9	0.0	0.0	0.08174999803304672	0.05849999934434891	0.04324999824166298	0.9922500252723694	0.7328963279724121	0.0	244.0	371.0	0.0	0.0	0.0	0.0	0.0	0.0	null	null	null	null	null	null	null	null	338.0	335.0	333.0	335.0	337.0	335.0	339.0	336.0	335.0	337.0	335.0	
Sat Jun 03 18:44:00 UTC 2017	0.0	1.047281664E9	2710.361328125	0.0	2.5731072E7	0.0	2.0	8.33273856E8	32.889225006103516	1.0	0.0	1.061269504E9	1.050107904E9	0.0	0.0	0.0689999982714653	0.054749999195337296	0.05050000175833702	0.9925000071525574	0.7328821420669556	0.0	244.0	371.0	0.0	0.0	0.0	0.0	0.0	0.0	null	null	null	null	null	null	null	null	334.0	336.0	334.0	337.0	333.0	336.0	332.0	335.0	330.0	333.0	333.0	
Sat Jun 03 18:43:00 UTC 2017	0.0	1.047281664E9	2379.2646484375	0.0	2.5731072E7	0.0	3.0	8.33273856E8	38.369041442871094	0.0	0.0	1.061269504E9	1.050107904E9	0.0	null	0.07349999994039536	0.04975000023841858	0.04574999958276749	0.9922500252723694	0.7328547239303589	0.0	244.0	371.0	0.0	0.0	0.0	0.0	0.0	0.0	null	null	null	null	null	null	null	null	331.0	336.0	335.0	332.0	335.0	336.0	336.0	332.0	335.0	336.0	338.0	
Sat Jun 03 18:42:00 UTC 2017	0.0	1.047281664E9	3334.400634765625	0.0	2.5731072E7	0.0	2.0	8.33273856E8	38.369041442871094	0.0	0.0	1.061269504E9	1.050107904E9	0.0	null	0.07225000113248825	0.04975000023841858	0.04774999991059303	0.9919999837875366	0.7351376414299011	0.0	244.0	371.0	0.0	0.0	0.0	0.0	0.0	0.0	null	null	null	null	null	null	null	null	336.0	331.0	336.0	339.0	332.0	330.0	335.0	335.0	334.0	333.0	333.0	
Sat Jun 03 18:41:00 UTC 2017	0.0	1.047281664E9	2397.23681640625	0.0	2.5731072E7	0.0	2.0	8.33056768E8	38.369041442871094	1.0	1.0	1.061269504E9	1.050107904E9	0.0	null	0.1002499982714653	0.05400000140070915	0.04699999839067459	0.9922500252723694	0.7351205348968506	0.0	244.0	371.0	0.0	0.0	0.0	0.0	0.0	0.0	null	null	null	null	null	null	null	null	337.0	335.0	334.0	335.0	334.0	336.0	335.0	335.0	338.0	338.0	334.0	
Sat Jun 03 18:40:00 UTC 2017	0.0	1.047281664E9	2847.57958984375	0.0	2.5731072E7	0.0	2.0	8.3314688E8	38.369041442871094	1.0	1.0	1.062281216E9	1.050107904E9	0.0	null	0.08124999701976776	0.0494999997317791	0.04574999958276749	0.9919999837875366	0.7344913482666016	0.0	244.0	371.0	0.0	0.0	0.0	0.0	0.0	0.0	null	null	null	null	null	null	null	null	331.0	335.0	337.0	333.0	333.0	333.0	340.0	335.0	331.0	331.0	333.0	
Sat Jun 03 18:39:00 UTC 2017	0.0	1.048293376E9	2847.57958984375	0.0	2.5731072E7	0.0	2.0	8.33056768E8	42.55119705200195	0.0	0.0	1.061269504E9	1.050107904E9	0.0	null	0.0677499994635582	0.051249999552965164	0.04975000023841858	0.9922500252723694	0.7350985407829285	0.0	244.0	371.0	0.0	0.0	0.0	0.0	0.0	0.0	null	null	null	null	null	null	null	null	336.0	337.0	337.0	331.0	333.0	335.0	334.0	335.0	335.0	334.0	333.0	
Sat Jun 03 18:38:00 UTC 2017	0.0	1.047281664E9	2847.57958984375	0.0	2.5731072E7	0.0	2.0	8.33056768E8	37.59169387817383	1.0	1.0	1.061269504E9	1.050107904E9	0.0	null	0.08474999666213989	0.05624999850988388	0.04899999871850014	0.9919999837875366	0.7336859703063965	0.0	244.0	371.0	0.0	0.0	0.0	0.0	0.0	0.0	null	null	null	null	null	null	null	null	336.0	332.0	332.0	338.0	339.0	334.0	336.0	333.0	334.0	334.0	338.0	
Sat Jun 03 18:37:00 UTC 2017	0.0	1.048293376E9	2847.57958984375	0.0	2.5731072E7	0.0	4.0	8.33056768E8	51.87215805053711	1.0	2.0	1.062281216E9	1.050107904E9	0.0	null	0.06350000202655792	0.05874999985098839	0.04475000128149986	0.9919999837875366	0.7327837944030762	0.0	244.0	371.0	0.0	0.0	0.0	0.0	0.0	0.0	null	null	null	null	null	null	null	null	335.0	337.0	336.0	335.0	334.0	338.0	335.0	333.0	335.0	336.0	331.0	
Sat Jun 03 18:36:00 UTC 2017	0.0	1.047281664E9	2847.57958984375	0.0	2.5731072E7	0.0	3.0	8.33306624E8	51.87215805053711	1.0	2.0	1.061269504E9	1.050107904E9	0.0	null	0.07900000363588333	0.05400000140070915	0.05225000157952309	0.9919999837875366	0.7327808737754822	0.0	244.0	371.0	0.0	0.0	0.0	0.0	0.0	0.0	null	null	null	null	null	null	null	null	331.0	334.0	333.0	333.0	337.0	330.0	335.0	335.0	334.0	330.0	335.0	
Sat Jun 03 18:35:00 UTC 2017	0.0	1.048293376E9	2847.57958984375	0.0	2.5731072E7	0.0	2.0	8.32937984E8	51.87215805053711	1.0	1.0	1.061269504E9	1.050107904E9	0.0	0.0	0.07249999791383743	0.054499998688697815	0.04874999821186066	0.9919999837875366	0.7327637076377869	0.0	244.0	371.0	0.0	0.0	0.0	0.0	0.0	0.0	null	null	null	null	null	null	null	null	336.0	335.0	337.0	334.0	337.0	337.0	336.0	333.0	335.0	335.0	335.0	
Sat Jun 03 18:34:00 UTC 2017	0.0	1.048293376E9	2729.842041015625	0.0	2.5731072E7	0.0	2.0	8.32847872E8	51.87215805053711	0.0	1.0	1.062281216E9	1.050107904E9	0.0	0.0	0.07199999690055847	0.051249999552965164	0.045249998569488525	0.9922500252723694	0.7327470779418945	0.0	244.0	371.0	0.0	0.0	0.0	0.0	0.0	0.0	null	null	null	null	null	null	null	null	328.0	334.0	334.0	338.0	336.0	330.0	335.0	334.0	335.0	336.0	336.0	
Sat Jun 03 18:33:00 UTC 2017	0.0	1.048293376E9	2899.80810546875	0.0	2.5731072E7	0.0	2.0	8.32847872E8	51.87215805053711	0.0	0.0	1.062281216E9	1.050107904E9	0.0	null	0.07599999755620956	0.04749999940395355	0.04574999958276749	0.9922500252723694	0.7327456474304199	0.0	244.0	371.0	0.0	0.0	0.0	0.0	0.0	0.0	null	null	null	null	null	null	null	null	335.0	335.0	330.0	335.0	337.0	335.0	334.0	335.0	331.0	336.0	340.0	
Sat Jun 03 18:32:00 UTC 2017	0.0	1.047281664E9	2899.80810546875	0.0	2.5731072E7	0.0	3.0	8.32847872E8	51.87215805053711	0.0	0.0	1.062281216E9	1.050107904E9	0.0	0.0	0.07074999809265137	0.05400000140070915	0.04924999922513962	0.9922500252723694	0.7326272130012512	0.0	244.0	371.0	0.0	0.0	0.0	0.0	0.0	0.0	null	null	null	null	null	null	null	null	333.0	337.0	333.0	333.0	334.0	332.0	334.0	334.0	335.0	332.0	332.0	
Sat Jun 03 18:31:00 UTC 2017	0.0	1.048293376E9	2899.80810546875	0.0	2.5731072E7	0.0	2.0	8.32724992E8	56.909889221191406	0.0	0.0	1.062281216E9	1.050107904E9	0.0	0.0	0.09574999660253525	0.04899999871850014	0.04800000041723251	0.9919999837875366	0.7326032519340515	0.0	244.0	371.0	0.0	0.0	0.0	0.0	0.0	0.0	null	null	null	null	null	null	null	null	336.0	334.0	334.0	332.0	336.0	338.0	335.0	336.0	336.0	337.0	336.0	
Sat Jun 03 18:30:00 UTC 2017	0.0	1.047281664E9	2899.80810546875	0.0	2.5731072E7	0.0	2.0	8.32724992E8	56.909889221191406	0.0	0.0	1.061269504E9	1.050107904E9	0.0	0.0	0.07800000160932541	0.05400000140070915	0.04399999976158142	0.9919999837875366	0.732586145401001	0.0	244.0	371.0	0.0	0.0	0.0	0.0	0.0	0.0	null	null	null	null	null	null	null	null	332.0	337.0	335.0	334.0	333.0	336.0	334.0	334.0	333.0	331.0	334.0	
Sat Jun 03 18:29:00 UTC 2017	0.0	1.047281664E9	2795.61572265625	0.0	2.5731072E7	0.0	3.0	8.3263488E8	56.909889221191406	0.0	0.0	1.061269504E9	1.050107904E9	0.0	0.0	0.0767500028014183	0.048500001430511475	0.05400000140070915	0.9919999837875366	0.732586145401001	0.0	244.0	371.0	0.0	0.0	0.0	0.0	0.0	0.0	null	null	null	null	null	null	null	null	338.0	335.0	331.0	336.0	335.0	333.0	336.0	338.0	337.0	335.0	330.0	
Sat Jun 03 18:28:00 UTC 2017	0.0	1.048293376E9	2795.61572265625	0.0	2.5731072E7	0.0	4.0	8.3263488E8	61.302734375	0.0	0.0	1.062281216E9	1.050107904E9	0.0	0.0	0.07575000077486038	0.05050000175833702	0.04349999874830246	0.9922500252723694	0.7325528264045715	0.0	244.0	371.0	0.0	0.0	0.0	0.0	0.0	0.0	null	null	null	null	null	null	null	null	334.0	335.0	337.0	334.0	332.0	334.0	337.0	334.0	336.0	334.0	332.0	
Sat Jun 03 18:27:00 UTC 2017	0.0	1.048293376E9	2434.52392578125	0.0	2.5731072E7	0.0	3.0	8.3263488E8	58.17280197143555	0.0	0.0	1.061269504E9	1.050107904E9	0.0	0.0	0.07800000160932541	0.051500000059604645	0.0494999997317791	0.9925000071525574	0.732535719871521	0.0	244.0	371.0	0.0	0.0	0.0	0.0	0.0	0.0	null	null	null	null	null	null	null	null	340.0	340.0	332.0	334.0	334.0	336.0	336.0	338.0	333.0	335.0	335.0	
Sat Jun 03 18:26:00 UTC 2017	0.0	1.047281664E9	2434.52392578125	0.0	2.5731072E7	0.0	2.0	8.3288064E8	36.12180709838867	0.0	0.0	1.062281216E9	1.050107904E9	0.0	0.0	0.06875000149011612	0.05225000157952309	0.05000000074505806	0.9922500252723694	0.7325347661972046	0.0	244.0	371.0	0.0	0.0	0.0	0.0	0.0	0.0	null	null	null	null	null	null	null	null	330.0	333.0	335.0	336.0	334.0	336.0	332.0	334.0	335.0	333.0	337.0	
Sat Jun 03 18:25:00 UTC 2017	0.0	1.048293376E9	2434.52392578125	0.0	2.5731072E7	0.0	2.0	8.32512E8	38.233699798583984	0.0	0.0	1.062281216E9	1.050107904E9	0.0	0.0	0.08375000208616257	0.04574999958276749	0.04450000077486038	0.9919999837875366	0.7329276204109192	0.0	244.0	371.0	0.0	0.0	0.0	0.0	0.0	0.0	null	null	null	null	null	null	null	null	338.0	334.0	336.0	333.0	338.0	334.0	338.0	332.0	338.0	337.0	330.0	
Sat Jun 03 18:24:00 UTC 2017	0.0	1.048293376E9	3169.72021484375	0.0	2.5731072E7	0.0	2.0	8.32421888E8	38.233699798583984	0.0	0.0	1.062281216E9	1.050107904E9	0.0	0.0	0.06975000351667404	0.0572500005364418	0.04874999821186066	0.9922500252723694	0.7325083017349243	0.0	244.0	371.0	0.0	0.0	0.0	0.0	0.0	0.0	null	null	null	null	null	null	null	null	338.0	333.0	333.0	336.0	335.0	335.0	332.0	337.0	333.0	333.0	337.0	
Sat Jun 03 18:23:00 UTC 2017	0.0	1.048293376E9	2685.4951171875	0.0	2.5731072E7	0.0	2.0	8.32421888E8	38.233699798583984	0.0	0.0	1.061269504E9	1.050107904E9	0.0	0.0	0.07074999809265137	0.0494999997317791	0.045499999076128006	0.9919999837875366	0.7324833869934082	0.0	244.0	371.0	0.0	0.0	0.0	0.0	0.0	0.0	null	null	null	null	null	null	null	null	332.0	338.0	332.0	334.0	333.0	332.0	336.0	338.0	334.0	334.0	333.0	
Sat Jun 03 18:22:00 UTC 2017	0.0	1.048293376E9	2717.719482421875	0.0	2.5731072E7	0.0	4.0	8.32421888E8	38.233699798583984	0.0	0.0	1.062281216E9	1.050107904E9	0.0	0.0	0.07724999636411667	0.04450000077486038	0.04600000008940697	0.9919999837875366	0.7325523495674133	0.0	244.0	371.0	0.0	0.0	0.0	0.0	0.0	0.0	null	null	null	null	null	null	null	null	339.0	332.0	336.0	334.0	333.0	337.0	336.0	334.0	335.0	333.0	333.0	
Sat Jun 03 18:21:00 UTC 2017	0.0	1.048293376E9	2906.17919921875	0.0	2.5731072E7	0.0	2.0	8.32303104E8	38.233699798583984	0.0	0.0	1.061269504E9	1.050107904E9	0.0	0.0	0.0989999994635582	0.054999999701976776	0.04675000160932541	0.9922500252723694	0.7347481846809387	0.0	244.0	371.0	0.0	0.0	0.0	0.0	0.0	0.0	null	null	null	null	null	null	null	null	335.0	333.0	335.0	333.0	335.0	335.0	335.0	332.0	333.0	339.0	334.0	
Sat Jun 03 18:20:00 UTC 2017	0.0	1.047281664E9	2906.17919921875	0.0	2.5731072E7	0.0	2.0	8.32303104E8	38.233699798583984	0.0	0.0	1.062281216E9	1.050107904E9	0.0	0.0	0.08049999922513962	0.04874999821186066	0.04975000023841858	0.9919999837875366	0.7324750423431396	0.0	244.0	371.0	0.0	0.0	0.0	0.0	0.0	0.0	null	null	null	null	null	null	null	null	336.0	338.0	333.0	336.0	333.0	335.0	335.0	332.0	336.0	334.0	338.0	
Sat Jun 03 18:19:00 UTC 2017	0.0	1.047281664E9	2987.094970703125	0.0	2.5731072E7	0.0	2.0	8.32212992E8	54.55466079711914	0.0	0.0	1.062281216E9	1.050107904E9	0.0	null	0.07275000214576721	0.04924999922513962	0.05000000074505806	0.9917500019073486	0.7324579358100891	0.0	244.0	371.0	0.0	0.0	0.0	0.0	0.0	0.0	null	null	null	null	null	null	null	null	334.0	337.0	332.0	336.0	333.0	331.0	335.0	336.0	331.0	336.0	333.0	
Sat Jun 03 18:18:00 UTC 2017	0.0	1.047281664E9	2618.70458984375	0.0	2.5731072E7	0.0	3.0	8.32212992E8	44.845699310302734	0.0	0.0	1.061269504E9	1.050107904E9	0.0	null	0.07649999856948853	0.04800000041723251	0.04650000110268593	0.9919999837875366	0.732441782951355	0.0	244.0	371.0	0.0	0.0	0.0	0.0	0.0	0.0	null	null	null	null	null	null	null	null	337.0	331.0	338.0	331.0	332.0	335.0	334.0	338.0	335.0	333.0	337.0	
Sat Jun 03 18:17:00 UTC 2017	0.0	1.047281664E9	2879.38916015625	0.0	2.5731072E7	0.0	2.0	8.30111744E8	44.845699310302734	0.0	0.0	1.061269504E9	1.050107904E9	0.0	null	0.07249999791383743	0.052000001072883606	0.04149999842047691	0.9919999837875366	0.732441782951355	0.0	244.0	371.0	0.0	0.0	0.0	0.0	0.0	0.0	null	null	null	null	null	null	null	null	331.0	339.0	335.0	337.0	333.0	334.0	337.0	335.0	332.0	338.0	335.0	
Sat Jun 03 18:16:00 UTC 2017	0.0	1.048293376E9	2879.38916015625	0.0	2.5731072E7	0.0	3.0	8.3042304E8	47.13644790649414	0.0	0.0	1.062281216E9	1.050107904E9	0.0	null	0.07100000232458115	0.04724999889731407	0.050999999046325684	0.9919999837875366	0.7343406677246094	0.0	244.0	371.0	0.0	0.0	0.0	0.0	0.0	0.0	null	null	null	null	null	null	null	null	335.0	332.0	335.0	334.0	331.0	334.0	333.0	334.0	335.0	333.0	334.0	
Sat Jun 03 18:15:00 UTC 2017	0.0	1.048293376E9	2909.250244140625	0.0	2.5731072E7	0.0	2.0	8.29988864E8	47.13644790649414	0.0	0.0	1.061269504E9	1.050107904E9	0.0	null	0.07500000298023224	0.05550000071525574	0.04774999991059303	0.9922500252723694	0.7324056029319763	0.0	244.0	371.0	0.0	0.0	0.0	0.0	0.0	0.0	null	null	null	null	null	null	null	null	335.0	336.0	333.0	331.0	338.0	334.0	334.0	336.0	333.0	333.0	335.0	
Sat Jun 03 18:14:00 UTC 2017	0.0	1.048293376E9	2386.015625	0.0	2.5731072E7	0.0	2.0	8.29898752E8	47.13644790649414	0.0	0.0	1.062281216E9	1.050107904E9	0.0	null	0.07774999737739563	0.04475000128149986	0.045499999076128006	0.9922500252723694	0.7324016690254211	0.0	244.0	371.0	0.0	0.0	0.0	0.0	0.0	0.0	null	null	null	null	null	null	null	null	335.0	334.0	337.0	336.0	332.0	331.0	334.0	338.0	338.0	339.0	335.0	
Sat Jun 03 18:13:00 UTC 2017	0.0	1.048293376E9	2963.54638671875	0.0	2.5731072E7	0.0	2.0	8.29898752E8	38.20151138305664	0.0	0.0	1.062281216E9	1.050107904E9	0.0	0.0	0.07175000011920929	0.057999998331069946	0.048500001430511475	0.9919999837875366	0.732379138469696	0.0	244.0	371.0	0.0	0.0	0.0	0.0	0.0	0.0	null	null	null	null	null	null	null	null	335.0	334.0	337.0	335.0	333.0	334.0	340.0	332.0	331.0	331.0	337.0	
Sat Jun 03 18:12:00 UTC 2017	0.0	1.048293376E9	2708.19189453125	0.0	2.5731072E7	0.0	4.0	8.29898752E8	38.20151138305664	0.0	0.0	1.061269504E9	1.050107904E9	0.0	0.0	0.06424999982118607	0.045249998569488525	0.04675000160932541	0.9919999837875366	0.7346386313438416	0.0	244.0	371.0	0.0	0.0	0.0	0.0	0.0	0.0	null	null	null	null	null	null	null	null	337.0	334.0	329.0	331.0	336.0	337.0	334.0	338.0	332.0	335.0	333.0	
Sat Jun 03 18:11:00 UTC 2017	0.0	1.048293376E9	2606.678955078125	0.0	2.5731072E7	0.0	3.0	8.2968576E8	38.20151138305664	0.0	0.0	1.061269504E9	1.050107904E9	0.0	0.0	0.10350000113248825	0.052000001072883606	0.04324999824166298	0.9922500252723694	0.7346112132072449	0.0	244.0	371.0	0.0	0.0	0.0	0.0	0.0	0.0	null	null	null	null	null	null	null	null	333.0	335.0	337.0	336.0	330.0	334.0	332.0	332.0	336.0	338.0	334.0	
Sat Jun 03 18:10:00 UTC 2017	0.0	1.048293376E9	2721.054931640625	0.0	2.5731072E7	0.0	3.0	8.29833216E8	46.11360168457031	0.0	0.0	1.062281216E9	1.050107904E9	0.0	0.0	0.07649999856948853	0.05050000175833702	0.05225000157952309	0.9919999837875366	0.7345799207687378	0.0	244.0	371.0	0.0	0.0	0.0	0.0	0.0	0.0	null	null	null	null	null	null	null	null	334.0	338.0	335.0	335.0	335.0	333.0	335.0	339.0	331.0	335.0	337.0	
Sat Jun 03 18:09:00 UTC 2017	0.0	1.047281664E9	2721.054931640625	0.0	2.5731072E7	0.0	2.0	8.29530112E8	46.11360168457031	0.0	0.0	1.062281216E9	1.050107904E9	0.0	null	0.06424999982118607	0.051249999552965164	0.045249998569488525	0.9919999837875366	0.7322900891304016	0.0	244.0	371.0	0.0	0.0	0.0	0.0	0.0	0.0	null	null	null	null	null	null	null	null	336.0	334.0	333.0	334.0	334.0	331.0	336.0	333.0	335.0	333.0	335.0	
Sat Jun 03 18:08:00 UTC 2017	0.0	1.047281664E9	2666.614501953125	0.0	2.5731072E7	0.0	2.0	8.29530112E8	43.31880569458008	0.0	0.0	1.061269504E9	1.050107904E9	0.0	null	0.07724999636411667	0.051500000059604645	0.048250000923871994	0.9915000200271606	0.7322803139686584	0.0	244.0	371.0	0.0	0.0	0.0	0.0	0.0	0.0	null	null	null	null	null	null	null	null	335.0	335.0	336.0	336.0	335.0	335.0	335.0	334.0	334.0	336.0	333.0	
Sat Jun 03 18:07:00 UTC 2017	0.0	1.047281664E9	2747.830078125	0.0	2.5731072E7	0.0	2.0	8.29530112E8	55.77309799194336	0.0	0.0	1.062281216E9	1.050107904E9	0.0	null	0.07074999809265137	0.05225000157952309	0.04149999842047691	0.9919999837875366	0.7336238622665405	0.0	244.0	371.0	0.0	0.0	0.0	0.0	0.0	0.0	null	null	null	null	null	null	null	null	333.0	335.0	333.0	333.0	332.0	335.0	336.0	336.0	335.0	330.0	332.0	
Sat Jun 03 18:06:00 UTC 2017	0.0	1.047281664E9	2474.477783203125	0.0	2.5731072E7	0.0	2.0	8.29845504E8	55.77309799194336	1.0	0.0	1.062281216E9	1.050107904E9	0.0	0.0	0.07649999856948853	0.04724999889731407	0.050999999046325684	0.9919999837875366	0.7345060110092163	0.0	244.0	371.0	0.0	0.0	0.0	0.0	0.0	0.0	null	null	null	null	null	null	null	null	333.0	335.0	334.0	336.0	336.0	334.0	335.0	336.0	335.0	334.0	336.0	
Sat Jun 03 18:05:00 UTC 2017	0.0	1.047281664E9	2965.914306640625	0.0	2.5731072E7	0.0	2.0	8.29411328E8	55.77309799194336	0.0	0.0	1.061269504E9	1.050107904E9	0.0	0.0	0.07649999856948853	0.051500000059604645	0.04500000178813934	0.9922500252723694	0.7322397232055664	0.0	244.0	371.0	0.0	0.0	0.0	0.0	0.0	0.0	null	null	null	null	null	null	null	null	338.0	335.0	338.0	333.0	333.0	335.0	334.0	332.0	333.0	335.0	332.0	
Sat Jun 03 18:04:00 UTC 2017	0.0	1.048293376E9	2965.914306640625	0.0	2.5731072E7	0.0	4.0	8.29321216E8	54.30727767944336	0.0	0.0	1.062281216E9	1.050107904E9	0.0	0.0	0.07000000029802322	0.054249998182058334	0.0442500002682209	0.9922500252723694	0.7322255373001099	0.0	244.0	371.0	0.0	0.0	0.0	0.0	0.0	0.0	null	null	null	null	null	null	null	null	336.0	335.0	333.0	334.0	337.0	335.0	336.0	338.0	337.0	335.0	333.0	
Sat Jun 03 18:03:00 UTC 2017	0.0	1.048293376E9	2348.10302734375	0.0	2.5731072E7	0.0	2.0	8.28268544E8	44.51637649536133	0.0	0.0	1.061269504E9	1.050107904E9	0.0	0.0	0.06674999743700027	0.04749999940395355	0.051500000059604645	0.9922500252723694	0.7322196364402771	0.0	244.0	371.0	0.0	0.0	0.0	0.0	0.0	0.0	null	null	null	null	null	null	null	null	332.0	333.0	336.0	338.0	333.0	335.0	332.0	331.0	334.0	336.0	333.0	
Sat Jun 03 18:02:00 UTC 2017	0.0	1.048293376E9	2653.093994140625	0.0	2.5731072E7	0.0	2.0	8.28268544E8	40.41524124145508	0.0	0.0	1.062281216E9	1.050107904E9	0.0	0.0	0.07800000160932541	0.048250000923871994	0.04324999824166298	0.9917500019073486	0.732203483581543	0.0	244.0	371.0	0.0	0.0	0.0	0.0	0.0	0.0	null	null	null	null	null	null	null	null	336.0	334.0	333.0	330.0	333.0	334.0	335.0	332.0	336.0	330.0	333.0	
Sat Jun 03 18:01:00 UTC 2017	0.0	1.048293376E9	3115.799072265625	0.0	2.5731072E7	0.0	3.0	8.28514304E8	58.786190032958984	0.0	0.0	1.061269504E9	1.050107904E9	0.0	0.0	0.10774999856948853	0.051249999552965164	0.04699999839067459	0.9922500252723694	0.7321560382843018	0.0	244.0	371.0	0.0	0.0	0.0	0.0	0.0	0.0	null	null	null	null	null	null	null	null	334.0	335.0	336.0	335.0	335.0	335.0	334.0	337.0	331.0	336.0	337.0	
Sat Jun 03 18:00:00 UTC 2017	0.0	1.048293376E9	3028.505859375	0.0	2.5731072E7	0.0	2.0	8.28145664E8	58.786190032958984	0.0	0.0	1.061269504E9	1.050107904E9	0.0	0.0	0.0754999965429306	0.04975000023841858	0.04675000160932541	0.9922500252723694	0.7321540713310242	0.0	244.0	371.0	0.0	0.0	0.0	0.0	0.0	0.0	null	null	null	null	null	null	null	null	334.0	335.0	332.0	336.0	334.0	334.0	338.0	335.0	335.0	336.0	335.0	
Sat Jun 03 17:59:00 UTC 2017	0.0	1.048293376E9	2411.208251953125	0.0	2.5731072E7	0.0	2.0	8.28055552E8	58.786190032958984	0.0	0.0	1.062281216E9	1.050107904E9	0.0	0.0	0.06449999660253525	0.05225000157952309	0.050999999046325684	0.9922500252723694	0.7320743203163147	0.0	244.0	371.0	0.0	0.0	0.0	0.0	0.0	0.0	null	null	null	null	null	null	null	null	334.0	334.0	333.0	334.0	335.0	337.0	333.0	336.0	335.0	334.0	333.0	
Sat Jun 03 17:58:00 UTC 2017	0.0	1.048293376E9	2979.868408203125	0.0	2.5731072E7	0.0	2.0	8.28055552E8	58.786190032958984	0.0	0.0	1.061269504E9	1.050107904E9	0.0	0.0	0.07999999821186066	0.05375000089406967	0.04650000110268593	0.9922500252723694	0.7320562601089478	0.0	244.0	371.0	0.0	0.0	0.0	0.0	0.0	0.0	null	null	null	null	null	null	null	null	337.0	335.0	334.0	336.0	339.0	331.0	335.0	336.0	336.0	337.0	335.0	
Sat Jun 03 17:57:00 UTC 2017	0.0	1.048293376E9	2612.97265625	0.0	2.5731072E7	0.0	3.0	8.28055552E8	41.58902359008789	0.0	0.0	1.061269504E9	1.050107904E9	0.0	0.0	0.06949999928474426	0.045249998569488525	0.04574999958276749	0.9917500019073486	0.7321462631225586	0.0	244.0	371.0	0.0	0.0	0.0	0.0	0.0	0.0	null	null	null	null	null	null	null	null	330.0	336.0	336.0	329.0	333.0	335.0	334.0	336.0	333.0	337.0	334.0	
Sat Jun 03 17:56:00 UTC 2017	0.0	1.048293376E9	2498.54248046875	0.0	2.5731072E7	0.0	4.0	8.27932672E8	41.58902359008789	0.0	0.0	1.061269504E9	1.050107904E9	0.0	null	0.0729999989271164	0.050999999046325684	0.04574999958276749	0.9919999837875366	0.7344228625297546	0.0	244.0	371.0	0.0	0.0	0.0	0.0	0.0	0.0	null	null	null	null	null	null	null	null	336.0	332.0	334.0	336.0	333.0	335.0	335.0	333.0	333.0	329.0	332.0	
Sat Jun 03 17:55:00 UTC 2017	0.0	1.047281664E9	2498.54248046875	0.0	2.5731072E7	0.0	2.0	8.27932672E8	57.6187744140625	0.0	0.0	1.061269504E9	1.050107904E9	0.0	null	0.07450000196695328	0.051249999552965164	0.04724999889731407	0.9919999837875366	0.7322636842727661	0.0	244.0	371.0	0.0	0.0	0.0	0.0	0.0	0.0	null	null	null	null	null	null	null	null	333.0	333.0	335.0	337.0	334.0	333.0	336.0	332.0	335.0	336.0	333.0	
Sat Jun 03 17:54:00 UTC 2017	0.0	1.047281664E9	2428.244384765625	0.0	2.5731072E7	0.0	2.0	8.2784256E8	51.63705062866211	0.0	0.0	1.062281216E9	1.050107904E9	0.0	null	0.08500000089406967	0.051750000566244125	0.0442500002682209	0.9917500019073486	0.7321130037307739	0.0	244.0	371.0	0.0	0.0	0.0	0.0	0.0	0.0	null	null	null	null	null	null	null	null	336.0	332.0	336.0	334.0	336.0	335.0	332.0	335.0	332.0	334.0	337.0	
Sat Jun 03 17:53:00 UTC 2017	0.0	1.048293376E9	2428.244384765625	0.0	2.5731072E7	0.0	2.0	8.2784256E8	39.603450775146484	0.0	0.0	1.061269504E9	1.050107904E9	0.0	null	0.06875000149011612	0.05050000175833702	0.0507499985396862	0.9919999837875366	0.734376847743988	0.0	244.0	371.0	0.0	0.0	0.0	0.0	0.0	0.0	null	null	null	null	null	null	null	null	331.0	333.0	333.0	337.0	332.0	331.0	336.0	335.0	333.0	336.0	333.0	
Sat Jun 03 17:52:00 UTC 2017	0.0	1.048293376E9	2555.419677734375	0.0	2.5731072E7	0.0	2.0	8.2784256E8	54.672821044921875	0.0	0.0	1.061269504E9	1.050107904E9	0.0	0.0	0.06975000351667404	0.04675000160932541	0.041999999433755875	0.9917500019073486	0.7320924401283264	0.0	244.0	371.0	0.0	0.0	0.0	0.0	0.0	0.0	null	null	null	null	null	null	null	null	336.0	334.0	335.0	333.0	334.0	338.0	335.0	334.0	333.0	334.0	331.0	
Sat Jun 03 17:51:00 UTC 2017	0.0	1.047281664E9	2555.419677734375	0.0	2.5731072E7	0.0	4.0	8.28092416E8	44.000423431396484	0.0	0.0	1.061269504E9	1.050107904E9	0.0	null	0.10724999755620956	0.05824999883770943	0.05000000074505806	0.9917500019073486	0.7343631386756897	0.0	244.0	371.0	0.0	0.0	0.0	0.0	0.0	0.0	null	null	null	null	null	null	null	null	335.0	335.0	336.0	336.0	332.0	332.0	333.0	334.0	334.0	335.0	339.0	
Sat Jun 03 17:50:00 UTC 2017	0.0	1.048293376E9	2555.419677734375	0.0	2.5731072E7	0.0	2.0	8.27715584E8	42.725337982177734	0.0	0.0	1.062281216E9	1.050107904E9	0.0	null	0.08174999803304672	0.04450000077486038	0.04975000023841858	0.9919999837875366	0.7343528866767883	0.0	244.0	371.0	0.0	0.0	0.0	0.0	0.0	0.0	null	null	null	null	null	null	null	null	332.0	334.0	332.0	334.0	338.0	334.0	334.0	336.0	335.0	336.0	333.0	
Sat Jun 03 17:49:00 UTC 2017	0.0	1.048293376E9	3050.822998046875	0.0	2.5731072E7	0.0	4.0	8.27625472E8	42.725337982177734	0.0	0.0	1.061269504E9	1.050107904E9	0.0	null	0.07000000029802322	0.04899999871850014	0.04800000041723251	0.9922500252723694	0.7343465089797974	0.0	244.0	371.0	0.0	0.0	0.0	0.0	0.0	0.0	null	null	null	null	null	null	null	null	334.0	336.0	337.0	333.0	334.0	335.0	339.0	333.0	335.0	330.0	335.0	
Sat Jun 03 17:48:00 UTC 2017	0.0	1.048293376E9	2517.35693359375	0.0	2.5731072E7	0.0	3.0	8.27625472E8	42.725337982177734	0.0	0.0	1.061269504E9	1.050107904E9	0.0	0.0	0.07199999690055847	0.05674999952316284	0.04450000077486038	0.9919999837875366	0.7343401312828064	0.0	244.0	371.0	0.0	0.0	0.0	0.0	0.0	0.0	null	null	null	null	null	null	null	null	337.0	333.0	336.0	339.0	335.0	333.0	333.0	335.0	333.0	339.0	333.0	
Sat Jun 03 17:47:00 UTC 2017	0.0	1.047281664E9	2517.35693359375	0.0	2.5731072E7	0.0	3.0	8.27625472E8	37.82578659057617	0.0	0.0	1.061269504E9	1.050107904E9	0.0	0.0	0.06975000351667404	0.050999999046325684	0.050999999046325684	0.9922500252723694	0.7320390939712524	0.0	244.0	371.0	0.0	0.0	0.0	0.0	0.0	0.0	null	null	null	null	null	null	null	null	332.0	336.0	334.0	332.0	336.0	337.0	334.0	332.0	333.0	334.0	332.0	
Sat Jun 03 17:46:00 UTC 2017	0.0	1.047281664E9	3239.3349609375	0.0	2.5731072E7	0.0	2.0	8.27506688E8	37.82578659057617	0.0	0.0	1.061269504E9	1.050107904E9	0.0	0.0	0.08250000327825546	0.04675000160932541	0.04349999874830246	0.9925000071525574	0.7320219874382019	0.0	244.0	371.0	0.0	0.0	0.0	0.0	0.0	0.0	null	null	null	null	null	null	null	null	335.0	337.0	336.0	337.0	334.0	333.0	340.0	335.0	334.0	333.0	336.0	
Sat Jun 03 17:45:00 UTC 2017	0.0	1.047281664E9	2228.5439453125	0.0	2.5731072E7	0.0	3.0	8.27506688E8	46.821311950683594	0.0	0.0	1.062281216E9	1.050107904E9	0.0	0.0	0.06549999862909317	0.051750000566244125	0.05274999886751175	0.9922500252723694	0.7320210337638855	0.0	244.0	371.0	0.0	0.0	0.0	0.0	0.0	0.0	null	null	null	null	null	null	null	null	330.0	337.0	335.0	334.0	335.0	339.0	334.0	335.0	334.0	336.0	336.0	
Sat Jun 03 17:44:00 UTC 2017	0.0	1.047281664E9	2884.318359375	0.0	2.5731072E7	0.0	2.0	8.27416576E8	46.821311950683594	1.0	2.0	1.061269504E9	1.050107904E9	0.0	0.0	0.08425000309944153	0.054999999701976776	0.0442500002682209	0.9922500252723694	0.7320782542228699	0.0	244.0	371.0	0.0	0.0	0.0	0.0	0.0	0.0	null	null	null	null	null	null	null	null	336.0	335.0	337.0	338.0	332.0	335.0	336.0	333.0	336.0	334.0	336.0	
Sat Jun 03 17:43:00 UTC 2017	0.0	1.048293376E9	2884.318359375	0.0	2.5731072E7	0.0	2.0	8.27416576E8	46.821311950683594	1.0	1.0	1.062281216E9	1.050107904E9	0.0	0.0	0.06525000184774399	0.04899999871850014	0.045249998569488525	0.9922500252723694	0.7319735288619995	0.0	244.0	371.0	0.0	0.0	0.0	0.0	0.0	0.0	null	null	null	null	null	null	null	null	334.0	332.0	332.0	335.0	335.0	335.0	336.0	336.0	337.0	334.0	339.0	
Sat Jun 03 17:42:00 UTC 2017	0.0	1.048293376E9	3201.236572265625	0.0	2.5731072E7	0.0	2.0	8.27416576E8	46.821311950683594	0.0	0.0	1.062281216E9	1.050107904E9	0.0	0.0	0.07450000196695328	0.04924999922513962	0.04800000041723251	0.9922500252723694	0.7326198816299438	0.0	244.0	371.0	0.0	0.0	0.0	0.0	0.0	0.0	null	null	null	null	null	null	null	null	338.0	334.0	333.0	334.0	336.0	335.0	330.0	333.0	332.0	334.0	332.0	
Sat Jun 03 17:41:00 UTC 2017	0.0	1.047281664E9	3201.236572265625	0.0	2.5731072E7	0.0	4.0	8.27203584E8	38.648468017578125	0.0	0.0	1.062281216E9	1.050107904E9	0.0	0.0	0.09849999845027924	0.05350000038743019	0.04800000041723251	0.9922500252723694	0.7319554686546326	0.0	244.0	371.0	0.0	0.0	0.0	0.0	0.0	0.0	null	null	null	null	null	null	null	null	333.0	334.0	340.0	331.0	333.0	334.0	334.0	335.0	340.0	340.0	332.0	
Sat Jun 03 17:40:00 UTC 2017	0.0	1.048293376E9	3201.236572265625	0.0	2.5731072E7	0.0	2.0	8.27293696E8	38.648468017578125	0.0	0.0	1.062281216E9	1.050107904E9	0.0	0.0	0.08250000327825546	0.05225000157952309	0.048250000923871994	0.9922500252723694	0.7342119812965393	0.0	244.0	371.0	0.0	0.0	0.0	0.0	0.0	0.0	null	null	null	null	null	null	null	null	333.0	338.0	332.0	339.0	335.0	337.0	335.0	333.0	332.0	335.0	340.0	
Sat Jun 03 17:39:00 UTC 2017	0.0	1.047281664E9	3201.236572265625	0.0	2.5731072E7	0.0	2.0	8.27203584E8	38.648468017578125	0.0	0.0	1.062281216E9	1.050107904E9	0.0	0.0	0.07124999910593033	0.04874999821186066	0.051500000059604645	0.9917500019073486	0.7327725291252136	0.0	244.0	371.0	0.0	0.0	0.0	0.0	0.0	0.0	null	null	null	null	null	null	null	null	337.0	334.0	333.0	333.0	336.0	333.0	338.0	335.0	338.0	334.0	331.0	
Sat Jun 03 17:38:00 UTC 2017	0.0	1.047281664E9	2379.413330078125	0.0	2.5731072E7	0.0	2.0	8.27203584E8	36.54587936401367	0.0	0.0	1.062281216E9	1.050107904E9	0.0	0.0	0.07349999994039536	0.048250000923871994	0.04349999874830246	0.9919999837875366	0.7342100143432617	0.0	244.0	371.0	0.0	0.0	0.0	0.0	0.0	0.0	null	null	null	null	null	null	null	null	332.0	335.0	334.0	333.0	333.0	335.0	333.0	337.0	332.0	333.0	336.0	
Sat Jun 03 17:37:00 UTC 2017	0.0	1.047281664E9	2532.66943359375	0.0	2.5731072E7	0.0	2.0	8.27203584E8	36.54587936401367	0.0	0.0	1.062281216E9	1.050107904E9	0.0	0.0	0.0794999971985817	0.04874999821186066	0.04975000023841858	0.9919999837875366	0.7318639755249023	0.0	244.0	371.0	0.0	0.0	0.0	0.0	0.0	0.0	null	null	null	null	null	null	null	null	335.0	334.0	333.0	336.0	333.0	337.0	335.0	332.0	337.0	335.0	335.0	
Sat Jun 03 17:36:00 UTC 2017	0.0	1.048293376E9	2532.66943359375	0.0	2.5731072E7	0.0	2.0	8.27449344E8	44.19284439086914	0.0	0.0	1.061269504E9	1.050107904E9	0.0	0.0	0.07275000214576721	0.05225000157952309	0.0442500002682209	0.9919999837875366	0.7318629622459412	0.0	244.0	371.0	0.0	0.0	0.0	0.0	0.0	0.0	null	null	null	null	null	null	null	null	338.0	336.0	338.0	334.0	335.0	331.0	335.0	334.0	333.0	334.0	336.0	
Sat Jun 03 17:35:00 UTC 2017	0.0	1.048293376E9	3112.18994140625	0.0	2.5731072E7	0.0	2.0	8.27080704E8	72.45680236816406	0.0	0.0	1.061269504E9	1.050107904E9	0.0	0.0	0.07774999737739563	0.05324999988079071	0.04800000041723251	0.9922500252723694	0.7341185212135315	0.0	244.0	371.0	0.0	0.0	0.0	0.0	0.0	0.0	null	null	null	null	null	null	null	null	334.0	334.0	331.0	332.0	337.0	335.0	335.0	333.0	333.0	335.0	335.0	
Sat Jun 03 17:34:00 UTC 2017	0.0	1.048293376E9	2454.991943359375	0.0	2.5731072E7	0.0	2.0	8.26990592E8	72.45680236816406	0.0	0.0	1.062281216E9	1.050107904E9	0.0	0.0	0.07275000214576721	0.050999999046325684	0.05050000175833702	0.9922500252723694	0.7318130731582642	0.0	244.0	371.0	0.0	0.0	0.0	0.0	0.0	0.0	null	null	null	null	null	null	null	null	334.0	335.0	337.0	334.0	335.0	338.0	336.0	336.0	336.0	338.0	332.0	
Sat Jun 03 17:33:00 UTC 2017	0.0	1.047281664E9	2454.991943359375	0.0	2.5731072E7	0.0	3.0	8.26990592E8	72.45680236816406	1.0	1.0	1.061269504E9	1.050107904E9	0.0	0.0	0.06700000166893005	0.05225000157952309	0.04650000110268593	0.9922500252723694	0.7317729592323303	0.0	244.0	371.0	0.0	0.0	0.0	0.0	0.0	0.0	null	null	null	null	null	null	null	null	337.0	334.0	333.0	337.0	335.0	333.0	338.0	335.0	330.0	331.0	334.0	
Sat Jun 03 17:32:00 UTC 2017	0.0	1.048293376E9	2454.991943359375	0.0	2.5731072E7	0.0	4.0	8.26990592E8	42.38834762573242	0.0	1.0	1.062281216E9	1.050107904E9	0.0	0.0	0.07500000298023224	0.0430000014603138	0.04600000008940697	0.9919999837875366	0.731752872467041	0.0	244.0	371.0	0.0	0.0	0.0	0.0	0.0	0.0	null	null	null	null	null	null	null	null	329.0	335.0	333.0	335.0	335.0	335.0	332.0	333.0	334.0	338.0	334.0	
Sat Jun 03 17:31:00 UTC 2017	0.0	1.048293376E9	3157.37646484375	0.0	2.5731072E7	0.0	2.0	8.26871808E8	42.38834762573242	0.0	0.0	1.062281216E9	1.050107904E9	0.0	0.0	0.10525000095367432	0.05299999937415123	0.04724999889731407	0.9922500252723694	0.731744110584259	0.0	244.0	371.0	0.0	0.0	0.0	0.0	0.0	0.0	null	null	null	null	null	null	null	null	334.0	336.0	336.0	333.0	334.0	335.0	333.0	337.0	336.0	334.0	336.0	
Sat Jun 03 17:30:00 UTC 2017	0.0	1.047281664E9	3157.37646484375	0.0	2.5731072E7	0.0	4.0	8.26871808E8	42.38834762573242	0.0	0.0	1.061269504E9	1.050107904E9	0.0	0.0	0.07175000011920929	0.051750000566244125	0.04625000059604645	0.9919999837875366	0.7317372560501099	0.0	244.0	371.0	0.0	0.0	0.0	0.0	0.0	0.0	null	null	null	null	null	null	null	null	336.0	334.0	333.0	335.0	336.0	337.0	335.0	333.0	337.0	335.0	336.0	
Sat Jun 03 17:29:00 UTC 2017	0.0	1.048293376E9	3157.37646484375	0.0	2.5731072E7	0.0	2.0	8.26781696E8	42.38834762573242	1.0	1.0	1.061269504E9	1.050107904E9	0.0	null	0.07474999874830246	0.05375000089406967	0.04975000023841858	0.9919999837875366	0.7317206263542175	0.0	244.0	371.0	0.0	0.0	0.0	0.0	0.0	0.0	null	null	null	null	null	null	null	null	335.0	336.0	336.0	334.0	332.0	336.0	333.0	333.0	332.0	334.0	336.0	
Sat Jun 03 17:28:00 UTC 2017	0.0	1.048293376E9	2579.3720703125	0.0	2.5731072E7	0.0	2.0	8.26781696E8	42.38834762573242	1.0	1.0	1.061269504E9	1.050107904E9	0.0	0.0	0.07450000196695328	0.05025000125169754	0.04574999958276749	0.9919999837875366	0.7317162156105042	0.0	244.0	371.0	0.0	0.0	0.0	0.0	0.0	0.0	null	null	null	null	null	null	null	null	334.0	333.0	333.0	335.0	335.0	334.0	338.0	334.0	333.0	333.0	332.0	
Sat Jun 03 17:27:00 UTC 2017	0.0	1.048293376E9	2412.302001953125	0.0	2.5731072E7	0.0	2.0	8.26781696E8	42.38834762573242	0.0	0.0	1.062281216E9	1.050107904E9	0.0	0.0	0.07374999672174454	0.051500000059604645	0.04574999958276749	0.9917500019073486	0.731715202331543	0.0	244.0	371.0	0.0	0.0	0.0	0.0	0.0	0.0	null	null	null	null	null	null	null	null	332.0	335.0	335.0	336.0	333.0	330.0	335.0	335.0	338.0	332.0	336.0	
Sat Jun 03 17:26:00 UTC 2017	0.0	1.047281664E9	2412.302001953125	0.0	2.5731072E7	0.0	3.0	8.27027456E8	48.780189514160156	0.0	0.0	1.062281216E9	1.050107904E9	0.0	null	0.07100000232458115	0.05025000125169754	0.04899999871850014	0.9919999837875366	0.7316976189613342	0.0	244.0	371.0	0.0	0.0	0.0	0.0	0.0	0.0	null	null	null	null	null	null	null	null	334.0	333.0	335.0	332.0	335.0	331.0	332.0	336.0	337.0	335.0	337.0	
Sat Jun 03 17:25:00 UTC 2017	0.0	1.048293376E9	2412.302001953125	0.0	2.5731072E7	0.0	3.0	8.2561024E8	48.780189514160156	0.0	0.0	1.061269504E9	1.050107904E9	0.0	null	0.0729999989271164	0.05249999836087227	0.05025000125169754	0.9922500252723694	0.7316799759864807	0.0	244.0	371.0	0.0	0.0	0.0	0.0	0.0	0.0	null	null	null	null	null	null	null	null	336.0	332.0	329.0	337.0	336.0	338.0	336.0	332.0	335.0	337.0	332.0	
Sat Jun 03 17:24:00 UTC 2017	0.0	1.048293376E9	3215.92626953125	0.0	2.5731072E7	0.0	2.0	8.25520128E8	43.806190490722656	0.0	0.0	1.061269504E9	1.050107904E9	0.0	0.0	0.07800000160932541	0.04675000160932541	0.04374999925494194	0.9922500252723694	0.7316824197769165	0.0	244.0	371.0	0.0	0.0	0.0	0.0	0.0	0.0	null	null	null	null	null	null	null	null	334.0	336.0	335.0	336.0	333.0	336.0	332.0	336.0	333.0	331.0	336.0	
Sat Jun 03 17:23:00 UTC 2017	0.0	1.048293376E9	2637.64794921875	0.0	2.5731072E7	0.0	2.0	8.25520128E8	38.78313446044922	0.0	0.0	1.061269504E9	1.050107904E9	0.0	0.0	0.07524999976158142	0.05274999886751175	0.04650000110268593	0.9919999837875366	0.7317220568656921	0.0	244.0	371.0	0.0	0.0	0.0	0.0	0.0	0.0	null	null	null	null	null	null	null	null	335.0	337.0	335.0	333.0	332.0	333.0	338.0	333.0	336.0	336.0	336.0	
Sat Jun 03 17:22:00 UTC 2017	0.0	1.048293376E9	2488.7314453125	0.0	2.5731072E7	0.0	2.0	8.25520128E8	38.78313446044922	0.0	0.0	1.062281216E9	1.050107904E9	0.0	0.0	0.07400000095367432	0.048250000923871994	0.05050000175833702	0.9922500252723694	0.7316320538520813	0.0	244.0	371.0	0.0	0.0	0.0	0.0	0.0	0.0	null	null	null	null	null	null	null	null	333.0	336.0	336.0	334.0	336.0	334.0	330.0	333.0	332.0	335.0	334.0	
Sat Jun 03 17:21:00 UTC 2017	0.0	1.047281664E9	2488.7314453125	0.0	2.5731072E7	0.0	2.0	8.25307136E8	32.95296096801758	0.0	0.0	1.061269504E9	1.050107904E9	0.0	0.0	0.10100000351667404	0.05000000074505806	0.04774999991059303	0.9922500252723694	0.7316222786903381	0.0	244.0	371.0	0.0	0.0	0.0	0.0	0.0	0.0	null	null	null	null	null	null	null	null	334.0	335.0	333.0	333.0	332.0	336.0	337.0	333.0	334.0	336.0	338.0	
Sat Jun 03 17:20:00 UTC 2017	0.0	1.047281664E9	2880.902099609375	0.0	2.5731072E7	0.0	2.0	8.25397248E8	32.95296096801758	0.0	0.0	1.062281216E9	1.050107904E9	0.0	0.0	0.0794999971985817	0.057500001043081284	0.04500000178813934	0.9922500252723694	0.7316486835479736	0.0	244.0	371.0	0.0	0.0	0.0	0.0	0.0	0.0	null	null	null	null	null	null	null	null	335.0	333.0	336.0	339.0	334.0	339.0	335.0	336.0	333.0	333.0	332.0	
Sat Jun 03 17:19:00 UTC 2017	0.0	1.048293376E9	2880.902099609375	0.0	2.5731072E7	0.0	2.0	8.25307136E8	38.63927459716797	0.0	0.0	1.061269504E9	1.050107904E9	0.0	0.0	0.0702499970793724	0.04699999839067459	0.04724999889731407	0.9922500252723694	0.7316251993179321	0.0	244.0	371.0	0.0	0.0	0.0	0.0	0.0	0.0	null	null	null	null	null	null	null	null	335.0	336.0	334.0	336.0	332.0	333.0	335.0	336.0	336.0	337.0	335.0	
Sat Jun 03 17:18:00 UTC 2017	0.0	1.048293376E9	2227.375732421875	0.0	2.5731072E7	0.0	2.0	8.25307136E8	43.14598846435547	0.0	0.0	1.062281216E9	1.050107904E9	0.0	0.0	0.0677499994635582	0.051750000566244125	0.04724999889731407	0.9922500252723694	0.7316271662712097	0.0	244.0	371.0	0.0	0.0	0.0	0.0	0.0	0.0	null	null	null	null	null	null	null	null	336.0	334.0	336.0	336.0	336.0	332.0	334.0	334.0	335.0	337.0	337.0	
Sat Jun 03 17:17:00 UTC 2017	0.0	1.048293376E9	3237.014892578125	0.0	2.5731072E7	0.0	5.0	8.25307136E8	43.14598846435547	0.0	0.0	1.062281216E9	1.050107904E9	0.0	0.0	0.07524999976158142	0.04975000023841858	0.05050000175833702	0.9917500019073486	0.7316080927848816	0.0	244.0	371.0	0.0	0.0	0.0	0.0	0.0	0.0	null	null	null	null	null	null	null	null	331.0	332.0	332.0	330.0	333.0	333.0	332.0	337.0	332.0	331.0	333.0	
Sat Jun 03 17:16:00 UTC 2017	0.0	1.048293376E9	2868.402099609375	0.0	2.5731072E7	0.0	4.0	8.22996992E8	55.08406448364258	0.0	0.0	1.062281216E9	1.050107904E9	0.0	null	0.07800000160932541	0.04874999821186066	0.04650000110268593	0.9919999837875366	0.7315909266471863	0.0	244.0	371.0	0.0	0.0	0.0	0.0	0.0	0.0	null	null	null	null	null	null	null	null	336.0	336.0	339.0	337.0	334.0	335.0	335.0	331.0	337.0	338.0	335.0	
Sat Jun 03 17:15:00 UTC 2017	0.0	1.047281664E9	2868.402099609375	0.0	2.5731072E7	0.0	2.0	8.23087104E8	38.31162643432617	0.0	0.0	1.061269504E9	1.050107904E9	0.0	null	0.07975000143051147	0.05025000125169754	0.048500001430511475	0.9922500252723694	0.7315909266471863	0.0	244.0	371.0	0.0	0.0	0.0	0.0	0.0	0.0	null	null	null	null	null	null	null	null	333.0	337.0	333.0	335.0	333.0	338.0	338.0	339.0	331.0	332.0	335.0	
Sat Jun 03 17:14:00 UTC 2017	0.0	1.048293376E9	2868.402099609375	0.0	2.5731072E7	0.0	2.0	8.22996992E8	38.31162643432617	0.0	0.0	1.062281216E9	1.050107904E9	0.0	null	0.0702499970793724	0.05000000074505806	0.05025000125169754	0.9919999837875366	0.7338533401489258	0.0	244.0	371.0	0.0	0.0	0.0	0.0	0.0	0.0	null	null	null	null	null	null	null	null	332.0	334.0	332.0	334.0	336.0	332.0	336.0	332.0	336.0	337.0	333.0	
Sat Jun 03 17:13:00 UTC 2017	0.0	1.048293376E9	2403.986083984375	0.0	2.5731072E7	0.0	2.0	8.22996992E8	38.31162643432617	1.0	3.0	1.062281216E9	1.050107904E9	0.0	0.0	0.0807500034570694	0.06324999779462814	0.045499999076128006	0.9922500252723694	0.7315106987953186	0.0	244.0	371.0	0.0	0.0	0.0	0.0	0.0	0.0	null	null	null	null	null	null	null	null	337.0	339.0	338.0	333.0	333.0	335.0	333.0	334.0	332.0	334.0	335.0	
Sat Jun 03 17:12:00 UTC 2017	0.0	1.047281664E9	2403.986083984375	0.0	2.5731072E7	0.0	2.0	8.22996992E8	43.179805755615234	0.0	0.0	1.061269504E9	1.050107904E9	0.0	0.0	0.06424999982118607	0.04749999940395355	0.045499999076128006	0.9919999837875366	0.7337824106216431	0.0	244.0	371.0	0.0	0.0	0.0	0.0	0.0	0.0	null	null	null	null	null	null	null	null	332.0	332.0	331.0	334.0	336.0	335.0	333.0	332.0	334.0	339.0	331.0	
Sat Jun 03 17:11:00 UTC 2017	0.0	1.047281664E9	2482.347900390625	0.0	2.5731072E7	0.0	3.0	8.22784E8	55.922847747802734	0.0	0.0	1.061269504E9	1.050107904E9	0.0	0.0	0.09274999797344208	0.05225000157952309	0.051750000566244125	0.9919999837875366	0.7314823269844055	0.0	244.0	371.0	0.0	0.0	0.0	0.0	0.0	0.0	null	null	null	null	null	null	null	null	335.0	338.0	336.0	336.0	335.0	331.0	333.0	335.0	339.0	332.0	338.0	
Sat Jun 03 17:10:00 UTC 2017	0.0	1.048293376E9	2482.347900390625	0.0	2.5731072E7	0.0	7.0	8.23136256E8	37.60704803466797	0.0	0.0	1.062281216E9	1.050107904E9	0.0	0.0	0.08449999988079071	0.048250000923871994	0.04800000041723251	0.9919999837875366	0.7314622402191162	0.0	244.0	371.0	0.0	0.0	0.0	0.0	0.0	0.0	null	null	null	null	null	null	null	null	337.0	335.0	333.0	340.0	337.0	336.0	335.0	336.0	335.0	335.0	332.0	
Sat Jun 03 17:09:00 UTC 2017	0.0	1.047281664E9	2482.347900390625	0.0	2.5731072E7	0.0	4.0	8.22951936E8	48.17951583862305	0.0	0.0	1.061269504E9	1.050107904E9	0.0	0.0	0.0689999982714653	0.04625000059604645	0.0430000014603138	0.9919999837875366	0.731464684009552	0.0	244.0	371.0	0.0	0.0	0.0	0.0	0.0	0.0	null	null	null	null	null	null	null	null	331.0	333.0	338.0	333.0	333.0	335.0	336.0	334.0	333.0	334.0	338.0	
Sat Jun 03 17:08:00 UTC 2017	0.0	1.047281664E9	2250.18896484375	0.0	2.5731072E7	0.0	5.0	8.22951936E8	56.35761260986328	0.0	0.0	1.062281216E9	1.050107904E9	0.0	0.0	0.07824999839067459	0.05274999886751175	0.05225000157952309	0.9919999837875366	0.7314461469650269	0.0	244.0	371.0	0.0	0.0	0.0	0.0	0.0	0.0	null	null	null	null	null	null	null	null	336.0	333.0	334.0	335.0	332.0	335.0	339.0	334.0	334.0	336.0	337.0	
Sat Jun 03 17:07:00 UTC 2017	0.0	1.048293376E9	2250.18896484375	0.0	2.5731072E7	0.0	4.0	8.22951936E8	65.96278381347656	0.0	0.0	1.061269504E9	1.050107904E9	0.0	0.0	0.07349999994039536	0.04500000178813934	0.04724999889731407	0.9919999837875366	0.7313932776451111	0.0	244.0	371.0	0.0	0.0	0.0	0.0	0.0	0.0	null	null	null	null	null	null	null	null	331.0	334.0	334.0	337.0	334.0	336.0	334.0	336.0	339.0	334.0	336.0	
Sat Jun 03 17:06:00 UTC 2017	0.0	1.047281664E9	2250.18896484375	0.0	2.5731072E7	0.0	4.0	8.23197696E8	65.96278381347656	0.0	0.0	1.062281216E9	1.050107904E9	0.0	0.0	0.07599999755620956	0.05550000071525574	0.04774999991059303	0.9919999837875366	0.7313824892044067	0.0	244.0	371.0	0.0	0.0	0.0	0.0	0.0	0.0	null	null	null	null	null	null	null	null	338.0	332.0	333.0	335.0	337.0	333.0	336.0	334.0	336.0	334.0	334.0	
Sat Jun 03 17:05:00 UTC 2017	0.0	1.048293376E9	2250.18896484375	0.0	2.5731072E7	0.0	3.0	8.22829056E8	65.96278381347656	0.0	0.0	1.061269504E9	1.050107904E9	0.0	0.0	0.07150000333786011	0.0507499985396862	0.04675000160932541	0.9922500252723694	0.7313737273216248	0.0	244.0	371.0	0.0	0.0	0.0	0.0	0.0	0.0	null	null	null	null	null	null	null	null	334.0	335.0	335.0	334.0	333.0	334.0	332.0	334.0	335.0	334.0	334.0	
Sat Jun 03 17:04:00 UTC 2017	0.0	1.047281664E9	2250.18896484375	0.0	2.5731072E7	0.0	2.0	8.22738944E8	65.96278381347656	0.0	0.0	1.061269504E9	1.050107904E9	0.0	0.0	0.07625000178813934	0.04899999871850014	0.04874999821186066	0.9922500252723694	0.7313565611839294	0.0	244.0	371.0	0.0	0.0	0.0	0.0	0.0	0.0	null	null	null	null	null	null	null	null	338.0	335.0	335.0	333.0	337.0	340.0	339.0	332.0	335.0	336.0	336.0	
Sat Jun 03 17:03:00 UTC 2017	0.0	1.047281664E9	2816.372802734375	0.0	2.5731072E7	0.0	2.0	8.22738944E8	53.133514404296875	0.0	0.0	1.061269504E9	1.050107904E9	0.0	0.0	0.07575000077486038	0.04924999922513962	0.04975000023841858	0.9919999837875366	0.7313223481178284	0.0	244.0	371.0	0.0	0.0	0.0	0.0	0.0	0.0	null	null	null	null	null	null	null	null	331.0	335.0	337.0	335.0	333.0	331.0	332.0	337.0	336.0	333.0	331.0	
Sat Jun 03 17:02:00 UTC 2017	0.0	1.047281664E9	3041.7666015625	0.0	2.5731072E7	0.0	2.0	8.22738944E8	53.133514404296875	0.0	0.0	1.062281216E9	1.050107904E9	0.0	0.0	0.07374999672174454	0.048250000923871994	0.04650000110268593	0.9922500252723694	0.7330895662307739	0.0	244.0	371.0	0.0	0.0	0.0	0.0	0.0	0.0	null	null	null	null	null	null	null	null	335.0	338.0	332.0	333.0	339.0	333.0	336.0	333.0	333.0	338.0	336.0	
Sat Jun 03 17:01:00 UTC 2017	0.0	1.047281664E9	2576.444091796875	0.0	2.5731072E7	0.0	4.0	8.22984704E8	45.3675651550293	0.0	0.0	1.062281216E9	1.050107904E9	0.0	null	0.09375	0.054999999701976776	0.04874999821186066	0.9922500252723694	0.7312812209129333	0.0	244.0	371.0	0.0	0.0	0.0	0.0	0.0	0.0	null	null	null	null	null	null	null	null	335.0	332.0	334.0	336.0	329.0	333.0	333.0	337.0	335.0	332.0	336.0	
Sat Jun 03 17:00:00 UTC 2017	0.0	1.047281664E9	2732.855712890625	0.0	2.5731072E7	0.0	4.0	8.22611968E8	54.42176055908203	0.0	0.0	1.061269504E9	1.050107904E9	0.0	null	0.08299999684095383	0.051500000059604645	0.04675000160932541	0.9922500252723694	0.7335558533668518	0.0	244.0	371.0	0.0	0.0	0.0	0.0	0.0	0.0	null	null	null	null	null	null	null	null	333.0	340.0	335.0	332.0	338.0	332.0	336.0	335.0	333.0	337.0	337.0	
Sat Jun 03 16:59:00 UTC 2017	0.0	1.047281664E9	2680.6552734375	0.0	2.5731072E7	0.0	3.0	8.22521856E8	54.42176055908203	0.0	0.0	1.061269504E9	1.050107904E9	0.0	0.0	0.0625	0.04924999922513962	0.04874999821186066	0.9919999837875366	0.7311990261077881	0.0	244.0	371.0	0.0	0.0	0.0	0.0	0.0	0.0	null	null	null	null	null	null	null	null	334.0	336.0	335.0	336.0	331.0	334.0	333.0	332.0	337.0	339.0	333.0	
Sat Jun 03 16:58:00 UTC 2017	0.0	1.048293376E9	2680.6552734375	0.0	2.5731072E7	0.0	2.0	8.22521856E8	54.42176055908203	0.0	0.0	1.062281216E9	1.050107904E9	0.0	0.0	0.07699999958276749	0.051249999552965164	0.04675000160932541	0.9922500252723694	0.7311877608299255	0.0	244.0	371.0	0.0	0.0	0.0	0.0	0.0	0.0	null	null	null	null	null	null	null	null	336.0	334.0	336.0	333.0	335.0	337.0	336.0	333.0	337.0	332.0	333.0	
Sat Jun 03 16:57:00 UTC 2017	0.0	1.047281664E9	2680.6552734375	0.0	2.5731072E7	0.0	2.0	8.21469184E8	54.42176055908203	0.0	0.0	1.061269504E9	1.050107904E9	0.0	0.0	0.07850000262260437	0.0494999997317791	0.048250000923871994	0.9922500252723694	0.7312543392181396	0.0	244.0	371.0	0.0	0.0	0.0	0.0	0.0	0.0	null	null	null	null	null	null	null	null	333.0	333.0	333.0	333.0	335.0	333.0	333.0	334.0	329.0	336.0	336.0	
Sat Jun 03 16:56:00 UTC 2017	0.0	1.047281664E9	3521.467041015625	0.0	2.5731072E7	0.0	2.0	8.2171904E8	41.79434585571289	0.0	0.0	1.061269504E9	1.050107904E9	0.0	0.0	0.07474999874830246	0.05000000074505806	0.045249998569488525	0.9919999837875366	0.7312508821487427	0.0	244.0	371.0	0.0	0.0	0.0	0.0	0.0	0.0	null	null	null	null	null	null	null	null	334.0	336.0	336.0	334.0	335.0	334.0	335.0	335.0	336.0	332.0	332.0	
Sat Jun 03 16:55:00 UTC 2017	0.0	1.048293376E9	3521.467041015625	0.0	2.5731072E7	0.0	4.0	8.21346304E8	41.79434585571289	1.0	3.0	1.061269504E9	1.050107904E9	0.0	0.0	0.07000000029802322	0.05575000122189522	0.048250000923871994	0.9919999837875366	0.7312186360359192	0.0	244.0	371.0	0.0	0.0	0.0	0.0	0.0	0.0	null	null	null	null	null	null	null	null	335.0	334.0	335.0	333.0	335.0	335.0	335.0	338.0	336.0	338.0	337.0	
Sat Jun 03 16:54:00 UTC 2017	0.0	1.047281664E9	3521.467041015625	0.0	2.5731072E7	0.0	3.0	8.21256192E8	56.13813018798828	0.0	1.0	1.062281216E9	1.050107904E9	0.0	0.0	0.08224999904632568	0.054749999195337296	0.0507499985396862	0.9922500252723694	0.7310992479324341	0.0	244.0	371.0	0.0	0.0	0.0	0.0	0.0	0.0	null	null	null	null	null	null	null	null	336.0	334.0	333.0	334.0	335.0	332.0	336.0	334.0	333.0	336.0	336.0	
Sat Jun 03 16:53:00 UTC 2017	0.0	1.048293376E9	3521.467041015625	0.0	2.5731072E7	0.0	2.0	8.21256192E8	39.711570739746094	0.0	0.0	1.061269504E9	1.050107904E9	0.0	0.0	0.0729999989271164	0.045249998569488525	0.045499999076128006	0.9922500252723694	0.7311109900474548	0.0	244.0	371.0	0.0	0.0	0.0	0.0	0.0	0.0	null	null	null	null	null	null	null	null	335.0	337.0	336.0	333.0	336.0	334.0	331.0	333.0	336.0	334.0	335.0	
Sat Jun 03 16:52:00 UTC 2017	0.0	1.048293376E9	2853.18359375	0.0	2.5731072E7	0.0	3.0	8.21256192E8	34.354644775390625	0.0	0.0	1.061269504E9	1.050107904E9	0.0	0.0	0.0677499994635582	0.05624999850988388	0.04975000023841858	0.9919999837875366	0.7310938239097595	0.0	244.0	371.0	0.0	0.0	0.0	0.0	0.0	0.0	null	null	null	null	null	null	null	null	332.0	333.0	335.0	333.0	337.0	335.0	334.0	332.0	335.0	335.0	331.0	
Sat Jun 03 16:51:00 UTC 2017	0.0	1.048293376E9	2367.821044921875	0.0	2.5731072E7	0.0	2.0	8.21047296E8	34.354644775390625	0.0	0.0	1.061269504E9	1.050107904E9	0.0	0.0	0.11225000023841858	0.04924999922513962	0.04699999839067459	0.9919999837875366	0.7310953140258789	0.0	244.0	371.0	0.0	0.0	0.0	0.0	0.0	0.0	null	null	null	null	null	null	null	null	336.0	336.0	331.0	334.0	336.0	336.0	335.0	337.0	333.0	335.0	336.0	
Sat Jun 03 16:50:00 UTC 2017	0.0	1.048293376E9	2762.141845703125	0.0	2.5731072E7	0.0	2.0	8.21137408E8	34.354644775390625	0.0	0.0	1.061269504E9	1.050107904E9	0.0	0.0	0.06174999848008156	0.04475000128149986	0.045499999076128006	0.9919999837875366	0.7310855388641357	0.0	244.0	371.0	0.0	0.0	0.0	0.0	0.0	0.0	null	null	null	null	null	null	null	null	332.0	335.0	335.0	332.0	334.0	334.0	335.0	333.0	335.0	336.0	335.0	
Sat Jun 03 16:49:00 UTC 2017	0.0	1.048293376E9	2802.873779296875	0.0	2.5731072E7	0.0	4.0	8.21047296E8	47.88240432739258	0.0	0.0	1.062281216E9	1.050107904E9	0.0	0.0	0.08474999666213989	0.05550000071525574	0.051500000059604645	0.9919999837875366	0.7310855388641357	0.0	244.0	371.0	0.0	0.0	0.0	0.0	0.0	0.0	null	null	null	null	null	null	null	null	334.0	336.0	334.0	336.0	333.0	333.0	333.0	330.0	333.0	335.0	336.0	
Sat Jun 03 16:48:00 UTC 2017	0.0	1.048293376E9	2418.5048828125	0.0	2.5731072E7	0.0	4.0	8.21047296E8	47.88240432739258	0.0	0.0	1.062281216E9	1.050107904E9	0.0	0.0	0.06800000369548798	0.051249999552965164	0.0430000014603138	0.9919999837875366	0.7310678958892822	0.0	244.0	371.0	0.0	0.0	0.0	0.0	0.0	0.0	null	null	null	null	null	null	null	null	334.0	336.0	336.0	334.0	337.0	337.0	333.0	336.0	335.0	335.0	333.0	
Sat Jun 03 16:47:00 UTC 2017	0.0	1.047281664E9	2418.5048828125	0.0	2.5731072E7	0.0	5.0	8.21047296E8	47.88240432739258	0.0	0.0	1.061269504E9	1.050107904E9	0.0	0.0	0.07325000315904617	0.045499999076128006	0.051249999552965164	0.9917500019073486	0.7310410141944885	0.0	244.0	371.0	0.0	0.0	0.0	0.0	0.0	0.0	null	null	null	null	null	null	null	null	338.0	332.0	334.0	332.0	334.0	333.0	335.0	336.0	332.0	333.0	334.0	
Sat Jun 03 16:46:00 UTC 2017	0.0	1.048293376E9	2418.5048828125	0.0	2.5731072E7	0.0	2.0	8.20834304E8	57.138675689697266	0.0	0.0	1.061269504E9	1.050107904E9	0.0	null	0.07699999958276749	0.057500001043081284	0.04774999991059303	0.9917500019073486	0.7310400009155273	0.0	244.0	371.0	0.0	0.0	0.0	0.0	0.0	0.0	null	null	null	null	null	null	null	null	332.0	336.0	333.0	339.0	332.0	336.0	333.0	331.0	335.0	334.0	333.0	
Sat Jun 03 16:45:00 UTC 2017	0.0	1.048293376E9	2605.51953125	0.0	2.5731072E7	0.0	2.0	8.20924416E8	49.76243591308594	0.0	0.0	1.062281216E9	1.050107904E9	0.0	null	0.07874999940395355	0.05025000125169754	0.048250000923871994	0.9919999837875366	0.7309362888336182	0.0	244.0	371.0	0.0	0.0	0.0	0.0	0.0	0.0	null	null	null	null	null	null	null	null	333.0	334.0	332.0	335.0	335.0	333.0	334.0	338.0	332.0	331.0	336.0	
Sat Jun 03 16:44:00 UTC 2017	0.0	1.048293376E9	3299.51708984375	0.0	2.5731072E7	0.0	3.0	8.20834304E8	57.1100959777832	0.0	0.0	1.061269504E9	1.050107904E9	0.0	null	0.07124999910593033	0.0507499985396862	0.04749999940395355	0.9919999837875366	0.7308971285820007	0.0	244.0	371.0	0.0	0.0	0.0	0.0	0.0	0.0	null	null	null	null	null	null	null	null	338.0	336.0	335.0	332.0	338.0	339.0	333.0	335.0	333.0	339.0	334.0	
Sat Jun 03 16:43:00 UTC 2017	0.0	1.048293376E9	2639.121826171875	0.0	2.5731072E7	0.0	5.0	8.20834304E8	57.1100959777832	0.0	0.0	1.061269504E9	1.050107904E9	0.0	0.0	0.07349999994039536	0.04450000077486038	0.05350000038743019	0.9919999837875366	0.7313306331634521	0.0	244.0	371.0	0.0	0.0	0.0	0.0	0.0	0.0	null	null	null	null	null	null	null	null	335.0	333.0	334.0	338.0	335.0	334.0	334.0	334.0	336.0	335.0	334.0	
Sat Jun 03 16:42:00 UTC 2017	0.0	1.047281664E9	2639.121826171875	0.0	2.5731072E7	0.0	2.0	8.20834304E8	57.1100959777832	0.0	0.0	1.061269504E9	1.050107904E9	0.0	0.0	0.07400000095367432	0.054249998182058334	0.04500000178813934	0.9922500252723694	0.7308555841445923	0.0	244.0	371.0	0.0	0.0	0.0	0.0	0.0	0.0	null	null	null	null	null	null	null	null	334.0	332.0	332.0	332.0	333.0	332.0	336.0	332.0	331.0	333.0	335.0	
Sat Jun 03 16:41:00 UTC 2017	0.0	1.048293376E9	2639.121826171875	0.0	2.5731072E7	0.0	2.0	8.21080064E8	34.786376953125	0.0	0.0	1.061269504E9	1.050107904E9	0.0	0.0	0.10474999994039536	0.0494999997317791	0.04800000041723251	0.9922500252723694	0.7331238389015198	0.0	244.0	371.0	0.0	0.0	0.0	0.0	0.0	0.0	null	null	null	null	null	null	null	null	334.0	337.0	333.0	337.0	336.0	339.0	331.0	339.0	334.0	333.0	331.0	
Sat Jun 03 16:40:00 UTC 2017	0.0	1.048293376E9	3036.909423828125	0.0	2.5731072E7	0.0	7.0	8.20711424E8	45.88151550292969	0.0	0.0	1.061269504E9	1.050107904E9	0.0	null	0.06700000166893005	0.04800000041723251	0.0507499985396862	0.9917500019073486	0.7309049963951111	0.0	244.0	371.0	0.0	0.0	0.0	0.0	0.0	0.0	null	null	null	null	null	null	null	null	338.0	332.0	336.0	334.0	335.0	330.0	339.0	333.0	339.0	337.0	338.0	
Sat Jun 03 16:39:00 UTC 2017	1.0	1.048293376E9	2620.207763671875	0.0	2.5731072E7	0.0	2.0	8.20621312E8	40.828575134277344	0.0	0.0	1.062281216E9	1.050107904E9	0.0	null	0.07249999791383743	0.054749999195337296	0.04500000178813934	0.9919999837875366	0.7319989800453186	0.0	244.0	371.0	0.0	0.0	0.0	0.0	0.0	0.0	null	null	null	null	null	null	null	null	335.0	334.0	331.0	335.0	332.0	335.0	338.0	332.0	334.0	334.0	335.0	
Sat Jun 03 16:38:00 UTC 2017	0.0	1.047281664E9	2620.207763671875	0.0	2.5731072E7	0.0	2.0	8.20621312E8	37.61433029174805	0.0	0.0	1.061269504E9	1.050107904E9	0.0	null	0.08100000023841858	0.04500000178813934	0.04475000128149986	0.9919999837875366	0.7307811975479126	0.0	244.0	371.0	0.0	0.0	0.0	0.0	0.0	0.0	null	null	null	null	null	null	null	null	334.0	337.0	336.0	330.0	337.0	333.0	335.0	339.0	333.0	339.0	339.0	
Sat Jun 03 16:37:00 UTC 2017	0.0	1.047281664E9	3110.798583984375	0.0	2.5731072E7	0.0	3.0	8.20621312E8	37.61433029174805	0.0	1.0	1.061269504E9	1.050107904E9	0.0	null	0.0689999982714653	0.0572500005364418	0.04625000059604645	0.9917500019073486	0.730675995349884	0.0	244.0	371.0	0.0	0.0	0.0	0.0	0.0	0.0	null	null	null	null	null	null	null	null	334.0	334.0	331.0	337.0	338.0	335.0	334.0	334.0	337.0	335.0	333.0	
Sat Jun 03 16:36:00 UTC 2017	0.0	1.047281664E9	2834.4580078125	0.0	2.5731072E7	0.0	8.0	8.20412416E8	37.61433029174805	0.0	0.0	1.061269504E9	1.050107904E9	0.0	null	0.07999999821186066	0.05025000125169754	0.051750000566244125	0.9919999837875366	0.7306750416755676	0.0	244.0	371.0	0.0	0.0	0.0	0.0	0.0	0.0	null	null	null	null	null	null	null	null	332.0	333.0	337.0	333.0	332.0	336.0	334.0	334.0	335.0	332.0	334.0	
Sat Jun 03 16:35:00 UTC 2017	0.0	1.048293376E9	2834.4580078125	0.0	2.5731072E7	0.0	4.0	8.20502528E8	60.60139083862305	0.0	0.0	1.061269504E9	1.050107904E9	0.0	0.0	0.07450000196695328	0.04800000041723251	0.04724999889731407	0.9917500019073486	0.73297119140625	0.0	244.0	371.0	0.0	0.0	0.0	0.0	0.0	0.0	null	null	null	null	null	null	null	null	339.0	335.0	332.0	337.0	336.0	333.0	336.0	339.0	334.0	339.0	330.0	
Sat Jun 03 16:34:00 UTC 2017	0.0	1.047281664E9	2834.4580078125	0.0	2.5731072E7	0.0	3.0	8.20412416E8	60.60139083862305	0.0	0.0	1.062281216E9	1.050107904E9	0.0	0.0	0.06849999725818634	0.05249999836087227	0.050999999046325684	0.9922500252723694	0.732839047908783	0.0	244.0	371.0	0.0	0.0	0.0	0.0	0.0	0.0	null	null	null	null	null	null	null	null	331.0	339.0	335.0	333.0	337.0	333.0	333.0	332.0	332.0	333.0	339.0	
Sat Jun 03 16:33:00 UTC 2017	0.0	1.047281664E9	2448.31640625	0.0	2.5731072E7	0.0	2.0	8.20412416E8	78.406494140625	0.0	0.0	1.061269504E9	1.050107904E9	0.0	0.0	0.07750000059604645	0.052000001072883606	0.04625000059604645	0.9919999837875366	0.730641782283783	0.0	244.0	371.0	0.0	0.0	0.0	0.0	0.0	0.0	null	null	null	null	null	null	null	null	337.0	331.0	335.0	337.0	335.0	335.0	335.0	336.0	334.0	335.0	331.0	
Sat Jun 03 16:32:00 UTC 2017	0.0	1.048293376E9	2448.31640625	0.0	2.5731072E7	0.0	2.0	8.20412416E8	37.36381149291992	0.0	0.0	1.062281216E9	1.050107904E9	0.0	0.0	0.06875000149011612	0.051500000059604645	0.04899999871850014	0.9919999837875366	0.7305879592895508	0.0	244.0	371.0	0.0	0.0	0.0	0.0	0.0	0.0	null	null	null	null	null	null	null	null	330.0	337.0	335.0	331.0	335.0	336.0	334.0	337.0	334.0	334.0	331.0	
Sat Jun 03 16:31:00 UTC 2017	0.0	1.047281664E9	2448.31640625	0.0	2.5731072E7	0.0	2.0	8.20412416E8	37.36381149291992	0.0	0.0	1.061269504E9	1.050107904E9	0.0	0.0	0.1002499982714653	0.04574999958276749	0.04924999922513962	0.9922500252723694	0.7325244545936584	0.0	244.0	371.0	0.0	0.0	0.0	0.0	0.0	0.0	null	null	null	null	null	null	null	null	336.0	338.0	334.0	335.0	338.0	332.0	337.0	330.0	337.0	334.0	337.0	
Sat Jun 03 16:30:00 UTC 2017	0.0	1.047281664E9	2713.87744140625	0.0	2.5731072E7	0.0	2.0	8.20289536E8	37.36381149291992	0.0	0.0	1.061269504E9	1.050107904E9	0.0	0.0	0.07975000143051147	0.0494999997317791	0.04625000059604645	0.9922500252723694	0.7305390238761902	0.0	244.0	371.0	0.0	0.0	0.0	0.0	0.0	0.0	null	null	null	null	null	null	null	null	337.0	338.0	334.0	333.0	338.0	334.0	331.0	334.0	330.0	338.0	333.0	
Sat Jun 03 16:29:00 UTC 2017	0.0	1.047281664E9	3295.703857421875	0.0	2.5731072E7	0.0	2.0	8.20199424E8	49.72266387939453	0.0	0.0	1.061269504E9	1.050107904E9	0.0	0.0	0.0702499970793724	0.04899999871850014	0.04699999839067459	0.9917500019073486	0.7305243611335754	0.0	244.0	371.0	0.0	0.0	0.0	0.0	0.0	0.0	null	null	null	null	null	null	null	null	332.0	333.0	332.0	334.0	337.0	335.0	335.0	336.0	332.0	334.0	334.0	
Sat Jun 03 16:28:00 UTC 2017	0.0	1.047281664E9	2760.439453125	0.0	2.5731072E7	0.0	6.0	8.20199424E8	49.72266387939453	0.0	0.0	1.062281216E9	1.050107904E9	0.0	0.0	0.07100000232458115	0.051249999552965164	0.04625000059604645	0.9917500019073486	0.7305037975311279	0.0	244.0	371.0	0.0	0.0	0.0	0.0	0.0	0.0	null	null	null	null	null	null	null	null	335.0	334.0	336.0	332.0	331.0	334.0	334.0	333.0	336.0	334.0	335.0	
Sat Jun 03 16:27:00 UTC 2017	0.0	1.048293376E9	2760.439453125	0.0	2.5731072E7	0.0	2.0	8.20199424E8	30.0548152923584	0.0	0.0	1.062281216E9	1.050107904E9	0.0	0.0	0.08524999767541885	0.05400000140070915	0.050999999046325684	0.9919999837875366	0.7305145263671875	0.0	244.0	371.0	0.0	0.0	0.0	0.0	0.0	0.0	null	null	null	null	null	null	null	null	335.0	335.0	329.0	335.0	335.0	333.0	337.0	333.0	333.0	333.0	334.0	
Sat Jun 03 16:26:00 UTC 2017	0.0	1.047281664E9	2760.439453125	0.0	2.5731072E7	0.0	2.0	8.20199424E8	64.94457244873047	0.0	1.0	1.061269504E9	1.050107904E9	0.0	0.0	0.06750000268220901	0.051249999552965164	0.04650000110268593	0.9919999837875366	0.731853187084198	0.0	244.0	371.0	0.0	0.0	0.0	0.0	0.0	0.0	null	null	null	null	null	null	null	null	335.0	336.0	338.0	337.0	336.0	337.0	332.0	333.0	335.0	333.0	335.0	
Sat Jun 03 16:25:00 UTC 2017	0.0	1.047281664E9	2640.934326171875	0.0	2.5731072E7	0.0	2.0	8.20076544E8	64.94457244873047	0.0	1.0	1.061269504E9	1.050107904E9	0.0	0.0	0.07325000315904617	0.05274999886751175	0.04349999874830246	0.9917500019073486	0.7304768562316895	0.0	244.0	371.0	0.0	0.0	0.0	0.0	0.0	0.0	null	null	null	null	null	null	null	null	331.0	334.0	330.0	333.0	338.0	331.0	333.0	334.0	331.0	337.0	333.0	
Sat Jun 03 16:24:00 UTC 2017	1.0	1.047281664E9	3048.68798828125	0.0	2.5731072E7	0.0	3.0	8.19986432E8	54.78799057006836	0.0	0.0	1.061269504E9	1.050107904E9	0.0	null	0.08025000244379044	0.05249999836087227	0.050999999046325684	0.9915000200271606	0.7304553389549255	0.0	244.0	371.0	0.0	0.0	0.0	0.0	0.0	0.0	null	null	null	null	null	null	null	null	335.0	332.0	336.0	332.0	333.0	334.0	334.0	334.0	333.0	331.0	335.0	
Sat Jun 03 16:23:00 UTC 2017	0.0	1.047281664E9	2235.828857421875	0.0	2.5731072E7	0.0	2.0	8.19986432E8	48.2275390625	0.0	0.0	1.062281216E9	1.050107904E9	0.0	null	0.06674999743700027	0.04324999824166298	0.04749999940395355	0.9912499785423279	0.7304528951644897	0.0	244.0	371.0	0.0	0.0	0.0	0.0	0.0	0.0	null	null	null	null	null	null	null	null	331.0	332.0	331.0	335.0	336.0	335.0	332.0	333.0	334.0	334.0	333.0	
Sat Jun 03 16:22:00 UTC 2017	1.0	1.048293376E9	2235.828857421875	0.0	2.5731072E7	0.0	2.0	8.19986432E8	53.79427719116211	0.0	0.0	1.061269504E9	1.050107904E9	0.0	null	0.06925000250339508	0.05550000071525574	0.045499999076128006	0.9894999861717224	0.7327147722244263	0.0	244.0	371.0	0.0	0.0	0.0	0.0	0.0	0.0	null	null	null	null	null	null	null	null	332.0	335.0	331.0	332.0	332.0	332.0	335.0	333.0	333.0	333.0	332.0	
Sat Jun 03 16:21:00 UTC 2017	1.0	1.047281664E9	2235.828857421875	0.0	2.5731072E7	0.0	3.0	8.20236288E8	34.039772033691406	0.0	0.0	1.061269504E9	1.050107904E9	0.0	null	0.09350000321865082	0.05299999937415123	0.0494999997317791	0.9884999990463257	0.7304298877716064	0.0	244.0	371.0	0.0	0.0	0.0	0.0	0.0	0.0	null	null	null	null	null	null	null	null	331.0	329.0	330.0	331.0	328.0	330.0	331.0	333.0	331.0	333.0	332.0	
Sat Jun 03 16:20:00 UTC 2017	1.0	1.048293376E9	2235.828857421875	0.0	2.5731072E7	0.0	2.0	8.18819072E8	34.039772033691406	0.0	0.0	1.062281216E9	1.050107904E9	0.0	null	0.08500000089406967	0.0494999997317791	0.04675000160932541	0.9912499785423279	0.7317215800285339	0.0	244.0	371.0	0.0	0.0	0.0	0.0	0.0	0.0	null	null	null	null	null	null	null	null	336.0	334.0	333.0	332.0	333.0	336.0	334.0	329.0	335.0	330.0	334.0	
Sat Jun 03 16:19:00 UTC 2017	1.0	1.048293376E9	3646.600830078125	0.0	2.5731072E7	0.0	2.0	8.1872896E8	65.32450103759766	0.0	0.0	1.061269504E9	1.050107904E9	0.0	null	0.07000000029802322	0.04600000008940697	0.045249998569488525	0.9915000200271606	0.7327510118484497	0.0	244.0	371.0	0.0	0.0	0.0	0.0	0.0	0.0	null	null	null	null	null	null	null	null	329.0	334.0	336.0	334.0	336.0	332.0	335.0	334.0	334.0	333.0	330.0	
Sat Jun 03 16:18:00 UTC 2017	0.0	1.048293376E9	2357.429931640625	0.0	2.5731072E7	0.0	2.0	8.1872896E8	65.32450103759766	0.0	0.0	1.062281216E9	1.050107904E9	0.0	null	0.07724999636411667	0.05225000157952309	0.04975000023841858	0.9917500019073486	0.7304798364639282	0.0	244.0	371.0	0.0	0.0	0.0	0.0	0.0	0.0	null	null	null	null	null	null	null	null	334.0	336.0	333.0	335.0	336.0	338.0	336.0	335.0	332.0	334.0	335.0	
Sat Jun 03 16:17:00 UTC 2017	0.0	1.048293376E9	2753.609375	0.0	2.5731072E7	0.0	4.0	8.1872896E8	65.32450103759766	0.0	0.0	1.061269504E9	1.050107904E9	0.0	null	0.07074999809265137	0.052000001072883606	0.04625000059604645	0.9917500019073486	0.7304626703262329	0.0	244.0	371.0	0.0	0.0	0.0	0.0	0.0	0.0	null	null	null	null	null	null	null	null	334.0	332.0	332.0	333.0	331.0	333.0	331.0	329.0	337.0	334.0	332.0	
Sat Jun 03 16:16:00 UTC 2017	0.0	1.047281664E9	2753.609375	0.0	2.5731072E7	0.0	5.0	8.1897472E8	65.32450103759766	0.0	1.0	1.061269504E9	1.050107904E9	0.0	null	0.07374999672174454	0.051500000059604645	0.05000000074505806	0.9917500019073486	0.7304465174674988	0.0	244.0	371.0	0.0	0.0	0.0	0.0	0.0	0.0	null	null	null	null	null	null	null	null	334.0	333.0	336.0	335.0	336.0	336.0	335.0	334.0	331.0	334.0	336.0	
Sat Jun 03 16:15:00 UTC 2017	0.0	1.048293376E9	2753.609375	0.0	2.5731072E7	0.0	2.0	8.1860608E8	45.19454574584961	0.0	1.0	1.062281216E9	1.050107904E9	0.0	null	0.0807500034570694	0.05649999901652336	0.04675000160932541	0.9922500252723694	0.7304494976997375	0.0	244.0	371.0	0.0	0.0	0.0	0.0	0.0	0.0	null	null	null	null	null	null	null	null	333.0	335.0	334.0	335.0	336.0	335.0	337.0	336.0	333.0	334.0	332.0	
Sat Jun 03 16:14:00 UTC 2017	0.0	1.047281664E9	2753.609375	0.0	2.5731072E7	0.0	2.0	8.18515968E8	29.964435577392578	0.0	0.0	1.062281216E9	1.050107904E9	0.0	0.0	0.07500000298023224	0.0507499985396862	0.04749999940395355	0.9917500019073486	0.7304279208183289	0.0	244.0	371.0	0.0	0.0	0.0	0.0	0.0	0.0	null	null	null	null	null	null	null	null	336.0	335.0	336.0	334.0	332.0	335.0	335.0	337.0	334.0	335.0	337.0	
Sat Jun 03 16:13:00 UTC 2017	0.0	1.047281664E9	2832.79248046875	0.0	2.5731072E7	0.0	2.0	8.18515968E8	48.882747650146484	0.0	0.0	1.061269504E9	1.050107904E9	0.0	0.0	0.08100000023841858	0.051249999552965164	0.04899999871850014	0.9919999837875366	0.7304112911224365	0.0	244.0	371.0	0.0	0.0	0.0	0.0	0.0	0.0	null	null	null	null	null	null	null	null	330.0	336.0	333.0	333.0	336.0	336.0	333.0	336.0	336.0	333.0	332.0	
Sat Jun 03 16:12:00 UTC 2017	0.0	1.048293376E9	2832.79248046875	0.0	2.5731072E7	0.0	2.0	8.18515968E8	43.347496032714844	0.0	0.0	1.062281216E9	1.050107904E9	0.0	0.0	0.07050000131130219	0.04874999821186066	0.04675000160932541	0.9917500019073486	0.7327466011047363	0.0	244.0	371.0	0.0	0.0	0.0	0.0	0.0	0.0	null	null	null	null	null	null	null	null	333.0	331.0	336.0	334.0	329.0	333.0	336.0	332.0	330.0	334.0	334.0	
Sat Jun 03 16:11:00 UTC 2017	0.0	1.048293376E9	2480.141845703125	0.0	2.5731072E7	0.0	3.0	8.18761728E8	44.91025924682617	0.0	0.0	1.062281216E9	1.050107904E9	0.0	0.0	0.10300000011920929	0.04600000008940697	0.04724999889731407	0.9917500019073486	0.7303902506828308	0.0	244.0	371.0	0.0	0.0	0.0	0.0	0.0	0.0	null	null	null	null	null	null	null	null	335.0	335.0	335.0	333.0	336.0	336.0	334.0	334.0	335.0	336.0	334.0	
Sat Jun 03 16:10:00 UTC 2017	0.0	1.048293376E9	3245.848876953125	0.0	2.5731072E7	0.0	10.0	8.18675712E8	41.70726013183594	0.0	0.0	1.061269504E9	1.050107904E9	0.0	0.0	0.07225000113248825	0.05649999901652336	0.04800000041723251	0.9919999837875366	0.7303677797317505	0.0	244.0	371.0	0.0	0.0	0.0	0.0	0.0	0.0	null	null	null	null	null	null	null	null	337.0	333.0	330.0	334.0	332.0	334.0	334.0	335.0	333.0	332.0	334.0	
Sat Jun 03 16:09:00 UTC 2017	0.0	1.048293376E9	2769.711181640625	0.0	2.5731072E7	0.0	2.0	8.18315264E8	45.16802978515625	0.0	0.0	1.062281216E9	1.050107904E9	0.0	0.0	0.07575000077486038	0.05025000125169754	0.04874999821186066	0.9917500019073486	0.7303673028945923	0.0	244.0	371.0	0.0	0.0	0.0	0.0	0.0	0.0	null	null	null	null	null	null	null	null	333.0	334.0	336.0	335.0	333.0	333.0	332.0	333.0	336.0	333.0	333.0	
Sat Jun 03 16:08:00 UTC 2017	0.0	1.047281664E9	2769.711181640625	0.0	2.5731072E7	0.0	2.0	8.18315264E8	45.16802978515625	0.0	0.0	1.061269504E9	1.050107904E9	0.0	0.0	0.07275000214576721	0.04675000160932541	0.04600000008940697	0.9917500019073486	0.7303359508514404	0.0	244.0	371.0	0.0	0.0	0.0	0.0	0.0	0.0	null	null	null	null	null	null	null	null	333.0	335.0	334.0	334.0	335.0	339.0	336.0	335.0	335.0	335.0	337.0	
Sat Jun 03 16:07:00 UTC 2017	0.0	1.047281664E9	2567.814453125	0.0	2.5731072E7	0.0	2.0	8.18315264E8	55.57606887817383	0.0	0.0	1.061269504E9	1.050107904E9	0.0	0.0	0.06925000250339508	0.051500000059604645	0.04724999889731407	0.9917500019073486	0.7302899956703186	0.0	244.0	371.0	0.0	0.0	0.0	0.0	0.0	0.0	null	null	null	null	null	null	null	null	338.0	334.0	333.0	332.0	335.0	335.0	334.0	334.0	333.0	335.0	334.0	
Sat Jun 03 16:06:00 UTC 2017	1.0	1.047281664E9	2771.093505859375	0.0	2.5731072E7	0.0	3.0	8.18315264E8	55.57606887817383	0.0	0.0	1.062281216E9	1.050107904E9	0.0	0.0	0.07750000059604645	0.04574999958276749	0.04975000023841858	0.9917500019073486	0.730285108089447	0.0	244.0	371.0	0.0	0.0	0.0	0.0	0.0	0.0	null	null	null	null	null	null	null	null	335.0	332.0	334.0	335.0	333.0	331.0	334.0	337.0	334.0	334.0	333.0	
Sat Jun 03 16:05:00 UTC 2017	0.0	1.047281664E9	2571.591064453125	0.0	2.5731072E7	0.0	2.0	8.18192384E8	55.57606887817383	0.0	0.0	1.061269504E9	1.050107904E9	0.0	0.0	0.07599999755620956	0.051249999552965164	0.04374999925494194	0.9919999837875366	0.7302669882774353	0.0	244.0	371.0	0.0	0.0	0.0	0.0	0.0	0.0	null	null	null	null	null	null	null	null	331.0	336.0	335.0	331.0	334.0	336.0	334.0	335.0	331.0	337.0	334.0	
Sat Jun 03 16:04:00 UTC 2017	0.0	1.048293376E9	2571.591064453125	0.0	2.5731072E7	0.0	2.0	8.18102272E8	55.57606887817383	0.0	1.0	1.061269504E9	1.050107904E9	0.0	0.0	0.07575000077486038	0.0507499985396862	0.0507499985396862	0.9922500252723694	0.7302517890930176	0.0	244.0	371.0	0.0	0.0	0.0	0.0	0.0	0.0	null	null	null	null	null	null	null	null	333.0	333.0	334.0	338.0	331.0	339.0	337.0	338.0	337.0	335.0	338.0	
Sat Jun 03 16:03:00 UTC 2017	0.0	1.047281664E9	2571.591064453125	0.0	2.5731072E7	0.0	3.0	8.18102272E8	56.95272445678711	0.0	0.0	1.062281216E9	1.050107904E9	0.0	0.0	0.07349999994039536	0.051500000059604645	0.04650000110268593	0.9917500019073486	0.7302331924438477	0.0	244.0	371.0	0.0	0.0	0.0	0.0	0.0	0.0	null	null	null	null	null	null	null	null	337.0	336.0	339.0	332.0	334.0	336.0	332.0	334.0	334.0	336.0	335.0	
Sat Jun 03 16:02:00 UTC 2017	0.0	1.047281664E9	3801.261962890625	0.0	2.5731072E7	0.0	3.0	8.18102272E8	56.95272445678711	1.0	0.0	1.061269504E9	1.050107904E9	0.0	0.0	0.07400000095367432	0.054249998182058334	0.04349999874830246	0.9917500019073486	0.7302356362342834	0.0	244.0	371.0	0.0	0.0	0.0	0.0	0.0	0.0	null	null	null	null	null	null	null	null	331.0	333.0	334.0	337.0	331.0	333.0	337.0	334.0	330.0	333.0	333.0	
Sat Jun 03 16:01:00 UTC 2017	0.0	1.048293376E9	3801.261962890625	0.0	2.5731072E7	0.0	3.0	8.17893376E8	56.95272445678711	0.0	0.0	1.061269504E9	1.050107904E9	0.0	null	0.09974999725818634	0.051249999552965164	0.048250000923871994	0.9919999837875366	0.7302145957946777	0.0	244.0	371.0	0.0	0.0	0.0	0.0	0.0	0.0	null	null	null	null	null	null	null	null	338.0	332.0	334.0	335.0	334.0	338.0	332.0	334.0	338.0	332.0	335.0	
Sat Jun 03 16:00:00 UTC 2017	0.0	1.048293376E9	2550.423095703125	0.0	2.5731072E7	0.0	4.0	8.17983488E8	52.166099548339844	0.0	0.0	1.061269504E9	1.050107904E9	0.0	0.0	0.07850000262260437	0.04749999940395355	0.048250000923871994	0.9919999837875366	0.7301368117332458	0.0	244.0	371.0	0.0	0.0	0.0	0.0	0.0	0.0	null	null	null	null	null	null	null	null	334.0	333.0	333.0	332.0	335.0	333.0	335.0	334.0	332.0	340.0	334.0	
Sat Jun 03 15:59:00 UTC 2017	0.0	1.048293376E9	2881.347900390625	0.0	2.5731072E7	0.0	4.0	8.17893376E8	41.77012634277344	0.0	0.0	1.062281216E9	1.050107904E9	0.0	0.0	0.0689999982714653	0.05624999850988388	0.051249999552965164	0.9919999837875366	0.7301324009895325	0.0	244.0	371.0	0.0	0.0	0.0	0.0	0.0	0.0	null	null	null	null	null	null	null	null	334.0	337.0	333.0	335.0	335.0	335.0	338.0	337.0	332.0	334.0	333.0	
Sat Jun 03 15:58:00 UTC 2017	0.0	1.047281664E9	2881.347900390625	0.0	2.5731072E7	0.0	3.0	8.17893376E8	41.77012634277344	0.0	0.0	1.061269504E9	1.050107904E9	0.0	0.0	0.08049999922513962	0.0507499985396862	0.04675000160932541	0.9917500019073486	0.7317935228347778	0.0	244.0	371.0	0.0	0.0	0.0	0.0	0.0	0.0	null	null	null	null	null	null	null	null	336.0	330.0	335.0	333.0	334.0	335.0	334.0	334.0	335.0	333.0	334.0	
Sat Jun 03 15:57:00 UTC 2017	1.0	1.048293376E9	2881.347900390625	0.0	2.5731072E7	0.0	3.0	8.17893376E8	41.77012634277344	0.0	0.0	1.062281216E9	1.050107904E9	0.0	0.0	0.07050000131130219	0.045499999076128006	0.04374999925494194	0.9917500019073486	0.7300971746444702	0.0	244.0	371.0	0.0	0.0	0.0	0.0	0.0	0.0	null	null	null	null	null	null	null	null	331.0	332.0	334.0	334.0	333.0	336.0	333.0	333.0	334.0	333.0	332.0	
Sat Jun 03 15:56:00 UTC 2017	1.0	1.047281664E9	2881.347900390625	0.0	2.5731072E7	0.0	4.0	8.17893376E8	41.77012634277344	0.0	0.0	1.061269504E9	1.050107904E9	0.0	0.0	0.07199999690055847	0.05324999988079071	0.0494999997317791	0.9915000200271606	0.7300962209701538	0.0	244.0	371.0	0.0	0.0	0.0	0.0	0.0	0.0	null	null	null	null	null	null	null	null	333.0	338.0	333.0	335.0	331.0	331.0	330.0	336.0	338.0	332.0	337.0	
Sat Jun 03 15:55:00 UTC 2017	0.0	1.047281664E9	2335.0625	0.0	2.5731072E7	0.0	4.0	8.17770496E8	33.72917938232422	0.0	0.0	1.061269504E9	1.050107904E9	0.0	null	0.07575000077486038	0.054749999195337296	0.04650000110268593	0.9919999837875366	0.7323742508888245	0.0	244.0	371.0	0.0	0.0	0.0	0.0	0.0	0.0	null	null	null	null	null	null	null	null	334.0	339.0	339.0	332.0	336.0	336.0	335.0	331.0	336.0	339.0	333.0	
Sat Jun 03 15:54:00 UTC 2017	0.0	1.048293376E9	2335.0625	0.0	2.5731072E7	0.0	3.0	8.17680384E8	46.40213394165039	0.0	0.0	1.062281216E9	1.050107904E9	0.0	null	0.08150000125169754	0.0442500002682209	0.05225000157952309	0.9915000200271606	0.7300683259963989	0.0	244.0	371.0	0.0	0.0	0.0	0.0	0.0	0.0	null	null	null	null	null	null	null	null	333.0	333.0	333.0	333.0	334.0	335.0	335.0	335.0	335.0	330.0	328.0	
Sat Jun 03 15:53:00 UTC 2017	0.0	1.047281664E9	2335.0625	0.0	2.5731072E7	0.0	3.0	8.17680384E8	41.13266372680664	0.0	0.0	1.062281216E9	1.050107904E9	0.0	null	0.07374999672174454	0.05624999850988388	0.04450000077486038	0.9915000200271606	0.7300213575363159	0.0	244.0	371.0	0.0	0.0	0.0	0.0	0.0	0.0	null	null	null	null	null	null	null	null	335.0	337.0	333.0	334.0	334.0	335.0	334.0	336.0	331.0	336.0	333.0	
Sat Jun 03 15:52:00 UTC 2017	0.0	1.047281664E9	2833.505859375	0.0	2.5731072E7	0.0	4.0	8.17680384E8	41.13266372680664	0.0	0.0	1.062281216E9	1.050107904E9	0.0	0.0	0.06724999845027924	0.04625000059604645	0.051249999552965164	0.9917500019073486	0.7300507426261902	0.0	244.0	371.0	0.0	0.0	0.0	0.0	0.0	0.0	null	null	null	null	null	null	null	null	333.0	331.0	337.0	336.0	333.0	333.0	333.0	331.0	332.0	337.0	336.0	
Sat Jun 03 15:51:00 UTC 2017	0.0	1.047281664E9	2933.929443359375	0.0	2.5731072E7	0.0	3.0	8.17467392E8	41.13266372680664	2.0	2.0	1.061269504E9	1.050107904E9	0.0	0.0	0.1014999970793724	0.05550000071525574	0.04399999976158142	0.9915000200271606	0.7300350666046143	0.0	244.0	371.0	0.0	0.0	0.0	0.0	0.0	0.0	null	null	null	null	null	null	null	null	336.0	334.0	333.0	331.0	334.0	334.0	334.0	335.0	332.0	332.0	333.0	
Sat Jun 03 15:50:00 UTC 2017	1.0	1.047281664E9	2432.598388671875	0.0	2.5731072E7	0.0	2.0	8.17557504E8	41.13266372680664	0.0	1.0	1.061269504E9	1.050107904E9	0.0	null	0.08174999803304672	0.054749999195337296	0.04699999839067459	0.9917500019073486	0.7301163077354431	0.0	244.0	371.0	0.0	0.0	0.0	0.0	0.0	0.0	null	null	null	null	null	null	null	null	333.0	333.0	335.0	334.0	337.0	333.0	337.0	335.0	333.0	332.0	334.0	
Sat Jun 03 15:49:00 UTC 2017	0.0	1.047281664E9	2760.435546875	0.0	2.5731072E7	0.0	2.0	8.17467392E8	41.13266372680664	0.0	1.0	1.062281216E9	1.050107904E9	0.0	null	0.07100000232458115	0.05050000175833702	0.051249999552965164	0.9915000200271606	0.7300957441329956	0.0	244.0	371.0	0.0	0.0	0.0	0.0	0.0	0.0	null	null	null	null	null	null	null	null	334.0	339.0	336.0	335.0	333.0	334.0	332.0	338.0	339.0	336.0	333.0	
Sat Jun 03 15:48:00 UTC 2017	0.0	1.047281664E9	2817.92236328125	0.0	2.5731072E7	0.0	2.0	8.17467392E8	52.95930862426758	0.0	0.0	1.062281216E9	1.050107904E9	0.0	0.0	0.07824999839067459	0.05299999937415123	0.04675000160932541	0.9917500019073486	0.7300732135772705	0.0	244.0	371.0	0.0	0.0	0.0	0.0	0.0	0.0	null	null	null	null	null	null	null	null	337.0	333.0	333.0	335.0	333.0	334.0	336.0	332.0	332.0	330.0	332.0	
Sat Jun 03 15:47:00 UTC 2017	0.0	1.048293376E9	2817.92236328125	0.0	2.5731072E7	0.0	2.0	8.17467392E8	52.95930862426758	0.0	0.0	1.061269504E9	1.050107904E9	0.0	0.0	0.06424999982118607	0.052000001072883606	0.04075000062584877	0.9915000200271606	0.7300702929496765	0.0	244.0	371.0	0.0	0.0	0.0	0.0	0.0	0.0	null	null	null	null	null	null	null	null	333.0	332.0	332.0	332.0	332.0	333.0	331.0	332.0	335.0	334.0	338.0	
Sat Jun 03 15:46:00 UTC 2017	1.0	1.048293376E9	2574.51953125	0.0	2.5731072E7	0.0	5.0	8.17717248E8	52.95930862426758	0.0	0.0	1.061269504E9	1.050107904E9	0.0	0.0	0.07199999690055847	0.048500001430511475	0.050999999046325684	0.9917500019073486	0.7323361039161682	0.0	244.0	371.0	0.0	0.0	0.0	0.0	0.0	0.0	null	null	null	null	null	null	null	null	330.0	333.0	332.0	332.0	333.0	332.0	335.0	332.0	334.0	332.0	330.0	
Sat Jun 03 15:45:00 UTC 2017	1.0	1.048293376E9	2650.85107421875	0.0	2.5731072E7	0.0	3.0	8.17344512E8	52.95930862426758	0.0	0.0	1.061269504E9	1.050107904E9	0.0	0.0	0.07850000262260437	0.05324999988079071	0.048500001430511475	0.9917500019073486	0.7300316095352173	0.0	244.0	371.0	0.0	0.0	0.0	0.0	0.0	0.0	null	null	null	null	null	null	null	null	335.0	333.0	335.0	334.0	334.0	336.0	329.0	333.0	335.0	335.0	336.0	
Sat Jun 03 15:44:00 UTC 2017	1.0	1.048293376E9	2770.15185546875	0.0	2.5731072E7	0.0	5.0	8.172544E8	42.38695526123047	0.0	0.0	1.062281216E9	1.050107904E9	0.0	0.0	0.07124999910593033	0.04699999839067459	0.04625000059604645	0.9915000200271606	0.7299425601959229	0.0	244.0	371.0	0.0	0.0	0.0	0.0	0.0	0.0	null	null	null	null	null	null	null	null	335.0	334.0	336.0	332.0	332.0	330.0	334.0	334.0	330.0	335.0	334.0	
Sat Jun 03 15:43:00 UTC 2017	0.0	1.047281664E9	2770.15185546875	0.0	2.5731072E7	0.0	4.0	8.172544E8	46.103355407714844	1.0	0.0	1.061269504E9	1.050107904E9	0.0	0.0	0.0794999971985817	0.0560000017285347	0.04774999991059303	0.9909999966621399	0.7299234867095947	0.0	244.0	371.0	0.0	0.0	0.0	0.0	0.0	0.0	null	null	null	null	null	null	null	null	333.0	332.0	336.0	334.0	336.0	334.0	334.0	334.0	335.0	330.0	334.0	
Sat Jun 03 15:42:00 UTC 2017	1.0	1.048293376E9	2770.15185546875	0.0	2.5731072E7	0.0	2.0	8.172544E8	44.45789337158203	0.0	1.0	1.061269504E9	1.050107904E9	0.0	0.0	0.07800000160932541	0.05025000125169754	0.04699999839067459	0.9912499785423279	0.7322059273719788	0.0	244.0	371.0	0.0	0.0	0.0	0.0	0.0	0.0	null	null	null	null	null	null	null	null	335.0	334.0	333.0	337.0	331.0	333.0	334.0	331.0	332.0	334.0	331.0	
Sat Jun 03 15:41:00 UTC 2017	0.0	1.047281664E9	2770.15185546875	0.0	2.5731072E7	0.0	2.0	8.17504256E8	44.45789337158203	0.0	0.0	1.062281216E9	1.050107904E9	0.0	0.0	0.0925000011920929	0.04899999871850014	0.04899999871850014	0.9915000200271606	0.7299054265022278	0.0	244.0	371.0	0.0	0.0	0.0	0.0	0.0	0.0	null	null	null	null	null	null	null	null	333.0	334.0	332.0	331.0	336.0	332.0	331.0	333.0	336.0	333.0	334.0	
Sat Jun 03 15:40:00 UTC 2017	0.0	1.047281664E9	2442.798095703125	0.0	2.5731072E7	0.0	2.0	8.17135616E8	44.45789337158203	1.0	2.0	1.062281216E9	1.050107904E9	0.0	0.0	0.07874999940395355	0.05849999934434891	0.048250000923871994	0.9917500019073486	0.7318179607391357	0.0	244.0	371.0	0.0	0.0	0.0	0.0	0.0	0.0	null	null	null	null	null	null	null	null	338.0	335.0	335.0	335.0	336.0	334.0	333.0	335.0	335.0	335.0	335.0	
Sat Jun 03 15:39:00 UTC 2017	0.0	1.047281664E9	3356.20849609375	0.0	2.5731072E7	0.0	2.0	8.17045504E8	48.31352233886719	0.0	0.0	1.062281216E9	1.050107904E9	0.0	0.0	0.0689999982714653	0.05400000140070915	0.04475000128149986	0.9917500019073486	0.7321721911430359	0.0	244.0	371.0	0.0	0.0	0.0	0.0	0.0	0.0	null	null	null	null	null	null	null	null	335.0	332.0	338.0	336.0	333.0	334.0	334.0	335.0	336.0	335.0	333.0	
Sat Jun 03 15:38:00 UTC 2017	0.0	1.047281664E9	2203.0009765625	0.0	2.5731072E7	0.0	3.0	8.17045504E8	46.5406379699707	1.0	1.0	1.062281216E9	1.050107904E9	0.0	0.0	0.0742499977350235	0.0507499985396862	0.04699999839067459	0.9917500019073486	0.730497419834137	0.0	244.0	371.0	0.0	0.0	0.0	0.0	0.0	0.0	null	null	null	null	null	null	null	null	333.0	336.0	331.0	332.0	334.0	335.0	334.0	336.0	333.0	337.0	334.0	
Sat Jun 03 15:37:00 UTC 2017	0.0	1.047281664E9	2902.610595703125	0.0	2.5731072E7	0.0	3.0	8.17045504E8	49.53230285644531	0.0	0.0	1.062281216E9	1.050107904E9	0.0	0.0	0.0742499977350235	0.05025000125169754	0.04699999839067459	0.9915000200271606	0.732147216796875	0.0	244.0	371.0	0.0	0.0	0.0	0.0	0.0	0.0	null	null	null	null	null	null	null	null	332.0	331.0	332.0	336.0	330.0	336.0	335.0	332.0	333.0	330.0	333.0	
Sat Jun 03 15:36:00 UTC 2017	0.0	1.048293376E9	2902.610595703125	0.0	2.5731072E7	0.0	3.0	8.173568E8	42.48630905151367	0.0	0.0	1.062281216E9	1.050107904E9	0.0	0.0	0.07824999839067459	0.054999999701976776	0.04975000023841858	0.9915000200271606	0.7298226952552795	0.0	244.0	371.0	0.0	0.0	0.0	0.0	0.0	0.0	null	null	null	null	null	null	null	null	334.0	336.0	335.0	333.0	333.0	331.0	332.0	334.0	335.0	332.0	333.0	
Sat Jun 03 15:35:00 UTC 2017	0.0	1.048293376E9	2504.868408203125	0.0	2.5731072E7	0.0	2.0	8.16922624E8	52.6284294128418	0.0	0.0	1.061269504E9	1.050107904E9	0.0	0.0	0.07400000095367432	0.04975000023841858	0.04450000077486038	0.9877499938011169	0.7307537794113159	0.0	244.0	371.0	0.0	0.0	0.0	0.0	0.0	0.0	null	null	null	null	null	null	null	null	332.0	332.0	331.0	333.0	333.0	332.0	332.0	334.0	332.0	331.0	331.0	
Sat Jun 03 15:34:00 UTC 2017	0.0	1.048293376E9	2809.582275390625	0.0	2.5731072E7	0.0	2.0	8.16832512E8	50.55357360839844	0.0	0.0	1.062281216E9	1.050107904E9	0.0	0.0	0.0742499977350235	0.057750001549720764	0.051249999552965164	0.9912499785423279	0.7298139333724976	0.0	244.0	371.0	0.0	0.0	0.0	0.0	0.0	0.0	null	null	null	null	null	null	null	null	333.0	337.0	333.0	332.0	333.0	330.0	329.0	332.0	335.0	328.0	337.0	
Sat Jun 03 15:33:00 UTC 2017	1.0	1.047281664E9	2809.582275390625	0.0	2.5731072E7	0.0	2.0	8.16832512E8	61.89601135253906	2.0	2.0	1.061269504E9	1.050107904E9	0.0	0.0	0.07474999874830246	0.048250000923871994	0.04650000110268593	0.9892500042915344	0.7297943234443665	0.0	244.0	371.0	0.0	0.0	0.0	0.0	0.0	0.0	null	null	null	null	null	null	null	null	333.0	332.0	333.0	335.0	333.0	334.0	334.0	334.0	334.0	332.0	333.0	
Sat Jun 03 15:32:00 UTC 2017	0.0	1.048293376E9	2809.582275390625	0.0	2.5731072E7	0.0	2.0	8.16832512E8	34.147159576416016	0.0	0.0	1.062281216E9	1.050107904E9	0.0	0.0	0.0794999971985817	0.051249999552965164	0.04675000160932541	0.9902499914169312	0.7298099994659424	0.0	244.0	371.0	0.0	0.0	0.0	0.0	0.0	0.0	null	null	null	null	null	null	null	null	331.0	329.0	334.0	331.0	331.0	332.0	329.0	332.0	333.0	331.0	330.0	
Sat Jun 03 15:31:00 UTC 2017	1.0	1.047281664E9	2809.582275390625	0.0	2.5731072E7	0.0	2.0	8.17078272E8	41.53631591796875	0.0	0.0	1.061269504E9	1.050107904E9	0.0	0.0	0.1002499982714653	0.05025000125169754	0.0494999997317791	0.9904999732971191	0.7297914028167725	0.0	244.0	371.0	0.0	0.0	0.0	0.0	0.0	0.0	null	null	null	null	null	null	null	null	334.0	333.0	328.0	334.0	332.0	334.0	336.0	334.0	333.0	332.0	335.0	
Sat Jun 03 15:30:00 UTC 2017	1.0	1.047281664E9	2824.67529296875	0.0	2.5731072E7	0.0	3.0	8.16709632E8	41.53631591796875	0.0	0.0	1.061269504E9	1.050107904E9	0.0	null	0.06875000149011612	0.05925000086426735	0.04774999991059303	0.9917500019073486	0.7298476696014404	0.0	244.0	371.0	0.0	0.0	0.0	0.0	0.0	0.0	null	null	null	null	null	null	null	null	333.0	334.0	336.0	335.0	333.0	338.0	336.0	334.0	334.0	332.0	334.0	
Sat Jun 03 15:29:00 UTC 2017	1.0	1.048293376E9	2824.67529296875	0.0	2.5731072E7	0.0	4.0	8.1661952E8	41.53631591796875	0.0	0.0	1.062281216E9	1.050107904E9	0.0	null	0.07050000131130219	0.04899999871850014	0.0442500002682209	0.9919999837875366	0.7297703623771667	0.0	244.0	371.0	0.0	0.0	0.0	0.0	0.0	0.0	null	null	null	null	null	null	null	null	334.0	335.0	334.0	335.0	333.0	334.0	334.0	334.0	334.0	332.0	334.0	
Sat Jun 03 15:28:00 UTC 2017	0.0	1.047281664E9	2824.67529296875	0.0	2.5731072E7	0.0	2.0	8.1661952E8	41.53631591796875	0.0	0.0	1.061269504E9	1.050107904E9	0.0	null	0.07400000095367432	0.05249999836087227	0.0494999997317791	0.9917500019073486	0.7297512888908386	0.0	244.0	371.0	0.0	0.0	0.0	0.0	0.0	0.0	null	null	null	null	null	null	null	null	334.0	331.0	333.0	334.0	334.0	332.0	332.0	335.0	333.0	337.0	334.0	
Sat Jun 03 15:27:00 UTC 2017	0.0	1.048293376E9	2824.67529296875	0.0	2.5731072E7	0.0	2.0	8.1661952E8	41.53631591796875	0.0	0.0	1.061269504E9	1.050107904E9	0.0	0.0	0.08025000244379044	0.04924999922513962	0.04650000110268593	0.9917500019073486	0.7297185063362122	0.0	244.0	371.0	0.0	0.0	0.0	0.0	0.0	0.0	null	null	null	null	null	null	null	null	330.0	336.0	336.0	335.0	334.0	336.0	333.0	335.0	331.0	333.0	334.0	
Sat Jun 03 15:26:00 UTC 2017	0.0	1.047281664E9	2824.67529296875	0.0	2.5731072E7	0.0	3.0	8.16869376E8	41.53631591796875	0.0	0.0	1.061269504E9	1.050107904E9	0.0	0.0	0.07124999910593033	0.05225000157952309	0.04899999871850014	0.9915000200271606	0.7319211959838867	0.0	244.0	371.0	0.0	0.0	0.0	0.0	0.0	0.0	null	null	null	null	null	null	null	null	335.0	335.0	330.0	334.0	331.0	333.0	335.0	334.0	334.0	330.0	335.0	
Sat Jun 03 15:25:00 UTC 2017	0.0	1.047281664E9	2652.036376953125	0.0	2.5731072E7	0.0	2.0	8.16500736E8	41.53631591796875	0.0	0.0	1.061269504E9	1.050107904E9	0.0	0.0	0.07000000029802322	0.04924999922513962	0.048500001430511475	0.9915000200271606	0.7319158315658569	0.0	244.0	371.0	0.0	0.0	0.0	0.0	0.0	0.0	null	null	null	null	null	null	null	null	333.0	334.0	337.0	333.0	331.0	331.0	332.0	335.0	333.0	331.0	333.0	
Sat Jun 03 15:24:00 UTC 2017	0.0	1.048293376E9	2652.036376953125	0.0	2.5731072E7	0.0	2.0	8.16410624E8	54.91546630859375	0.0	0.0	1.062281216E9	1.050107904E9	0.0	0.0	0.07349999994039536	0.04675000160932541	0.04749999940395355	0.9915000200271606	0.7296088933944702	0.0	244.0	371.0	0.0	0.0	0.0	0.0	0.0	0.0	null	null	null	null	null	null	null	null	334.0	334.0	332.0	335.0	336.0	336.0	336.0	332.0	334.0	334.0	332.0	
Sat Jun 03 15:23:00 UTC 2017	0.0	1.048293376E9	2863.47900390625	0.0	2.5731072E7	0.0	2.0	8.1641472E8	60.17677688598633	0.0	0.0	1.061269504E9	1.050107904E9	0.0	0.0	0.0807500034570694	0.054249998182058334	0.045499999076128006	0.9917500019073486	0.7296108603477478	0.0	244.0	371.0	0.0	0.0	0.0	0.0	0.0	0.0	null	null	null	null	null	null	null	null	334.0	334.0	333.0	333.0	331.0	334.0	331.0	336.0	333.0	336.0	333.0	
Sat Jun 03 15:22:00 UTC 2017	0.0	1.047281664E9	2863.47900390625	0.0	2.5731072E7	0.0	2.0	8.1641472E8	60.17677688598633	0.0	0.0	1.062281216E9	1.050107904E9	0.0	0.0	0.07050000131130219	0.0507499985396862	0.04899999871850014	0.9917500019073486	0.7295907735824585	0.0	244.0	371.0	0.0	0.0	0.0	0.0	0.0	0.0	null	null	null	null	null	null	null	null	333.0	336.0	337.0	335.0	337.0	334.0	336.0	330.0	337.0	333.0	336.0	
Sat Jun 03 15:21:00 UTC 2017	0.0	1.048293376E9	2863.47900390625	0.0	2.5731072E7	0.0	2.0	8.1641472E8	60.17677688598633	0.0	0.0	1.062281216E9	1.050107904E9	0.0	0.0	0.09350000321865082	0.04899999871850014	0.04874999821186066	0.9919999837875366	0.7318507432937622	0.0	244.0	371.0	0.0	0.0	0.0	0.0	0.0	0.0	null	null	null	null	null	null	null	null	336.0	334.0	333.0	334.0	335.0	331.0	335.0	333.0	333.0	332.0	334.0	
Sat Jun 03 15:20:00 UTC 2017	0.0	1.047281664E9	2863.47900390625	0.0	2.5731072E7	0.0	10.0	8.1627136E8	60.17677688598633	0.0	0.0	1.061269504E9	1.050107904E9	0.0	0.0	0.0767500028014183	0.050999999046325684	0.04675000160932541	0.9917500019073486	0.731838047504425	0.0	244.0	371.0	0.0	0.0	0.0	0.0	0.0	0.0	null	null	null	null	null	null	null	null	332.0	336.0	333.0	335.0	332.0	334.0	334.0	338.0	337.0	336.0	334.0	
Sat Jun 03 15:19:00 UTC 2017	0.0	1.047281664E9	2826.1708984375	0.0	2.5731072E7	0.0	4.0	8.16181248E8	64.85529327392578	0.0	0.0	1.061269504E9	1.050107904E9	0.0	0.0	0.08150000125169754	0.05025000125169754	0.04675000160932541	0.9919999837875366	0.7294973731040955	0.0	244.0	371.0	0.0	0.0	0.0	0.0	0.0	0.0	null	null	null	null	null	null	null	null	334.0	335.0	339.0	332.0	334.0	335.0	332.0	333.0	334.0	334.0	337.0	
Sat Jun 03 15:18:00 UTC 2017	0.0	1.048293376E9	2826.1708984375	0.0	2.5731072E7	0.0	2.0	8.16181248E8	42.84391403198242	0.0	0.0	1.062281216E9	1.050107904E9	0.0	0.0	0.06875000149011612	0.05000000074505806	0.04924999922513962	0.9919999837875366	0.7294812202453613	0.0	244.0	371.0	0.0	0.0	0.0	0.0	0.0	0.0	null	null	null	null	null	null	null	null	333.0	332.0	334.0	332.0	335.0	335.0	338.0	336.0	335.0	333.0	334.0	
Sat Jun 03 15:17:00 UTC 2017	0.0	1.047281664E9	2826.1708984375	0.0	2.5731072E7	0.0	2.0	8.16181248E8	42.84391403198242	0.0	0.0	1.062281216E9	1.050107904E9	0.0	0.0	0.0742499977350235	0.05025000125169754	0.04600000008940697	0.9917500019073486	0.7294836640357971	0.0	244.0	371.0	0.0	0.0	0.0	0.0	0.0	0.0	null	null	null	null	null	null	null	null	335.0	334.0	332.0	336.0	331.0	329.0	332.0	333.0	337.0	330.0	335.0	
Sat Jun 03 15:16:00 UTC 2017	0.0	1.048293376E9	2826.1708984375	0.0	2.5731072E7	0.0	2.0	8.16058368E8	42.84391403198242	0.0	0.0	1.062281216E9	1.050107904E9	0.0	0.0	0.07699999958276749	0.051750000566244125	0.04399999976158142	0.9917500019073486	0.7294684648513794	0.0	244.0	371.0	0.0	0.0	0.0	0.0	0.0	0.0	null	null	null	null	null	null	null	null	335.0	333.0	335.0	334.0	334.0	338.0	334.0	332.0	335.0	333.0	335.0	
Sat Jun 03 15:15:00 UTC 2017	0.0	1.048293376E9	2490.093017578125	0.0	2.5731072E7	0.0	2.0	8.16058368E8	42.84391403198242	0.0	0.0	1.062281216E9	1.050107904E9	0.0	null	0.07150000333786011	0.05624999850988388	0.04924999922513962	0.9919999837875366	0.7294523119926453	0.0	244.0	371.0	0.0	0.0	0.0	0.0	0.0	0.0	null	null	null	null	null	null	null	null	334.0	337.0	333.0	336.0	335.0	334.0	334.0	336.0	333.0	338.0	332.0	
Sat Jun 03 15:14:00 UTC 2017	0.0	1.048293376E9	2323.99462890625	0.0	2.5731072E7	0.0	2.0	8.15968256E8	34.673362731933594	0.0	0.0	1.061269504E9	1.050107904E9	0.0	null	0.0820000022649765	0.04650000110268593	0.04899999871850014	0.9915000200271606	0.7294504046440125	0.0	244.0	371.0	0.0	0.0	0.0	0.0	0.0	0.0	null	null	null	null	null	null	null	null	339.0	331.0	331.0	336.0	334.0	335.0	336.0	336.0	336.0	332.0	335.0	
Sat Jun 03 15:13:00 UTC 2017	0.0	1.047281664E9	2323.99462890625	0.0	2.5731072E7	0.0	4.0	8.15968256E8	34.673362731933594	0.0	0.0	1.062281216E9	1.050107904E9	0.0	null	0.07000000029802322	0.051500000059604645	0.04450000077486038	0.9919999837875366	0.729426920413971	0.0	244.0	371.0	0.0	0.0	0.0	0.0	0.0	0.0	null	null	null	null	null	null	null	null	332.0	338.0	336.0	333.0	331.0	332.0	332.0	333.0	336.0	332.0	334.0	
Sat Jun 03 15:12:00 UTC 2017	0.0	1.048293376E9	2323.99462890625	0.0	2.5731072E7	0.0	2.0	8.15968256E8	34.673362731933594	0.0	0.0	1.061269504E9	1.050107904E9	0.0	null	0.07524999976158142	0.051750000566244125	0.04699999839067459	0.9917500019073486	0.7294136881828308	0.0	244.0	371.0	0.0	0.0	0.0	0.0	0.0	0.0	null	null	null	null	null	null	null	null	337.0	334.0	337.0	333.0	337.0	337.0	336.0	335.0	335.0	336.0	335.0	
Sat Jun 03 15:11:00 UTC 2017	0.0	1.048293376E9	3146.250244140625	0.0	2.5731072E7	0.0	4.0	8.16218112E8	43.32893371582031	0.0	0.0	1.062281216E9	1.050107904E9	0.0	null	0.0949999988079071	0.04475000128149986	0.05000000074505806	0.9917500019073486	0.7293872833251953	0.0	244.0	371.0	0.0	0.0	0.0	0.0	0.0	0.0	null	null	null	null	null	null	null	null	333.0	331.0	329.0	330.0	331.0	330.0	331.0	331.0	337.0	334.0	332.0	
Sat Jun 03 15:10:00 UTC 2017	0.0	1.048293376E9	2439.489990234375	0.0	2.5731072E7	0.0	3.0	8.16111616E8	49.30937576293945	0.0	0.0	1.062281216E9	1.050107904E9	0.0	null	0.07975000143051147	0.054249998182058334	0.04324999824166298	0.9917500019073486	0.729323148727417	0.0	244.0	371.0	0.0	0.0	0.0	0.0	0.0	0.0	null	null	null	null	null	null	null	null	334.0	336.0	335.0	333.0	334.0	332.0	334.0	333.0	335.0	334.0	333.0	
Sat Jun 03 15:09:00 UTC 2017	1.0	1.047281664E9	2439.489990234375	0.0	2.5731072E7	0.0	2.0	8.15566848E8	49.30937576293945	0.0	0.0	1.061269504E9	1.050107904E9	0.0	null	0.06925000250339508	0.04899999871850014	0.04975000023841858	0.9915000200271606	0.7293016314506531	0.0	244.0	371.0	0.0	0.0	0.0	0.0	0.0	0.0	null	null	null	null	null	null	null	null	338.0	333.0	333.0	334.0	334.0	333.0	336.0	332.0	333.0	331.0	335.0	
Sat Jun 03 15:08:00 UTC 2017	1.0	1.048293376E9	2439.489990234375	0.0	2.5731072E7	0.0	4.0	8.15566848E8	45.467437744140625	0.0	0.0	1.061269504E9	1.050107904E9	0.0	null	0.07524999976158142	0.05025000125169754	0.04574999958276749	0.9912499785423279	0.7315865159034729	0.0	244.0	371.0	0.0	0.0	0.0	0.0	0.0	0.0	null	null	null	null	null	null	null	null	331.0	333.0	334.0	332.0	333.0	333.0	329.0	340.0	333.0	333.0	332.0	
Sat Jun 03 15:07:00 UTC 2017	1.0	1.047281664E9	2439.489990234375	0.0	2.5731072E7	0.0	2.0	8.15566848E8	45.467437744140625	0.0	0.0	1.062281216E9	1.050107904E9	0.0	null	0.07450000196695328	0.05225000157952309	0.05000000074505806	0.9917500019073486	0.7292860150337219	0.0	244.0	371.0	0.0	0.0	0.0	0.0	0.0	0.0	null	null	null	null	null	null	null	null	332.0	333.0	333.0	331.0	336.0	335.0	339.0	332.0	339.0	335.0	333.0	
Sat Jun 03 15:06:00 UTC 2017	1.0	1.047281664E9	3086.667236328125	0.0	2.5731072E7	0.0	3.0	8.15443968E8	45.467437744140625	0.0	0.0	1.061269504E9	1.050107904E9	0.0	null	0.07824999839067459	0.04874999821186066	0.04324999824166298	0.9912499785423279	0.729267418384552	0.0	244.0	371.0	0.0	0.0	0.0	0.0	0.0	0.0	null	null	null	null	null	null	null	null	333.0	332.0	333.0	333.0	330.0	337.0	333.0	335.0	331.0	336.0	333.0	
Sat Jun 03 15:05:00 UTC 2017	0.0	1.047281664E9	2848.481689453125	0.0	2.5731072E7	0.0	2.0	8.15443968E8	41.42518997192383	0.0	0.0	1.061269504E9	1.050107904E9	0.0	null	0.07400000095367432	0.054749999195337296	0.04650000110268593	0.9917500019073486	0.7293530106544495	0.0	244.0	371.0	0.0	0.0	0.0	0.0	0.0	0.0	null	null	null	null	null	null	null	null	334.0	334.0	337.0	336.0	335.0	333.0	333.0	332.0	334.0	336.0	334.0	
Sat Jun 03 15:04:00 UTC 2017	0.0	1.048293376E9	2848.481689453125	0.0	2.5731072E7	0.0	2.0	8.15353856E8	56.57512664794922	0.0	0.0	1.061269504E9	1.050107904E9	0.0	0.0	0.07524999976158142	0.05350000038743019	0.05050000175833702	0.9917500019073486	0.7293422818183899	0.0	244.0	371.0	0.0	0.0	0.0	0.0	0.0	0.0	null	null	null	null	null	null	null	null	335.0	332.0	334.0	332.0	334.0	335.0	334.0	334.0	336.0	332.0	332.0	
Sat Jun 03 15:03:00 UTC 2017	0.0	1.048293376E9	2259.189453125	0.0	2.5731072E7	0.0	3.0	8.15353856E8	34.766727447509766	0.0	0.0	1.061269504E9	1.050107904E9	0.0	null	0.07074999809265137	0.04899999871850014	0.04899999871850014	0.9912499785423279	0.729323148727417	0.0	244.0	371.0	0.0	0.0	0.0	0.0	0.0	0.0	null	null	null	null	null	null	null	null	331.0	336.0	333.0	334.0	334.0	332.0	334.0	332.0	332.0	335.0	335.0	
Sat Jun 03 15:02:00 UTC 2017	1.0	1.048293376E9	2489.9296875	0.0	2.5731072E7	0.0	3.0	8.15353856E8	34.766727447509766	0.0	0.0	1.062281216E9	1.050107904E9	0.0	null	0.08375000208616257	0.05550000071525574	0.04399999976158142	0.9912499785423279	0.7293632626533508	0.0	244.0	371.0	0.0	0.0	0.0	0.0	0.0	0.0	null	null	null	null	null	null	null	null	333.0	332.0	332.0	334.0	333.0	335.0	334.0	331.0	329.0	325.0	330.0	
Sat Jun 03 15:01:00 UTC 2017	1.0	1.047281664E9	2489.9296875	0.0	2.5731072E7	0.0	3.0	8.15230976E8	37.5573844909668	0.0	0.0	1.061269504E9	1.050107904E9	0.0	null	0.09799999743700027	0.05000000074505806	0.04675000160932541	0.9912499785423279	0.7293055653572083	0.0	244.0	371.0	0.0	0.0	0.0	0.0	0.0	0.0	null	null	null	null	null	null	null	null	334.0	334.0	334.0	332.0	337.0	331.0	332.0	331.0	336.0	334.0	331.0	
Sat Jun 03 15:00:00 UTC 2017	0.0	1.048293376E9	2489.9296875	0.0	2.5731072E7	0.0	4.0	8.15230976E8	37.5573844909668	0.0	0.0	1.061269504E9	1.050107904E9	0.0	null	0.0702499970793724	0.04899999871850014	0.05025000125169754	0.9915000200271606	0.7292894124984741	0.0	244.0	371.0	0.0	0.0	0.0	0.0	0.0	0.0	null	null	null	null	null	null	null	null	333.0	334.0	336.0	335.0	332.0	333.0	330.0	335.0	332.0	332.0	335.0	
Sat Jun 03 14:59:00 UTC 2017	0.0	1.047281664E9	2489.9296875	0.0	2.5731072E7	0.0	3.0	8.15140864E8	37.09299087524414	0.0	0.0	1.061269504E9	1.050107904E9	0.0	0.0	0.07850000262260437	0.04874999821186066	0.0442500002682209	0.9917500019073486	0.7292717695236206	0.0	244.0	371.0	0.0	0.0	0.0	0.0	0.0	0.0	null	null	null	null	null	null	null	null	336.0	333.0	336.0	335.0	337.0	334.0	335.0	331.0	335.0	335.0	334.0	
Sat Jun 03 14:58:00 UTC 2017	0.0	1.047281664E9	2933.039794921875	0.0	2.5731072E7	0.0	4.0	8.15140864E8	43.84416961669922	0.0	0.0	1.062281216E9	1.050107904E9	0.0	0.0	0.06825000047683716	0.052000001072883606	0.04899999871850014	0.9915000200271606	0.7315616011619568	0.0	244.0	371.0	0.0	0.0	0.0	0.0	0.0	0.0	null	null	null	null	null	null	null	null	335.0	334.0	334.0	333.0	332.0	335.0	334.0	336.0	335.0	331.0	332.0	
Sat Jun 03 14:57:00 UTC 2017	0.0	1.047281664E9	3041.125	0.0	2.5731072E7	0.0	2.0	8.15140864E8	45.93791198730469	0.0	0.0	1.062281216E9	1.050107904E9	0.0	0.0	0.07750000059604645	0.050999999046325684	0.04899999871850014	0.9909999966621399	0.7292600274085999	0.0	244.0	371.0	0.0	0.0	0.0	0.0	0.0	0.0	null	null	null	null	null	null	null	null	331.0	336.0	332.0	335.0	333.0	334.0	333.0	332.0	335.0	335.0	330.0	
Sat Jun 03 14:56:00 UTC 2017	1.0	1.047281664E9	2894.752197265625	0.0	2.5731072E7	0.0	4.0	8.1502208E8	49.84117126464844	0.0	0.0	1.061269504E9	1.050107904E9	0.0	0.0	0.08224999904632568	0.0560000017285347	0.04475000128149986	0.9915000200271606	0.7305874228477478	0.0	244.0	371.0	0.0	0.0	0.0	0.0	0.0	0.0	null	null	null	null	null	null	null	null	332.0	332.0	332.0	335.0	334.0	331.0	331.0	336.0	329.0	337.0	333.0	
Sat Jun 03 14:55:00 UTC 2017	1.0	1.048293376E9	2894.752197265625	0.0	2.5731072E7	0.0	2.0	8.1502208E8	49.84117126464844	0.0	0.0	1.062281216E9	1.050107904E9	0.0	0.0	0.07225000113248825	0.0442500002682209	0.04749999940395355	0.9915000200271606	0.7292395234107971	0.0	244.0	371.0	0.0	0.0	0.0	0.0	0.0	0.0	null	null	null	null	null	null	null	null	337.0	332.0	335.0	330.0	333.0	331.0	334.0	336.0	334.0	335.0	333.0	
Sat Jun 03 14:54:00 UTC 2017	1.0	1.047281664E9	2894.752197265625	0.0	2.5731072E7	0.0	2.0	8.14931968E8	34.866844177246094	0.0	0.0	1.062281216E9	1.050107904E9	0.0	null	0.06750000268220901	0.054999999701976776	0.04675000160932541	0.9915000200271606	0.7292184829711914	0.0	244.0	371.0	0.0	0.0	0.0	0.0	0.0	0.0	null	null	null	null	null	null	null	null	332.0	331.0	334.0	336.0	334.0	334.0	334.0	334.0	335.0	333.0	333.0	
Sat Jun 03 14:53:00 UTC 2017	0.0	1.048293376E9	2894.752197265625	0.0	2.5731072E7	0.0	3.0	8.14931968E8	34.866844177246094	0.0	0.0	1.061269504E9	1.050107904E9	0.0	null	0.08474999666213989	0.04899999871850014	0.0507499985396862	0.9917500019073486	0.7292013168334961	0.0	244.0	371.0	0.0	0.0	0.0	0.0	0.0	0.0	null	null	null	null	null	null	null	null	334.0	335.0	333.0	334.0	337.0	337.0	335.0	334.0	332.0	336.0	336.0	
Sat Jun 03 14:52:00 UTC 2017	0.0	1.048293376E9	2798.212158203125	0.0	2.5731072E7	0.0	2.0	8.14931968E8	34.866844177246094	0.0	0.0	1.062281216E9	1.050107904E9	0.0	null	0.06274999678134918	0.05299999937415123	0.04699999839067459	0.9917500019073486	0.7292081713676453	0.0	244.0	371.0	0.0	0.0	0.0	0.0	0.0	0.0	null	null	null	null	null	null	null	null	334.0	334.0	333.0	335.0	331.0	334.0	335.0	336.0	335.0	334.0	334.0	
Sat Jun 03 14:51:00 UTC 2017	0.0	1.047281664E9	2798.212158203125	0.0	2.5731072E7	0.0	3.0	8.15177728E8	34.866844177246094	0.0	0.0	1.062281216E9	1.050107904E9	0.0	0.0	0.0925000011920929	0.04874999821186066	0.04475000128149986	0.9915000200271606	0.7291910648345947	0.0	244.0	371.0	0.0	0.0	0.0	0.0	0.0	0.0	null	null	null	null	null	null	null	null	333.0	334.0	333.0	331.0	334.0	333.0	332.0	332.0	331.0	333.0	334.0	
Sat Jun 03 14:50:00 UTC 2017	1.0	1.047281664E9	2597.85888671875	0.0	2.5731072E7	0.0	2.0	8.14809088E8	54.61054992675781	0.0	0.0	1.062281216E9	1.050107904E9	0.0	null	0.07774999737739563	0.0494999997317791	0.050999999046325684	0.9917500019073486	0.7292497754096985	0.0	244.0	371.0	0.0	0.0	0.0	0.0	0.0	0.0	null	null	null	null	null	null	null	null	331.0	331.0	334.0	335.0	333.0	331.0	334.0	333.0	331.0	335.0	333.0	
Sat Jun 03 14:49:00 UTC 2017	1.0	1.047281664E9	2363.29541015625	0.0	2.5731072E7	0.0	2.0	8.14718976E8	54.61054992675781	0.0	0.0	1.061269504E9	1.050107904E9	0.0	null	0.07575000077486038	0.05375000089406967	0.042750000953674316	0.9917500019073486	0.7291245460510254	0.0	244.0	371.0	0.0	0.0	0.0	0.0	0.0	0.0	null	null	null	null	null	null	null	null	336.0	334.0	331.0	332.0	335.0	334.0	333.0	334.0	334.0	333.0	335.0	
Sat Jun 03 14:48:00 UTC 2017	0.0	1.047281664E9	2454.647705078125	0.0	2.5731072E7	0.0	3.0	8.14718976E8	54.61054992675781	0.0	0.0	1.062281216E9	1.050107904E9	0.0	null	0.07074999809265137	0.04874999821186066	0.05050000175833702	0.9884999990463257	0.7313374876976013	0.0	244.0	371.0	0.0	0.0	0.0	0.0	0.0	0.0	null	null	null	null	null	null	null	null	335.0	329.0	333.0	332.0	331.0	335.0	333.0	332.0	336.0	330.0	329.0	
Sat Jun 03 14:47:00 UTC 2017	1.0	1.048293376E9	2454.647705078125	0.0	2.5731072E7	0.0	2.0	8.14718976E8	54.61054992675781	1.0	1.0	1.061269504E9	1.050107904E9	0.0	null	0.0767500028014183	0.05874999985098839	0.045249998569488525	0.9887499809265137	0.7291597723960876	0.0	244.0	371.0	0.0	0.0	0.0	0.0	0.0	0.0	null	null	null	null	null	null	null	null	331.0	336.0	329.0	335.0	331.0	329.0	333.0	329.0	329.0	330.0	336.0	
Sat Jun 03 14:46:00 UTC 2017	1.0	1.048293376E9	3523.2177734375	0.0	2.5731072E7	0.0	3.0	8.14964736E8	47.52797317504883	0.0	0.0	1.062281216E9	1.050107904E9	0.0	null	0.0767500028014183	0.05025000125169754	0.0494999997317791	0.9915000200271606	0.7300457954406738	0.0	244.0	371.0	0.0	0.0	0.0	0.0	0.0	0.0	null	null	null	null	null	null	null	null	333.0	330.0	334.0	332.0	336.0	333.0	331.0	332.0	335.0	333.0	331.0	
Sat Jun 03 14:45:00 UTC 2017	1.0	1.048293376E9	2483.98681640625	0.0	2.5731072E7	0.0	2.0	8.14596096E8	47.52797317504883	0.0	0.0	1.061269504E9	1.050107904E9	0.0	null	0.07575000077486038	0.05400000140070915	0.04625000059604645	0.9912499785423279	0.7300291657447815	0.0	244.0	371.0	0.0	0.0	0.0	0.0	0.0	0.0	null	null	null	null	null	null	null	null	334.0	337.0	335.0	336.0	333.0	335.0	335.0	333.0	336.0	337.0	332.0	
Sat Jun 03 14:44:00 UTC 2017	1.0	1.048293376E9	2749.432861328125	0.0	2.5731072E7	0.0	2.0	8.14505984E8	34.96455383300781	0.0	0.0	1.061269504E9	1.050107904E9	0.0	0.0	0.07400000095367432	0.042249999940395355	0.052000001072883606	0.9909999966621399	0.7305434346199036	0.0	244.0	371.0	0.0	0.0	0.0	0.0	0.0	0.0	null	null	null	null	null	null	null	null	334.0	331.0	332.0	333.0	332.0	336.0	337.0	331.0	332.0	331.0	333.0	
Sat Jun 03 14:43:00 UTC 2017	1.0	1.048293376E9	2515.25439453125	0.0	2.5731072E7	0.0	2.0	8.14505984E8	44.14848709106445	0.0	0.0	1.062281216E9	1.050107904E9	0.0	0.0	0.07074999809265137	0.054749999195337296	0.04650000110268593	0.9917500019073486	0.732282280921936	0.0	244.0	371.0	0.0	0.0	0.0	0.0	0.0	0.0	null	null	null	null	null	null	null	null	332.0	335.0	334.0	335.0	335.0	332.0	333.0	335.0	334.0	338.0	337.0	
Sat Jun 03 14:42:00 UTC 2017	0.0	1.048293376E9	2611.603271484375	0.0	2.5731072E7	0.0	2.0	8.14505984E8	44.14848709106445	0.0	0.0	1.061269504E9	1.050107904E9	0.0	0.0	0.08124999701976776	0.04324999824166298	0.04600000008940697	0.9915000200271606	0.7322176694869995	0.0	244.0	371.0	0.0	0.0	0.0	0.0	0.0	0.0	null	null	null	null	null	null	null	null	335.0	331.0	335.0	332.0	334.0	335.0	331.0	336.0	337.0	331.0	335.0	
Sat Jun 03 14:41:00 UTC 2017	1.0	1.048293376E9	2316.59619140625	0.0	2.5731072E7	0.0	2.0	8.14751744E8	61.17387390136719	0.0	0.0	1.062281216E9	1.050107904E9	0.0	0.0	0.10225000232458115	0.05324999988079071	0.04699999839067459	0.9917500019073486	0.7322147488594055	0.0	244.0	371.0	0.0	0.0	0.0	0.0	0.0	0.0	null	null	null	null	null	null	null	null	332.0	337.0	335.0	332.0	336.0	333.0	333.0	332.0	335.0	336.0	331.0	
Sat Jun 03 14:40:00 UTC 2017	1.0	1.047281664E9	2316.59619140625	0.0	2.5731072E7	0.0	6.0	8.14383104E8	61.17387390136719	0.0	0.0	1.062281216E9	1.050107904E9	0.0	0.0	0.06825000047683716	0.0560000017285347	0.04899999871850014	0.9917500019073486	0.7323899269104004	0.0	244.0	371.0	0.0	0.0	0.0	0.0	0.0	0.0	null	null	null	null	null	null	null	null	336.0	333.0	335.0	337.0	332.0	336.0	335.0	334.0	334.0	334.0	335.0	
Sat Jun 03 14:39:00 UTC 2017	0.0	1.048293376E9	2316.59619140625	0.0	2.5731072E7	0.0	2.0	8.14292992E8	41.9398193359375	0.0	0.0	1.061269504E9	1.050107904E9	0.0	0.0	0.0754999965429306	0.0507499985396862	0.05025000125169754	0.9912499785423279	0.7317768931388855	0.0	244.0	371.0	0.0	0.0	0.0	0.0	0.0	0.0	null	null	null	null	null	null	null	null	330.0	334.0	335.0	332.0	337.0	337.0	333.0	338.0	331.0	333.0	334.0	
Sat Jun 03 14:38:00 UTC 2017	1.0	1.048293376E9	3057.954833984375	0.0	2.5731072E7	0.0	2.0	8.14292992E8	41.9398193359375	0.0	0.0	1.061269504E9	1.050107904E9	0.0	0.0	0.06949999928474426	0.045499999076128006	0.04399999976158142	0.9917500019073486	0.7319916486740112	0.0	244.0	371.0	0.0	0.0	0.0	0.0	0.0	0.0	null	null	null	null	null	null	null	null	335.0	334.0	332.0	335.0	332.0	334.0	336.0	333.0	335.0	333.0	332.0	
Sat Jun 03 14:37:00 UTC 2017	0.0	1.048293376E9	2379.180908203125	0.0	2.5731072E7	0.0	2.0	8.14292992E8	48.50628662109375	0.0	0.0	1.062281216E9	1.050107904E9	0.0	0.0	0.07724999636411667	0.051750000566244125	0.05000000074505806	0.9915000200271606	0.7300262451171875	0.0	244.0	371.0	0.0	0.0	0.0	0.0	0.0	0.0	null	null	null	null	null	null	null	null	336.0	330.0	333.0	330.0	332.0	333.0	333.0	331.0	335.0	331.0	337.0	
Sat Jun 03 14:36:00 UTC 2017	0.0	1.047281664E9	2379.180908203125	0.0	2.5731072E7	0.0	4.0	8.14542848E8	48.50628662109375	0.0	0.0	1.062281216E9	1.050107904E9	0.0	null	0.0754999965429306	0.048250000923871994	0.04349999874830246	0.9917500019073486	0.73000568151474	0.0	244.0	371.0	0.0	0.0	0.0	0.0	0.0	0.0	null	null	null	null	null	null	null	null	331.0	334.0	333.0	333.0	333.0	337.0	336.0	334.0	332.0	333.0	330.0	
Sat Jun 03 14:35:00 UTC 2017	0.0	1.047281664E9	3027.720458984375	0.0	2.5731072E7	0.0	2.0	8.14174208E8	44.95455551147461	0.0	0.0	1.061269504E9	1.050107904E9	0.0	null	0.0754999965429306	0.052000001072883606	0.050999999046325684	0.9912499785423279	0.7300013303756714	0.0	244.0	371.0	0.0	0.0	0.0	0.0	0.0	0.0	null	null	null	null	null	null	null	null	334.0	335.0	332.0	336.0	336.0	332.0	331.0	335.0	332.0	338.0	333.0	
Sat Jun 03 14:34:00 UTC 2017	0.0	1.048293376E9	3027.720458984375	0.0	2.5731072E7	0.0	2.0	8.14084096E8	44.95455551147461	0.0	0.0	1.061269504E9	1.050107904E9	0.0	null	0.06975000351667404	0.05674999952316284	0.04625000059604645	0.9887499809265137	0.7322744727134705	0.0	244.0	371.0	0.0	0.0	0.0	0.0	0.0	0.0	null	null	null	null	null	null	null	null	333.0	331.0	335.0	329.0	331.0	331.0	332.0	331.0	335.0	332.0	335.0	
Sat Jun 03 14:33:00 UTC 2017	0.0	1.047281664E9	3027.720458984375	0.0	2.5731072E7	0.0	2.0	8.14084096E8	44.95455551147461	0.0	0.0	1.061269504E9	1.050107904E9	0.0	0.0	0.07975000143051147	0.05324999988079071	0.050999999046325684	0.9827499985694885	0.729962170124054	0.0	244.0	371.0	0.0	0.0	0.0	0.0	0.0	0.0	null	null	null	null	null	null	null	null	334.0	333.0	334.0	333.0	332.0	332.0	335.0	330.0	331.0	327.0	330.0	
Sat Jun 03 14:32:00 UTC 2017	1.0	1.048293376E9	3027.720458984375	0.0	2.5731072E7	0.0	2.0	8.14084096E8	44.95455551147461	0.0	0.0	1.061269504E9	1.050107904E9	0.0	0.0	0.0794999971985817	0.04399999976158142	0.04724999889731407	0.9907500147819519	0.7299582362174988	0.0	244.0	371.0	0.0	0.0	0.0	0.0	0.0	0.0	null	null	null	null	null	null	null	null	331.0	332.0	327.0	330.0	332.0	334.0	333.0	332.0	331.0	334.0	330.0	
Sat Jun 03 14:31:00 UTC 2017	1.0	1.047281664E9	3027.720458984375	0.0	2.5731072E7	0.0	2.0	8.14329856E8	74.85420989990234	0.0	0.0	1.061269504E9	1.050107904E9	0.0	0.0	0.09525000303983688	0.05550000071525574	0.0442500002682209	0.9865000247955322	0.7298882603645325	0.0	244.0	371.0	0.0	0.0	0.0	0.0	0.0	0.0	null	null	null	null	null	null	null	null	330.0	332.0	335.0	333.0	331.0	332.0	328.0	335.0	334.0	331.0	332.0	
Sat Jun 03 14:30:00 UTC 2017	0.0	1.048293376E9	3027.720458984375	0.0	2.5731072E7	0.0	2.0	8.1395712E8	74.85420989990234	0.0	0.0	1.062281216E9	1.050107904E9	0.0	0.0	0.06324999779462814	0.04975000023841858	0.048250000923871994	0.9909999966621399	0.7298696637153625	0.0	244.0	371.0	0.0	0.0	0.0	0.0	0.0	0.0	null	null	null	null	null	null	null	null	334.0	332.0	332.0	334.0	333.0	336.0	333.0	332.0	334.0	333.0	333.0	
Sat Jun 03 14:29:00 UTC 2017	0.0	1.048293376E9	2461.27001953125	0.0	2.5731072E7	0.0	2.0	8.13867008E8	54.84387969970703	0.0	0.0	1.061269504E9	1.050107904E9	0.0	0.0	0.07774999737739563	0.051249999552965164	0.045499999076128006	0.9865000247955322	0.7298677563667297	0.0	244.0	371.0	0.0	0.0	0.0	0.0	0.0	0.0	null	null	null	null	null	null	null	null	333.0	332.0	330.0	332.0	331.0	330.0	330.0	332.0	330.0	332.0	332.0	
Sat Jun 03 14:28:00 UTC 2017	2.0	1.048293376E9	2887.9892578125	0.0	2.5731072E7	0.0	2.0	8.13867008E8	54.84387969970703	0.0	0.0	1.061269504E9	1.050107904E9	0.0	0.0	0.08174999803304672	0.04899999871850014	0.04800000041723251	0.9897500276565552	0.73213791847229	0.0	244.0	371.0	0.0	0.0	0.0	0.0	0.0	0.0	null	null	null	null	null	null	null	null	333.0	335.0	337.0	335.0	337.0	332.0	334.0	331.0	333.0	334.0	334.0	
Sat Jun 03 14:27:00 UTC 2017	0.0	1.047281664E9	2887.9892578125	0.0	2.5731072E7	0.0	2.0	8.13867008E8	52.54866409301758	0.0	0.0	1.061269504E9	1.050107904E9	0.0	0.0	0.07175000011920929	0.05225000157952309	0.04724999889731407	0.9907500147819519	0.7298452258110046	0.0	244.0	371.0	0.0	0.0	0.0	0.0	0.0	0.0	null	null	null	null	null	null	null	null	333.0	331.0	327.0	328.0	330.0	332.0	330.0	335.0	332.0	332.0	331.0	
Sat Jun 03 14:26:00 UTC 2017	0.0	1.048293376E9	2887.9892578125	0.0	2.5731072E7	0.0	4.0	8.14112768E8	52.54866409301758	0.0	0.0	1.062281216E9	1.050107904E9	0.0	0.0	0.06849999725818634	0.050999999046325684	0.04899999871850014	0.9915000200271606	0.7298256754875183	0.0	244.0	371.0	0.0	0.0	0.0	0.0	0.0	0.0	null	null	null	null	null	null	null	null	328.0	335.0	336.0	335.0	335.0	332.0	332.0	330.0	334.0	334.0	331.0	
Sat Jun 03 14:25:00 UTC 2017	1.0	1.047281664E9	2887.9892578125	0.0	2.5731072E7	0.0	3.0	8.13744128E8	52.54866409301758	0.0	0.0	1.061269504E9	1.050107904E9	0.0	0.0	0.0767500028014183	0.04800000041723251	0.05025000125169754	0.9919999837875366	0.7298275828361511	0.0	244.0	371.0	0.0	0.0	0.0	0.0	0.0	0.0	null	null	null	null	null	null	null	null	335.0	332.0	332.0	334.0	333.0	337.0	336.0	338.0	334.0	335.0	337.0	
Sat Jun 03 14:24:00 UTC 2017	0.0	1.047281664E9	2340.81591796875	0.0	2.5731072E7	0.0	2.0	8.13654016E8	43.06578063964844	0.0	0.0	1.061269504E9	1.050107904E9	0.0	0.0	0.07524999976158142	0.054249998182058334	0.04724999889731407	0.9917500019073486	0.7298192977905273	0.0	244.0	371.0	0.0	0.0	0.0	0.0	0.0	0.0	null	null	null	null	null	null	null	null	334.0	336.0	333.0	334.0	337.0	334.0	335.0	333.0	333.0	335.0	331.0	
Sat Jun 03 14:23:00 UTC 2017	0.0	1.048293376E9	2340.81591796875	0.0	2.5731072E7	0.0	2.0	8.13654016E8	43.06578063964844	0.0	1.0	1.061269504E9	1.050107904E9	0.0	0.0	0.07325000315904617	0.05400000140070915	0.04724999889731407	0.9919999837875366	0.7298139333724976	0.0	244.0	371.0	0.0	0.0	0.0	0.0	0.0	0.0	null	null	null	null	null	null	null	null	331.0	334.0	335.0	336.0	331.0	333.0	335.0	335.0	337.0	333.0	337.0	
Sat Jun 03 14:22:00 UTC 2017	0.0	1.047281664E9	2340.81591796875	0.0	2.5731072E7	0.0	2.0	8.13654016E8	43.06578063964844	0.0	0.0	1.061269504E9	1.050107904E9	0.0	null	0.07575000077486038	0.04574999958276749	0.0442500002682209	0.9917500019073486	0.7298007011413574	0.0	244.0	371.0	0.0	0.0	0.0	0.0	0.0	0.0	null	null	null	null	null	null	null	null	336.0	334.0	333.0	334.0	334.0	334.0	337.0	331.0	332.0	336.0	333.0	
Sat Jun 03 14:21:00 UTC 2017	0.0	1.047281664E9	2938.585693359375	0.0	2.5731072E7	0.0	3.0	8.13903872E8	43.06578063964844	0.0	0.0	1.061269504E9	1.050107904E9	0.0	null	0.09324999898672104	0.05249999836087227	0.04625000059604645	0.9912499785423279	0.7297801375389099	0.0	244.0	371.0	0.0	0.0	0.0	0.0	0.0	0.0	null	null	null	null	null	null	null	null	333.0	332.0	336.0	336.0	334.0	334.0	335.0	335.0	334.0	332.0	335.0	
Sat Jun 03 14:20:00 UTC 2017	1.0	1.048293376E9	2938.585693359375	0.0	2.5731072E7	0.0	5.0	8.13535232E8	43.06578063964844	0.0	0.0	1.061269504E9	1.050107904E9	0.0	0.0	0.0767500028014183	0.05324999988079071	0.05350000038743019	0.9917500019073486	0.7297914028167725	0.0	244.0	371.0	0.0	0.0	0.0	0.0	0.0	0.0	null	null	null	null	null	null	null	null	335.0	334.0	330.0	331.0	331.0	332.0	333.0	333.0	333.0	332.0	332.0	
Sat Jun 03 14:19:00 UTC 2017	1.0	1.048293376E9	2672.9619140625	0.0	2.5731072E7	0.0	5.0	8.1344512E8	43.06578063964844	0.0	0.0	1.061269504E9	1.050107904E9	0.0	null	0.07925000041723251	0.05274999886751175	0.05025000125169754	0.9915000200271606	0.7297732830047607	0.0	244.0	371.0	0.0	0.0	0.0	0.0	0.0	0.0	null	null	null	null	null	null	null	null	330.0	334.0	335.0	335.0	332.0	332.0	333.0	334.0	334.0	335.0	339.0	
Sat Jun 03 14:18:00 UTC 2017	1.0	1.047281664E9	2672.9619140625	0.0	2.5731072E7	0.0	2.0	8.1344512E8	44.65406799316406	0.0	0.0	1.062281216E9	1.050107904E9	0.0	null	0.07249999791383743	0.0507499985396862	0.04500000178813934	0.9915000200271606	0.7297723293304443	0.0	244.0	371.0	0.0	0.0	0.0	0.0	0.0	0.0	null	null	null	null	null	null	null	null	335.0	333.0	335.0	333.0	334.0	334.0	333.0	332.0	333.0	333.0	330.0	
Sat Jun 03 14:17:00 UTC 2017	1.0	1.047281664E9	3241.746826171875	0.0	2.5731072E7	0.0	2.0	8.1344512E8	41.219482421875	0.0	1.0	1.062281216E9	1.050107904E9	0.0	0.0	0.07199999690055847	0.051750000566244125	0.04899999871850014	0.9915000200271606	0.7297552227973938	0.0	244.0	371.0	0.0	0.0	0.0	0.0	0.0	0.0	null	null	null	null	null	null	null	null	332.0	334.0	332.0	334.0	332.0	335.0	335.0	334.0	332.0	333.0	337.0	
Sat Jun 03 14:16:00 UTC 2017	0.0	1.047281664E9	2414.82177734375	0.0	2.5731072E7	0.0	2.0	8.1332224E8	43.613914489746094	0.0	0.0	1.061269504E9	1.050107904E9	0.0	0.0	0.07249999791383743	0.05299999937415123	0.04699999839067459	0.9912499785423279	0.7320219874382019	0.0	244.0	371.0	0.0	0.0	0.0	0.0	0.0	0.0	null	null	null	null	null	null	null	null	333.0	334.0	331.0	333.0	332.0	332.0	333.0	334.0	332.0	333.0	333.0	
Sat Jun 03 14:15:00 UTC 2017	1.0	1.047281664E9	2446.755859375	0.0	2.5731072E7	0.0	2.0	8.1332224E8	43.613914489746094	0.0	0.0	1.062281216E9	1.050107904E9	0.0	0.0	0.07349999994039536	0.041999999433755875	0.045249998569488525	0.9915000200271606	0.729720950126648	0.0	244.0	371.0	0.0	0.0	0.0	0.0	0.0	0.0	null	null	null	null	null	null	null	null	331.0	333.0	335.0	336.0	334.0	331.0	333.0	330.0	332.0	331.0	330.0	
Sat Jun 03 14:14:00 UTC 2017	1.0	1.047281664E9	2949.306396484375	0.0	2.5731072E7	0.0	2.0	8.13232128E8	43.613914489746094	0.0	0.0	1.061269504E9	1.050107904E9	0.0	0.0	0.0807500034570694	0.057750001549720764	0.04475000128149986	0.9919999837875366	0.7303271293640137	0.0	244.0	371.0	0.0	0.0	0.0	0.0	0.0	0.0	null	null	null	null	null	null	null	null	338.0	334.0	334.0	335.0	338.0	337.0	334.0	335.0	336.0	334.0	336.0	
Sat Jun 03 14:13:00 UTC 2017	0.0	1.047281664E9	2486.526123046875	0.0	2.5731072E7	0.0	3.0	8.13232128E8	53.43470001220703	0.0	0.0	1.062281216E9	1.050107904E9	0.0	0.0	0.06875000149011612	0.04874999821186066	0.051249999552965164	0.9919999837875366	0.7296744585037231	0.0	244.0	371.0	0.0	0.0	0.0	0.0	0.0	0.0	null	null	null	null	null	null	null	null	331.0	334.0	336.0	332.0	334.0	331.0	334.0	335.0	332.0	334.0	334.0	
Sat Jun 03 14:12:00 UTC 2017	0.0	1.048293376E9	2486.526123046875	0.0	2.5731072E7	0.0	4.0	8.13232128E8	55.096168518066406	0.0	0.0	1.062281216E9	1.050107904E9	0.0	0.0	0.08425000309944153	0.04724999889731407	0.04650000110268593	0.9919999837875366	0.7296445965766907	0.0	244.0	371.0	0.0	0.0	0.0	0.0	0.0	0.0	null	null	null	null	null	null	null	null	339.0	336.0	334.0	335.0	333.0	337.0	333.0	334.0	337.0	333.0	334.0	
Sat Jun 03 14:11:00 UTC 2017	0.0	1.047281664E9	2486.526123046875	0.0	2.5731072E7	0.0	4.0	8.13477888E8	53.581260681152344	0.0	0.0	1.061269504E9	1.050107904E9	0.0	0.0	0.10374999791383743	0.05974999815225601	0.04650000110268593	0.9917500019073486	0.7319114208221436	0.0	244.0	371.0	0.0	0.0	0.0	0.0	0.0	0.0	null	null	null	null	null	null	null	null	332.0	335.0	331.0	337.0	333.0	334.0	330.0	332.0	334.0	334.0	332.0	
Sat Jun 03 14:10:00 UTC 2017	0.0	1.047281664E9	3049.240478515625	0.0	2.5731072E7	0.0	4.0	8.13355008E8	53.581260681152344	1.0	1.0	1.062281216E9	1.050107904E9	0.0	0.0	0.07275000214576721	0.051500000059604645	0.04800000041723251	0.9915000200271606	0.7296103835105896	0.0	244.0	371.0	0.0	0.0	0.0	0.0	0.0	0.0	null	null	null	null	null	null	null	null	334.0	332.0	334.0	336.0	334.0	334.0	337.0	335.0	332.0	334.0	340.0	
Sat Jun 03 14:09:00 UTC 2017	0.0	1.048293376E9	3049.240478515625	0.0	2.5731072E7	0.0	2.0	8.13051904E8	53.581260681152344	0.0	1.0	1.062281216E9	1.050107904E9	0.0	0.0	0.0729999989271164	0.04924999922513962	0.04800000041723251	0.9917500019073486	0.7296006083488464	0.0	244.0	371.0	0.0	0.0	0.0	0.0	0.0	0.0	null	null	null	null	null	null	null	null	338.0	340.0	338.0	333.0	331.0	332.0	329.0	333.0	333.0	330.0	336.0	
Sat Jun 03 14:08:00 UTC 2017	0.0	1.048293376E9	2618.61279296875	0.0	2.5731072E7	0.0	3.0	8.13051904E8	58.59046173095703	0.0	0.0	1.061269504E9	1.050107904E9	0.0	0.0	0.0729999989271164	0.05550000071525574	0.0494999997317791	0.9917500019073486	0.7295702695846558	0.0	244.0	371.0	0.0	0.0	0.0	0.0	0.0	0.0	null	null	null	null	null	null	null	null	335.0	331.0	330.0	334.0	337.0	338.0	338.0	332.0	333.0	337.0	332.0	
Sat Jun 03 14:07:00 UTC 2017	0.0	1.047281664E9	2618.61279296875	0.0	2.5731072E7	0.0	5.0	8.13051904E8	58.59046173095703	0.0	1.0	1.062281216E9	1.050107904E9	0.0	0.0	0.0702499970793724	0.04749999940395355	0.045249998569488525	0.9912499785423279	0.7294949293136597	0.0	244.0	371.0	0.0	0.0	0.0	0.0	0.0	0.0	null	null	null	null	null	null	null	null	332.0	331.0	338.0	332.0	332.0	336.0	330.0	335.0	334.0	333.0	333.0	
Sat Jun 03 14:06:00 UTC 2017	1.0	1.047281664E9	2498.765625	0.0	2.5731072E7	0.0	4.0	8.13297664E8	55.64000701904297	0.0	0.0	1.061269504E9	1.050107904E9	0.0	0.0	0.07275000214576721	0.054249998182058334	0.052000001072883606	0.9917500019073486	0.731743574142456	0.0	244.0	371.0	0.0	0.0	0.0	0.0	0.0	0.0	null	null	null	null	null	null	null	null	338.0	333.0	332.0	333.0	334.0	332.0	332.0	333.0	333.0	336.0	332.0	
Sat Jun 03 14:05:00 UTC 2017	0.0	1.048293376E9	2498.765625	0.0	2.5731072E7	0.0	4.0	8.12929024E8	55.64000701904297	0.0	0.0	1.062281216E9	1.050107904E9	0.0	0.0	0.08349999785423279	0.04924999922513962	0.041999999433755875	0.9919999837875366	0.729464590549469	0.0	244.0	371.0	0.0	0.0	0.0	0.0	0.0	0.0	null	null	null	null	null	null	null	null	332.0	338.0	337.0	334.0	339.0	332.0	337.0	337.0	339.0	334.0	332.0	
Sat Jun 03 14:04:00 UTC 2017	0.0	1.047281664E9	2498.765625	0.0	2.5731072E7	0.0	2.0	8.12838912E8	47.26417922973633	0.0	0.0	1.062281216E9	1.050107904E9	0.0	0.0	0.07225000113248825	0.04874999821186066	0.051249999552965164	0.9915000200271606	0.7294469475746155	0.0	244.0	371.0	0.0	0.0	0.0	0.0	0.0	0.0	null	null	null	null	null	null	null	null	337.0	332.0	333.0	330.0	334.0	336.0	336.0	332.0	333.0	332.0	331.0	
Sat Jun 03 14:03:00 UTC 2017	0.0	1.047281664E9	3116.017822265625	0.0	2.5731072E7	0.0	3.0	8.12838912E8	47.26417922973633	0.0	0.0	1.061269504E9	1.050107904E9	0.0	0.0	0.06800000369548798	0.05050000175833702	0.04899999871850014	0.9917500019073486	0.7294293642044067	0.0	244.0	371.0	0.0	0.0	0.0	0.0	0.0	0.0	null	null	null	null	null	null	null	null	334.0	334.0	332.0	339.0	332.0	334.0	335.0	335.0	333.0	333.0	333.0	
Sat Jun 03 14:02:00 UTC 2017	0.0	1.047281664E9	2845.45263671875	0.0	2.5731072E7	0.0	2.0	8.12838912E8	47.26417922973633	0.0	0.0	1.061269504E9	1.050107904E9	0.0	0.0	0.08174999803304672	0.050999999046325684	0.04800000041723251	0.9917500019073486	0.7294396162033081	0.0	244.0	371.0	0.0	0.0	0.0	0.0	0.0	0.0	null	null	null	null	null	null	null	null	333.0	333.0	337.0	331.0	336.0	331.0	335.0	337.0	338.0	335.0	335.0	
Sat Jun 03 14:01:00 UTC 2017	0.0	1.047281664E9	2366.06396484375	0.0	2.5731072E7	0.0	3.0	8.13088768E8	48.74448776245117	0.0	0.0	1.062281216E9	1.050107904E9	0.0	0.0	0.09624999761581421	0.05050000175833702	0.04324999824166298	0.9917500019073486	0.7294180989265442	0.0	244.0	371.0	0.0	0.0	0.0	0.0	0.0	0.0	null	null	null	null	null	null	null	null	334.0	335.0	333.0	335.0	334.0	334.0	331.0	334.0	334.0	335.0	333.0	
Sat Jun 03 14:00:00 UTC 2017	0.0	1.047281664E9	2546.26416015625	0.0	2.5731072E7	0.0	2.0	8.12720128E8	48.74448776245117	0.0	0.0	1.061269504E9	1.050107904E9	0.0	0.0	0.07750000059604645	0.051750000566244125	0.05050000175833702	0.9915000200271606	0.7294009923934937	0.0	244.0	371.0	0.0	0.0	0.0	0.0	0.0	0.0	null	null	null	null	null	null	null	null	331.0	334.0	336.0	331.0	329.0	331.0	338.0	331.0	334.0	333.0	332.0	
Sat Jun 03 13:59:00 UTC 2017	0.0	1.048293376E9	2546.26416015625	0.0	2.5731072E7	0.0	2.0	8.12630016E8	48.74448776245117	0.0	0.0	1.062281216E9	1.050107904E9	0.0	0.0	0.06975000351667404	0.05375000089406967	0.04650000110268593	0.9917500019073486	0.7316413521766663	0.0	244.0	371.0	0.0	0.0	0.0	0.0	0.0	0.0	null	null	null	null	null	null	null	null	338.0	333.0	335.0	334.0	332.0	335.0	331.0	334.0	334.0	334.0	331.0	
Sat Jun 03 13:58:00 UTC 2017	0.0	1.048293376E9	3158.389892578125	0.0	2.5731072E7	0.0	2.0	8.12638208E8	48.74448776245117	0.0	0.0	1.062281216E9	1.050107904E9	0.0	0.0	0.06849999725818634	0.04450000077486038	0.04800000041723251	0.9915000200271606	0.7293916940689087	0.0	244.0	371.0	0.0	0.0	0.0	0.0	0.0	0.0	null	null	null	null	null	null	null	null	333.0	337.0	338.0	335.0	335.0	339.0	335.0	334.0	334.0	334.0	334.0	
Sat Jun 03 13:57:00 UTC 2017	0.0	1.048293376E9	2518.038330078125	0.0	2.5731072E7	0.0	2.0	8.12638208E8	48.74448776245117	0.0	0.0	1.061269504E9	1.050107904E9	0.0	0.0	0.08174999803304672	0.054249998182058334	0.04050000011920929	0.9915000200271606	0.7316604256629944	0.0	244.0	371.0	0.0	0.0	0.0	0.0	0.0	0.0	null	null	null	null	null	null	null	null	334.0	331.0	333.0	330.0	336.0	335.0	332.0	337.0	334.0	332.0	331.0	
Sat Jun 03 13:56:00 UTC 2017	1.0	1.048293376E9	2624.732421875	0.0	2.5731072E7	0.0	3.0	8.12883968E8	48.74448776245117	0.0	0.0	1.061269504E9	1.050107904E9	0.0	0.0	0.06800000369548798	0.04774999991059303	0.04975000023841858	0.9912499785423279	0.7294464707374573	0.0	244.0	371.0	0.0	0.0	0.0	0.0	0.0	0.0	null	null	null	null	null	null	null	null	331.0	336.0	332.0	332.0	334.0	330.0	336.0	329.0	333.0	334.0	335.0	
Sat Jun 03 13:55:00 UTC 2017	1.0	1.047281664E9	2624.732421875	0.0	2.5731072E7	0.0	4.0	8.12515328E8	48.74448776245117	0.0	0.0	1.062281216E9	1.050107904E9	0.0	0.0	0.07349999994039536	0.051500000059604645	0.04749999940395355	0.9915000200271606	0.7312758564949036	0.0	244.0	371.0	0.0	0.0	0.0	0.0	0.0	0.0	null	null	null	null	null	null	null	null	336.0	331.0	334.0	336.0	332.0	335.0	337.0	335.0	332.0	336.0	333.0	
Sat Jun 03 13:54:00 UTC 2017	0.0	1.048293376E9	2624.732421875	0.0	2.5731072E7	0.0	3.0	8.12425216E8	48.74448776245117	0.0	0.0	1.062281216E9	1.050107904E9	0.0	0.0	0.08275000005960464	0.045499999076128006	0.04625000059604645	0.9917500019073486	0.7315909266471863	0.0	244.0	371.0	0.0	0.0	0.0	0.0	0.0	0.0	null	null	null	null	null	null	null	null	333.0	336.0	338.0	333.0	333.0	333.0	336.0	333.0	335.0	334.0	335.0	
Sat Jun 03 13:53:00 UTC 2017	0.0	1.048293376E9	2602.583984375	0.0	2.5731072E7	0.0	2.0	8.12425216E8	48.74448776245117	0.0	0.0	1.061269504E9	1.050107904E9	0.0	0.0	0.06650000065565109	0.05575000122189522	0.04924999922513962	0.9919999837875366	0.7293045520782471	0.0	244.0	371.0	0.0	0.0	0.0	0.0	0.0	0.0	null	null	null	null	null	null	null	null	333.0	332.0	335.0	336.0	333.0	335.0	334.0	335.0	333.0	334.0	333.0	
Sat Jun 03 13:52:00 UTC 2017	0.0	1.047281664E9	2602.583984375	0.0	2.5731072E7	0.0	2.0	8.12425216E8	48.74448776245117	0.0	0.0	1.062281216E9	1.050107904E9	0.0	0.0	0.07625000178813934	0.048250000923871994	0.04574999958276749	0.9915000200271606	0.7292840480804443	0.0	244.0	371.0	0.0	0.0	0.0	0.0	0.0	0.0	null	null	null	null	null	null	null	null	334.0	334.0	331.0	337.0	334.0	333.0	336.0	335.0	334.0	335.0	337.0	
Sat Jun 03 13:51:00 UTC 2017	0.0	1.047281664E9	3300.98681640625	0.0	2.5731072E7	0.0	3.0	8.12670976E8	37.34379959106445	0.0	0.0	1.062281216E9	1.050107904E9	0.0	0.0	0.11100000143051147	0.05274999886751175	0.04899999871850014	0.9917500019073486	0.7315170764923096	0.0	244.0	371.0	0.0	0.0	0.0	0.0	0.0	0.0	null	null	null	null	null	null	null	null	333.0	333.0	335.0	333.0	336.0	334.0	332.0	333.0	334.0	333.0	336.0	
Sat Jun 03 13:50:00 UTC 2017	0.0	1.048293376E9	3300.98681640625	0.0	2.5731072E7	0.0	3.0	8.12302336E8	59.84919738769531	0.0	0.0	1.061269504E9	1.050107904E9	0.0	0.0	0.0767500028014183	0.045249998569488525	0.0494999997317791	0.9919999837875366	0.7314783930778503	0.0	244.0	371.0	0.0	0.0	0.0	0.0	0.0	0.0	null	null	null	null	null	null	null	null	335.0	333.0	336.0	338.0	334.0	334.0	334.0	336.0	338.0	334.0	331.0	
Sat Jun 03 13:49:00 UTC 2017	0.0	1.047281664E9	3300.98681640625	0.0	2.5731072E7	0.0	2.0	8.12212224E8	41.844242095947266	0.0	0.0	1.062281216E9	1.050107904E9	0.0	0.0	0.07474999874830246	0.051249999552965164	0.04500000178813934	0.9912499785423279	0.7314769625663757	0.0	244.0	371.0	0.0	0.0	0.0	0.0	0.0	0.0	null	null	null	null	null	null	null	null	334.0	335.0	335.0	333.0	332.0	335.0	335.0	335.0	330.0	334.0	335.0	
Sat Jun 03 13:48:00 UTC 2017	1.0	1.048293376E9	3300.98681640625	0.0	2.5731072E7	0.0	2.0	8.12212224E8	46.571876525878906	0.0	0.0	1.061269504E9	1.050107904E9	0.0	0.0	0.07275000214576721	0.04899999871850014	0.04924999922513962	0.9915000200271606	0.7291705012321472	0.0	244.0	371.0	0.0	0.0	0.0	0.0	0.0	0.0	null	null	null	null	null	null	null	null	334.0	332.0	332.0	332.0	334.0	336.0	336.0	331.0	334.0	336.0	331.0	
Sat Jun 03 13:47:00 UTC 2017	0.0	1.048293376E9	3317.360595703125	0.0	2.5731072E7	0.0	3.0	8.12212224E8	46.571876525878906	0.0	0.0	1.061269504E9	1.050107904E9	0.0	null	0.07750000059604645	0.054749999195337296	0.04374999925494194	0.9915000200271606	0.7314544320106506	0.0	244.0	371.0	0.0	0.0	0.0	0.0	0.0	0.0	null	null	null	null	null	null	null	null	334.0	334.0	331.0	335.0	334.0	332.0	333.0	333.0	335.0	333.0	333.0	
Sat Jun 03 13:46:00 UTC 2017	0.0	1.047281664E9	3317.360595703125	0.0	2.5731072E7	0.0	3.0	8.12404736E8	44.142730712890625	0.0	0.0	1.062281216E9	1.050107904E9	0.0	null	0.07374999672174454	0.05324999988079071	0.04500000178813934	0.9909999966621399	0.7291377186775208	0.0	244.0	371.0	0.0	0.0	0.0	0.0	0.0	0.0	null	null	null	null	null	null	null	null	330.0	333.0	335.0	331.0	331.0	335.0	331.0	335.0	332.0	331.0	334.0	
Sat Jun 03 13:45:00 UTC 2017	0.0	1.048293376E9	3317.360595703125	0.0	2.5731072E7	0.0	2.0	8.1209344E8	44.142730712890625	0.0	0.0	1.062281216E9	1.050107904E9	0.0	null	0.08150000125169754	0.0442500002682209	0.05225000157952309	0.9917500019073486	0.7291768789291382	0.0	244.0	371.0	0.0	0.0	0.0	0.0	0.0	0.0	null	null	null	null	null	null	null	null	337.0	332.0	334.0	335.0	335.0	333.0	333.0	334.0	332.0	335.0	333.0	
Sat Jun 03 13:44:00 UTC 2017	0.0	1.047281664E9	3317.360595703125	0.0	2.5731072E7	0.0	2.0	8.12003328E8	44.142730712890625	0.0	0.0	1.062281216E9	1.050107904E9	0.0	0.0	0.06975000351667404	0.051500000059604645	0.04324999824166298	0.9915000200271606	0.7290907502174377	0.0	244.0	371.0	0.0	0.0	0.0	0.0	0.0	0.0	null	null	null	null	null	null	null	null	330.0	337.0	336.0	331.0	330.0	334.0	335.0	331.0	334.0	334.0	334.0	
Sat Jun 03 13:43:00 UTC 2017	0.0	1.048293376E9	3317.360595703125	0.0	2.5731072E7	0.0	2.0	8.12003328E8	62.728878021240234	0.0	0.0	1.062281216E9	1.050107904E9	0.0	0.0	0.0742499977350235	0.051249999552965164	0.048500001430511475	0.9907500147819519	0.7290721535682678	0.0	244.0	371.0	0.0	0.0	0.0	0.0	0.0	0.0	null	null	null	null	null	null	null	null	333.0	331.0	333.0	335.0	332.0	336.0	333.0	331.0	332.0	332.0	334.0	
Sat Jun 03 13:42:00 UTC 2017	1.0	1.047281664E9	3317.360595703125	0.0	2.5731072E7	0.0	4.0	8.12003328E8	31.451948165893555	0.0	0.0	1.062281216E9	1.050107904E9	0.0	0.0	0.0832500010728836	0.05050000175833702	0.04800000041723251	0.9904999732971191	0.7290467619895935	0.0	244.0	371.0	0.0	0.0	0.0	0.0	0.0	0.0	null	null	null	null	null	null	null	null	336.0	334.0	333.0	333.0	333.0	331.0	335.0	335.0	334.0	334.0	333.0	
Sat Jun 03 13:41:00 UTC 2017	0.0	1.047281664E9	2406.416015625	0.0	2.5731072E7	0.0	2.0	8.1205248E8	40.196319580078125	0.0	0.0	1.061269504E9	1.050107904E9	0.0	0.0	0.09125000238418579	0.05249999836087227	0.04774999991059303	0.9887499809265137	0.7290428280830383	0.0	244.0	371.0	0.0	0.0	0.0	0.0	0.0	0.0	null	null	null	null	null	null	null	null	331.0	331.0	333.0	328.0	332.0	335.0	333.0	334.0	333.0	331.0	328.0	
Sat Jun 03 13:40:00 UTC 2017	0.0	1.047281664E9	2783.9462890625	0.0	2.5731072E7	0.0	2.0	8.1205248E8	51.14371109008789	0.0	0.0	1.061269504E9	1.050107904E9	0.0	null	0.07750000059604645	0.04924999922513962	0.04924999922513962	0.9909999966621399	0.7297013998031616	0.0	244.0	371.0	0.0	0.0	0.0	0.0	0.0	0.0	null	null	null	null	null	null	null	null	331.0	333.0	336.0	336.0	331.0	330.0	333.0	329.0	332.0	335.0	334.0	
Sat Jun 03 13:39:00 UTC 2017	1.0	1.048293376E9	2783.9462890625	0.0	2.5731072E7	0.0	3.0	8.11962368E8	40.48955535888672	0.0	0.0	1.062281216E9	1.050107904E9	0.0	null	0.07500000298023224	0.048500001430511475	0.04749999940395355	0.9915000200271606	0.7290306091308594	0.0	244.0	371.0	0.0	0.0	0.0	0.0	0.0	0.0	null	null	null	null	null	null	null	null	334.0	335.0	331.0	330.0	333.0	335.0	333.0	336.0	336.0	333.0	333.0	
Sat Jun 03 13:38:00 UTC 2017	1.0	1.047281664E9	2783.9462890625	0.0	2.5731072E7	0.0	3.0	8.11962368E8	40.47801208496094	0.0	1.0	1.062281216E9	1.050107904E9	0.0	0.0	0.0767500028014183	0.05525000020861626	0.04399999976158142	0.9915000200271606	0.7290154099464417	0.0	244.0	371.0	0.0	0.0	0.0	0.0	0.0	0.0	null	null	null	null	null	null	null	null	332.0	336.0	336.0	334.0	332.0	335.0	334.0	331.0	331.0	331.0	331.0	
Sat Jun 03 13:37:00 UTC 2017	1.0	1.048293376E9	2783.9462890625	0.0	2.5731072E7	0.0	4.0	8.11962368E8	36.221736907958984	0.0	0.0	1.061269504E9	1.050107904E9	0.0	0.0	0.07699999958276749	0.04899999871850014	0.04774999991059303	0.9879999756813049	0.7290134429931641	0.0	244.0	371.0	0.0	0.0	0.0	0.0	0.0	0.0	null	null	null	null	null	null	null	null	330.0	331.0	329.0	331.0	331.0	331.0	331.0	332.0	333.0	332.0	332.0	
Sat Jun 03 13:36:00 UTC 2017	1.0	1.048293376E9	2772.337158203125	0.0	2.5731072E7	0.0	2.0	8.11962368E8	36.221736907958984	0.0	1.0	1.061269504E9	1.050107904E9	0.0	0.0	0.06449999660253525	0.05299999937415123	0.04874999821186066	0.9915000200271606	0.7289978265762329	0.0	244.0	371.0	0.0	0.0	0.0	0.0	0.0	0.0	null	null	null	null	null	null	null	null	334.0	333.0	334.0	334.0	333.0	333.0	332.0	333.0	332.0	334.0	332.0	
Sat Jun 03 13:35:00 UTC 2017	1.0	1.048293376E9	2462.954833984375	0.0	2.5731072E7	0.0	2.0	8.117248E8	36.221736907958984	0.0	0.0	1.062281216E9	1.050107904E9	0.0	0.0	0.08574999868869781	0.048250000923871994	0.04600000008940697	0.9917500019073486	0.7289978265762329	0.0	244.0	371.0	0.0	0.0	0.0	0.0	0.0	0.0	null	null	null	null	null	null	null	null	336.0	334.0	334.0	335.0	338.0	332.0	337.0	332.0	334.0	332.0	336.0	
Sat Jun 03 13:34:00 UTC 2017	0.0	1.047281664E9	2462.954833984375	0.0	2.5731072E7	0.0	2.0	8.11634688E8	47.58205795288086	0.0	0.0	1.062281216E9	1.050107904E9	0.0	0.0	0.07124999910593033	0.05350000038743019	0.04600000008940697	0.9917500019073486	0.7289777398109436	0.0	244.0	371.0	0.0	0.0	0.0	0.0	0.0	0.0	null	null	null	null	null	null	null	null	331.0	335.0	333.0	332.0	333.0	331.0	333.0	335.0	330.0	335.0	335.0	
Sat Jun 03 13:33:00 UTC 2017	1.0	1.047281664E9	3086.776611328125	0.0	2.5731072E7	0.0	2.0	8.11634688E8	47.58205795288086	0.0	0.0	1.061269504E9	1.050107904E9	0.0	0.0	0.07599999755620956	0.054249998182058334	0.051500000059604645	0.9915000200271606	0.7289606332778931	0.0	244.0	371.0	0.0	0.0	0.0	0.0	0.0	0.0	null	null	null	null	null	null	null	null	334.0	333.0	331.0	334.0	332.0	334.0	339.0	334.0	335.0	330.0	334.0	
Sat Jun 03 13:32:00 UTC 2017	0.0	1.048293376E9	3086.776611328125	0.0	2.5731072E7	0.0	2.0	8.11634688E8	32.974586486816406	1.0	1.0	1.061269504E9	1.050107904E9	0.0	null	0.07774999737739563	0.04975000023841858	0.04975000023841858	0.9917500019073486	0.7289566993713379	0.0	244.0	371.0	0.0	0.0	0.0	0.0	0.0	0.0	null	null	null	null	null	null	null	null	337.0	334.0	335.0	334.0	335.0	334.0	334.0	335.0	334.0	332.0	331.0	
Sat Jun 03 13:31:00 UTC 2017	0.0	1.048293376E9	2559.033935546875	0.0	2.5731072E7	0.0	2.0	8.11634688E8	48.44581985473633	0.0	0.0	1.062281216E9	1.050107904E9	0.0	null	0.0949999988079071	0.05025000125169754	0.04774999991059303	0.9917500019073486	0.7289243936538696	0.0	244.0	371.0	0.0	0.0	0.0	0.0	0.0	0.0	null	null	null	null	null	null	null	null	333.0	334.0	335.0	335.0	332.0	336.0	334.0	331.0	336.0	334.0	338.0	
Sat Jun 03 13:30:00 UTC 2017	0.0	1.048293376E9	2544.2568359375	0.0	2.5731072E7	0.0	2.0	8.11646976E8	50.021121978759766	0.0	0.0	1.061269504E9	1.050107904E9	0.0	null	0.07500000298023224	0.048500001430511475	0.04349999874830246	0.9917500019073486	0.7289224863052368	0.0	244.0	371.0	0.0	0.0	0.0	0.0	0.0	0.0	null	null	null	null	null	null	null	null	339.0	332.0	333.0	334.0	335.0	335.0	333.0	337.0	334.0	334.0	332.0	
Sat Jun 03 13:29:00 UTC 2017	0.0	1.048293376E9	2642.32373046875	0.0	2.5731072E7	0.0	4.0	8.11556864E8	50.021121978759766	0.0	0.0	1.061269504E9	1.050107904E9	0.0	0.0	0.07175000011920929	0.05249999836087227	0.04749999940395355	0.9915000200271606	0.7288999557495117	0.0	244.0	371.0	0.0	0.0	0.0	0.0	0.0	0.0	null	null	null	null	null	null	null	null	334.0	333.0	334.0	330.0	334.0	334.0	336.0	334.0	335.0	335.0	336.0	
Sat Jun 03 13:28:00 UTC 2017	0.0	1.048293376E9	3016.5810546875	0.0	2.5731072E7	0.0	4.0	8.11556864E8	52.997657775878906	0.0	0.0	1.061269504E9	1.050107904E9	0.0	0.0	0.07175000011920929	0.05550000071525574	0.04924999922513962	0.9917500019073486	0.7288838028907776	0.0	244.0	371.0	0.0	0.0	0.0	0.0	0.0	0.0	null	null	null	null	null	null	null	null	333.0	337.0	336.0	337.0	336.0	334.0	333.0	332.0	332.0	333.0	331.0	
Sat Jun 03 13:27:00 UTC 2017	0.0	1.048293376E9	2563.877197265625	0.0	2.5731072E7	0.0	3.0	8.11556864E8	52.997657775878906	0.0	0.0	1.062281216E9	1.050107904E9	0.0	0.0	0.07800000160932541	0.05050000175833702	0.04924999922513962	0.9915000200271606	0.728885293006897	0.0	244.0	371.0	0.0	0.0	0.0	0.0	0.0	0.0	null	null	null	null	null	null	null	null	334.0	334.0	333.0	335.0	334.0	333.0	335.0	338.0	334.0	335.0	337.0	
Sat Jun 03 13:26:00 UTC 2017	0.0	1.047281664E9	2563.877197265625	0.0	2.5731072E7	0.0	2.0	8.11556864E8	45.861778259277344	0.0	0.0	1.062281216E9	1.050107904E9	0.0	0.0	0.08349999785423279	0.0494999997317791	0.04574999958276749	0.9912499785423279	0.7288637757301331	0.0	244.0	371.0	0.0	0.0	0.0	0.0	0.0	0.0	null	null	null	null	null	null	null	null	333.0	332.0	333.0	333.0	330.0	334.0	331.0	332.0	334.0	335.0	332.0	
Sat Jun 03 13:25:00 UTC 2017	0.0	1.047281664E9	3219.246826171875	0.0	2.5731072E7	0.0	5.0	8.11433984E8	45.861778259277344	1.0	0.0	1.061269504E9	1.050107904E9	0.0	0.0	0.07050000131130219	0.04749999940395355	0.050999999046325684	0.9915000200271606	0.7310380935668945	0.0	244.0	371.0	0.0	0.0	0.0	0.0	0.0	0.0	null	null	null	null	null	null	null	null	329.0	335.0	334.0	334.0	333.0	334.0	334.0	334.0	334.0	334.0	330.0	
Sat Jun 03 13:24:00 UTC 2017	1.0	1.048293376E9	3219.246826171875	0.0	2.5731072E7	0.0	2.0	8.11343872E8	58.54878616333008	0.0	0.0	1.062281216E9	1.050107904E9	0.0	0.0	0.06575000286102295	0.057500001043081284	0.04574999958276749	0.9915000200271606	0.7287947535514832	0.0	244.0	371.0	0.0	0.0	0.0	0.0	0.0	0.0	null	null	null	null	null	null	null	null	338.0	334.0	333.0	334.0	336.0	334.0	334.0	332.0	332.0	333.0	337.0	
Sat Jun 03 13:23:00 UTC 2017	0.0	1.048293376E9	2435.52099609375	0.0	2.5731072E7	0.0	2.0	8.11343872E8	39.03941345214844	0.0	0.0	1.061269504E9	1.050107904E9	0.0	0.0	0.08250000327825546	0.0442500002682209	0.04625000059604645	0.9915000200271606	0.7287923097610474	0.0	244.0	371.0	0.0	0.0	0.0	0.0	0.0	0.0	null	null	null	null	null	null	null	null	330.0	334.0	333.0	332.0	334.0	332.0	330.0	338.0	334.0	333.0	338.0	
Sat Jun 03 13:22:00 UTC 2017	0.0	1.048293376E9	2539.11083984375	0.0	2.5731072E7	0.0	3.0	8.11343872E8	39.03941345214844	0.0	0.0	1.062281216E9	1.050107904E9	0.0	0.0	0.07225000113248825	0.054499998688697815	0.05000000074505806	0.9915000200271606	0.7287776470184326	0.0	244.0	371.0	0.0	0.0	0.0	0.0	0.0	0.0	null	null	null	null	null	null	null	null	334.0	334.0	332.0	337.0	331.0	331.0	337.0	333.0	330.0	336.0	332.0	
Sat Jun 03 13:21:00 UTC 2017	0.0	1.048293376E9	2960.09716796875	0.0	2.5731072E7	0.0	3.0	8.11343872E8	39.03941345214844	0.0	0.0	1.062281216E9	1.050107904E9	0.0	0.0	0.09549999982118607	0.05000000074505806	0.04874999821186066	0.9850000143051147	0.7310463786125183	0.0	244.0	371.0	0.0	0.0	0.0	0.0	0.0	0.0	null	null	null	null	null	null	null	null	331.0	330.0	330.0	329.0	330.0	333.0	329.0	333.0	332.0	330.0	332.0	
Sat Jun 03 13:20:00 UTC 2017	1.0	1.047281664E9	2960.09716796875	0.0	2.5731072E7	0.0	2.0	8.11225088E8	40.89124298095703	0.0	0.0	1.062281216E9	1.050107904E9	0.0	0.0	0.0820000022649765	0.050999999046325684	0.045249998569488525	0.9915000200271606	0.7287238240242004	0.0	244.0	371.0	0.0	0.0	0.0	0.0	0.0	0.0	null	null	null	null	null	null	null	null	334.0	331.0	337.0	333.0	336.0	335.0	333.0	331.0	334.0	332.0	334.0	
Sat Jun 03 13:19:00 UTC 2017	1.0	1.047281664E9	2783.169921875	0.0	2.5731072E7	0.0	3.0	8.11134976E8	28.51109504699707	0.0	0.0	1.061269504E9	1.050107904E9	0.0	0.0	0.06800000369548798	0.05000000074505806	0.05050000175833702	0.9917500019073486	0.7287017703056335	0.0	244.0	371.0	0.0	0.0	0.0	0.0	0.0	0.0	null	null	null	null	null	null	null	null	336.0	334.0	334.0	333.0	332.0	331.0	335.0	335.0	334.0	337.0	333.0	
Sat Jun 03 13:18:00 UTC 2017	0.0	1.048293376E9	2783.169921875	0.0	2.5731072E7	0.0	2.0	8.11134976E8	49.29534912109375	0.0	0.0	1.062281216E9	1.050107904E9	0.0	0.0	0.08349999785423279	0.054749999195337296	0.04699999839067459	0.9917500019073486	0.7309774160385132	0.0	244.0	371.0	0.0	0.0	0.0	0.0	0.0	0.0	null	null	null	null	null	null	null	null	334.0	336.0	332.0	337.0	337.0	337.0	333.0	333.0	334.0	333.0	330.0	
Sat Jun 03 13:17:00 UTC 2017	0.0	1.047281664E9	2783.169921875	0.0	2.5731072E7	0.0	3.0	8.11134976E8	49.29534912109375	0.0	0.0	1.062281216E9	1.050107904E9	0.0	0.0	0.07050000131130219	0.04450000077486038	0.04149999842047691	0.9915000200271606	0.7286543250083923	0.0	244.0	371.0	0.0	0.0	0.0	0.0	0.0	0.0	null	null	null	null	null	null	null	null	331.0	332.0	333.0	333.0	332.0	332.0	330.0	335.0	337.0	337.0	336.0	
Sat Jun 03 13:16:00 UTC 2017	0.0	1.048293376E9	2783.169921875	0.0	2.5731072E7	0.0	2.0	8.11012096E8	49.29534912109375	0.0	0.0	1.062281216E9	1.050107904E9	0.0	null	0.07374999672174454	0.05050000175833702	0.048250000923871994	0.9912499785423279	0.7286367416381836	0.0	244.0	371.0	0.0	0.0	0.0	0.0	0.0	0.0	null	null	null	null	null	null	null	null	334.0	335.0	332.0	332.0	328.0	333.0	334.0	331.0	328.0	334.0	335.0	
Sat Jun 03 13:15:00 UTC 2017	0.0	1.047281664E9	2783.169921875	0.0	2.5731072E7	0.0	2.0	8.11012096E8	45.458858489990234	0.0	0.0	1.061269504E9	1.050107904E9	0.0	null	0.0832500010728836	0.05225000157952309	0.04749999940395355	0.9909999966621399	0.7286357283592224	0.0	244.0	371.0	0.0	0.0	0.0	0.0	0.0	0.0	null	null	null	null	null	null	null	null	332.0	331.0	336.0	328.0	333.0	335.0	334.0	334.0	335.0	335.0	339.0	
Sat Jun 03 13:14:00 UTC 2017	0.0	1.048293376E9	2783.169921875	0.0	2.5731072E7	0.0	2.0	8.10917888E8	45.458858489990234	0.0	1.0	1.062281216E9	1.050107904E9	0.0	null	0.06800000369548798	0.04749999940395355	0.048500001430511475	0.9917500019073486	0.7286245226860046	0.0	244.0	371.0	0.0	0.0	0.0	0.0	0.0	0.0	null	null	null	null	null	null	null	null	339.0	339.0	330.0	334.0	334.0	339.0	330.0	335.0	334.0	334.0	334.0	
Sat Jun 03 13:13:00 UTC 2017	0.0	1.047281664E9	2783.169921875	0.0	2.5731072E7	0.0	2.0	8.10917888E8	42.54177474975586	0.0	0.0	1.061269504E9	1.050107904E9	0.0	null	0.07124999910593033	0.05849999934434891	0.04625000059604645	0.9917500019073486	0.7298281192779541	0.0	244.0	371.0	0.0	0.0	0.0	0.0	0.0	0.0	null	null	null	null	null	null	null	null	333.0	331.0	334.0	335.0	335.0	332.0	336.0	332.0	333.0	335.0	336.0	
Sat Jun 03 13:12:00 UTC 2017	0.0	1.048293376E9	2783.169921875	0.0	2.5731072E7	0.0	3.0	8.10917888E8	46.08523178100586	0.0	1.0	1.062281216E9	1.050107904E9	0.0	null	0.08150000125169754	0.05225000157952309	0.050999999046325684	0.9922500252723694	0.7285706996917725	0.0	244.0	371.0	0.0	0.0	0.0	0.0	0.0	0.0	null	null	null	null	null	null	null	null	336.0	335.0	338.0	333.0	333.0	335.0	334.0	332.0	333.0	337.0	335.0	
Sat Jun 03 13:11:00 UTC 2017	0.0	1.048293376E9	2369.15771484375	0.0	2.5731072E7	0.0	3.0	8.10917888E8	46.08523178100586	0.0	0.0	1.061269504E9	1.050107904E9	0.0	null	0.09749999642372131	0.04749999940395355	0.04874999821186066	0.9917500019073486	0.7308237552642822	0.0	244.0	371.0	0.0	0.0	0.0	0.0	0.0	0.0	null	null	null	null	null	null	null	null	333.0	336.0	332.0	336.0	334.0	333.0	338.0	337.0	335.0	335.0	335.0	
Sat Jun 03 13:10:00 UTC 2017	0.0	1.047281664E9	2369.15771484375	0.0	2.5731072E7	0.0	4.0	8.11057152E8	46.08523178100586	0.0	0.0	1.062281216E9	1.050107904E9	0.0	null	0.06575000286102295	0.048250000923871994	0.04650000110268593	0.9919999837875366	0.7285075783729553	0.0	244.0	371.0	0.0	0.0	0.0	0.0	0.0	0.0	null	null	null	null	null	null	null	null	337.0	332.0	330.0	333.0	331.0	337.0	329.0	336.0	334.0	338.0	335.0	
Sat Jun 03 13:09:00 UTC 2017	0.0	1.048293376E9	2369.15771484375	0.0	2.5731072E7	0.0	4.0	8.10696704E8	64.06019592285156	0.0	0.0	1.062281216E9	1.050107904E9	0.0	null	0.07575000077486038	0.05375000089406967	0.04874999821186066	0.9915000200271606	0.7284669280052185	0.0	244.0	371.0	0.0	0.0	0.0	0.0	0.0	0.0	null	null	null	null	null	null	null	null	330.0	334.0	335.0	329.0	333.0	334.0	332.0	329.0	333.0	332.0	335.0	
Sat Jun 03 13:08:00 UTC 2017	0.0	1.048293376E9	2516.54638671875	0.0	2.5731072E7	0.0	2.0	8.10696704E8	51.08449172973633	0.0	0.0	1.062281216E9	1.050107904E9	0.0	null	0.07900000363588333	0.04800000041723251	0.04774999991059303	0.9917500019073486	0.7284723520278931	0.0	244.0	371.0	0.0	0.0	0.0	0.0	0.0	0.0	null	null	null	null	null	null	null	null	337.0	333.0	334.0	336.0	335.0	334.0	333.0	336.0	338.0	332.0	335.0	
Sat Jun 03 13:07:00 UTC 2017	0.0	1.047281664E9	2516.54638671875	0.0	2.5731072E7	0.0	2.0	8.10696704E8	47.01085662841797	0.0	0.0	1.062281216E9	1.050107904E9	0.0	0.0	0.07374999672174454	0.05550000071525574	0.045249998569488525	0.9919999837875366	0.7284591197967529	0.0	244.0	371.0	0.0	0.0	0.0	0.0	0.0	0.0	null	null	null	null	null	null	null	null	333.0	332.0	332.0	328.0	334.0	337.0	335.0	332.0	334.0	334.0	332.0	
Sat Jun 03 13:06:00 UTC 2017	1.0	1.047281664E9	2725.718505859375	0.0	2.5731072E7	0.0	3.0	8.10942464E8	47.01085662841797	0.0	0.0	1.062281216E9	1.050107904E9	0.0	0.0	0.07750000059604645	0.04899999871850014	0.04600000008940697	0.9919999837875366	0.7284380793571472	0.0	244.0	371.0	0.0	0.0	0.0	0.0	0.0	0.0	null	null	null	null	null	null	null	null	333.0	335.0	334.0	336.0	335.0	337.0	334.0	335.0	334.0	333.0	333.0	
Sat Jun 03 13:05:00 UTC 2017	0.0	1.048293376E9	2725.718505859375	0.0	2.5731072E7	0.0	3.0	8.10573824E8	35.97896194458008	0.0	0.0	1.062281216E9	1.050107904E9	0.0	0.0	0.0729999989271164	0.04675000160932541	0.05050000175833702	0.9915000200271606	0.7303388714790344	0.0	244.0	371.0	0.0	0.0	0.0	0.0	0.0	0.0	null	null	null	null	null	null	null	null	335.0	333.0	336.0	331.0	331.0	333.0	332.0	333.0	335.0	338.0	333.0	
Sat Jun 03 13:04:00 UTC 2017	1.0	1.047281664E9	2725.718505859375	0.0	2.5731072E7	0.0	4.0	8.10483712E8	36.83565902709961	0.0	0.0	1.062281216E9	1.050107904E9	0.0	null	0.07699999958276749	0.04924999922513962	0.04625000059604645	0.9917500019073486	0.7307083010673523	0.0	244.0	371.0	0.0	0.0	0.0	0.0	0.0	0.0	null	null	null	null	null	null	null	null	334.0	333.0	334.0	337.0	336.0	335.0	335.0	334.0	335.0	331.0	335.0	
Sat Jun 03 13:03:00 UTC 2017	0.0	1.048293376E9	2725.718505859375	0.0	2.5731072E7	0.0	4.0	8.10483712E8	47.827754974365234	0.0	0.0	1.062281216E9	1.050107904E9	0.0	0.0	0.07275000214576721	0.05249999836087227	0.04924999922513962	0.9917500019073486	0.7293148636817932	0.0	244.0	371.0	0.0	0.0	0.0	0.0	0.0	0.0	null	null	null	null	null	null	null	null	335.0	335.0	334.0	333.0	330.0	332.0	335.0	334.0	335.0	334.0	335.0	
Sat Jun 03 13:02:00 UTC 2017	0.0	1.048293376E9	2585.871826171875	0.0	2.5731072E7	0.0	3.0	8.10483712E8	47.827754974365234	0.0	0.0	1.061269504E9	1.050107904E9	0.0	0.0	0.07199999690055847	0.05299999937415123	0.04324999824166298	0.9917500019073486	0.7284141182899475	0.0	244.0	371.0	0.0	0.0	0.0	0.0	0.0	0.0	null	null	null	null	null	null	null	null	333.0	334.0	332.0	333.0	335.0	337.0	333.0	335.0	331.0	335.0	333.0	
Sat Jun 03 13:01:00 UTC 2017	0.0	1.048293376E9	2794.71875	0.0	2.5731072E7	0.0	4.0	8.10733568E8	40.586097717285156	0.0	0.0	1.061269504E9	1.050107904E9	0.0	0.0	0.09775000065565109	0.05225000157952309	0.04650000110268593	0.9917500019073486	0.7284077405929565	0.0	244.0	371.0	0.0	0.0	0.0	0.0	0.0	0.0	null	null	null	null	null	null	null	null	335.0	331.0	334.0	334.0	334.0	331.0	330.0	332.0	337.0	331.0	334.0	
Sat Jun 03 13:00:00 UTC 2017	1.0	1.048293376E9	2966.02490234375	0.0	2.5731072E7	0.0	2.0	8.10364928E8	40.586097717285156	0.0	0.0	1.062281216E9	1.050107904E9	0.0	0.0	0.07575000077486038	0.04774999991059303	0.048250000923871994	0.9919999837875366	0.7284067869186401	0.0	244.0	371.0	0.0	0.0	0.0	0.0	0.0	0.0	null	null	null	null	null	null	null	null	334.0	334.0	334.0	333.0	333.0	335.0	337.0	336.0	333.0	337.0	335.0	
Sat Jun 03 12:59:00 UTC 2017	0.0	1.048293376E9	2637.188232421875	0.0	2.5731072E7	0.0	3.0	8.10274816E8	46.05548858642578	0.0	0.0	1.061269504E9	1.050107904E9	0.0	0.0	0.07100000232458115	0.04899999871850014	0.048500001430511475	0.9917500019073486	0.7283715605735779	0.0	244.0	371.0	0.0	0.0	0.0	0.0	0.0	0.0	null	null	null	null	null	null	null	null	333.0	336.0	335.0	335.0	337.0	338.0	331.0	335.0	335.0	333.0	331.0	
Sat Jun 03 12:58:00 UTC 2017	0.0	1.048293376E9	3281.0439453125	0.0	2.5731072E7	0.0	2.0	8.10274816E8	46.05548858642578	0.0	0.0	1.062281216E9	1.050107904E9	0.0	0.0	0.08299999684095383	0.05025000125169754	0.04600000008940697	0.9919999837875366	0.7283592820167542	0.0	244.0	371.0	0.0	0.0	0.0	0.0	0.0	0.0	null	null	null	null	null	null	null	null	337.0	336.0	332.0	335.0	333.0	333.0	337.0	335.0	333.0	335.0	336.0	
Sat Jun 03 12:57:00 UTC 2017	0.0	1.047281664E9	3281.0439453125	0.0	2.5731072E7	0.0	2.0	8.10274816E8	46.05548858642578	0.0	0.0	1.062281216E9	1.050107904E9	0.0	0.0	0.07325000315904617	0.054999999701976776	0.048250000923871994	0.9917500019073486	0.7283554077148438	0.0	244.0	371.0	0.0	0.0	0.0	0.0	0.0	0.0	null	null	null	null	null	null	null	null	336.0	336.0	336.0	335.0	336.0	337.0	335.0	329.0	334.0	334.0	332.0	
Sat Jun 03 12:56:00 UTC 2017	0.0	1.048293376E9	3281.0439453125	0.0	2.5731072E7	0.0	3.0	8.10520576E8	46.05548858642578	0.0	0.0	1.061269504E9	1.050107904E9	0.0	0.0	0.07925000041723251	0.050999999046325684	0.04475000128149986	0.9919999837875366	0.7306158542633057	0.0	244.0	371.0	0.0	0.0	0.0	0.0	0.0	0.0	null	null	null	null	null	null	null	null	330.0	337.0	334.0	330.0	332.0	335.0	331.0	333.0	334.0	333.0	336.0	
Sat Jun 03 12:55:00 UTC 2017	0.0	1.047281664E9	3281.0439453125	0.0	2.5731072E7	0.0	3.0	8.10151936E8	46.05548858642578	0.0	1.0	1.062281216E9	1.050107904E9	0.0	0.0	0.07199999690055847	0.05350000038743019	0.05000000074505806	0.9917500019073486	0.7282898426055908	0.0	244.0	371.0	0.0	0.0	0.0	0.0	0.0	0.0	null	null	null	null	null	null	null	null	335.0	337.0	336.0	336.0	336.0	335.0	337.0	333.0	334.0	334.0	331.0	
Sat Jun 03 12:54:00 UTC 2017	0.0	1.048293376E9	3281.0439453125	0.0	2.5731072E7	0.0	2.0	8.10061824E8	46.05548858642578	2.0	1.0	1.061269504E9	1.050107904E9	0.0	0.0	0.06925000250339508	0.05274999886751175	0.04574999958276749	0.9915000200271606	0.7282859086990356	0.0	244.0	371.0	0.0	0.0	0.0	0.0	0.0	0.0	null	null	null	null	null	null	null	null	334.0	332.0	333.0	334.0	335.0	329.0	333.0	332.0	328.0	332.0	333.0	
Sat Jun 03 12:53:00 UTC 2017	0.0	1.048293376E9	2499.885986328125	0.0	2.5731072E7	0.0	3.0	8.10061824E8	57.818878173828125	0.0	0.0	1.062281216E9	1.050107904E9	0.0	0.0	0.0794999971985817	0.05000000074505806	0.04574999958276749	0.9827499985694885	0.7277873754501343	0.0	244.0	371.0	0.0	0.0	0.0	0.0	0.0	0.0	null	null	null	null	null	null	null	null	330.0	332.0	332.0	329.0	329.0	334.0	330.0	331.0	334.0	332.0	333.0	
Sat Jun 03 12:52:00 UTC 2017	1.0	1.048293376E9	2506.394287109375	0.0	2.5731072E7	0.0	3.0	8.10061824E8	57.818878173828125	0.0	0.0	1.061269504E9	1.050107904E9	0.0	0.0	0.06750000268220901	0.05000000074505806	0.04874999821186066	0.9904999732971191	0.7278372645378113	0.0	244.0	371.0	0.0	0.0	0.0	0.0	0.0	0.0	null	null	null	null	null	null	null	null	335.0	331.0	331.0	333.0	331.0	332.0	333.0	336.0	335.0	334.0	332.0	
Sat Jun 03 12:51:00 UTC 2017	1.0	1.047281664E9	2506.394287109375	0.0	2.5731072E7	0.0	3.0	8.10061824E8	37.460289001464844	0.0	0.0	1.061269504E9	1.050107904E9	0.0	0.0	0.09825000166893005	0.048250000923871994	0.04774999991059303	0.9907500147819519	0.727820634841919	0.0	244.0	371.0	0.0	0.0	0.0	0.0	0.0	0.0	null	null	null	null	null	null	null	null	331.0	332.0	330.0	330.0	331.0	332.0	332.0	334.0	332.0	332.0	333.0	
Sat Jun 03 12:50:00 UTC 2017	1.0	1.047281664E9	2814.885498046875	0.0	2.5731072E7	0.0	2.0	8.09938944E8	37.11688232421875	0.0	1.0	1.062281216E9	1.050107904E9	0.0	0.0	0.08100000023841858	0.05824999883770943	0.04450000077486038	0.9912499785423279	0.7277927398681641	0.0	244.0	371.0	0.0	0.0	0.0	0.0	0.0	0.0	null	null	null	null	null	null	null	null	335.0	332.0	331.0	335.0	335.0	332.0	332.0	333.0	331.0	332.0	335.0	
Sat Jun 03 12:49:00 UTC 2017	1.0	1.047281664E9	2864.188720703125	0.0	2.5731072E7	0.0	3.0	8.09848832E8	69.20764923095703	0.0	1.0	1.061269504E9	1.050107904E9	0.0	0.0	0.07575000077486038	0.04475000128149986	0.04800000041723251	0.9912499785423279	0.7277942299842834	0.0	244.0	371.0	0.0	0.0	0.0	0.0	0.0	0.0	null	null	null	null	null	null	null	null	332.0	333.0	334.0	334.0	332.0	333.0	332.0	332.0	335.0	333.0	334.0	
Sat Jun 03 12:48:00 UTC 2017	0.0	1.048293376E9	2864.188720703125	0.0	2.5731072E7	0.0	2.0	8.09848832E8	69.20764923095703	1.0	1.0	1.061269504E9	1.050107904E9	0.0	0.0	0.06875000149011612	0.05299999937415123	0.04874999821186066	0.9884999990463257	0.7277883291244507	0.0	244.0	371.0	0.0	0.0	0.0	0.0	0.0	0.0	null	null	null	null	null	null	null	null	331.0	333.0	333.0	332.0	337.0	333.0	333.0	330.0	333.0	334.0	331.0	
Sat Jun 03 12:47:00 UTC 2017	1.0	1.048293376E9	2841.4521484375	0.0	2.5731072E7	0.0	2.0	8.09848832E8	69.20764923095703	0.0	0.0	1.061269504E9	1.050107904E9	0.0	0.0	0.07999999821186066	0.0560000017285347	0.04374999925494194	0.9882500171661377	0.7277731895446777	0.0	244.0	371.0	0.0	0.0	0.0	0.0	0.0	0.0	null	null	null	null	null	null	null	null	329.0	330.0	331.0	331.0	331.0	330.0	335.0	328.0	334.0	334.0	330.0	
Sat Jun 03 12:46:00 UTC 2017	1.0	1.047281664E9	2841.4521484375	0.0	2.5731072E7	0.0	3.0	8.10098688E8	69.20764923095703	0.0	0.0	1.062281216E9	1.050107904E9	0.0	0.0	0.07150000333786011	0.04625000059604645	0.04774999991059303	0.9879999756813049	0.727770209312439	0.0	244.0	371.0	0.0	0.0	0.0	0.0	0.0	0.0	null	null	null	null	null	null	null	null	333.0	333.0	329.0	332.0	330.0	329.0	331.0	333.0	328.0	328.0	333.0	
Sat Jun 03 12:45:00 UTC 2017	1.0	1.048293376E9	2841.4521484375	0.0	2.5731072E7	0.0	2.0	8.09730048E8	35.012176513671875	0.0	0.0	1.061269504E9	1.050107904E9	0.0	0.0	0.07524999976158142	0.0494999997317791	0.04600000008940697	0.9877499938011169	0.7277207970619202	0.0	244.0	371.0	0.0	0.0	0.0	0.0	0.0	0.0	null	null	null	null	null	null	null	null	334.0	334.0	332.0	330.0	335.0	335.0	333.0	333.0	332.0	335.0	332.0	
Sat Jun 03 12:44:00 UTC 2017	1.0	1.048293376E9	2792.427001953125	0.0	2.5731072E7	0.0	2.0	8.09639936E8	31.45625877380371	0.0	0.0	1.062281216E9	1.050107904E9	0.0	0.0	0.06975000351667404	0.05350000038743019	0.04975000023841858	0.9915000200271606	0.729473352432251	0.0	244.0	371.0	0.0	0.0	0.0	0.0	0.0	0.0	null	null	null	null	null	null	null	null	330.0	331.0	333.0	335.0	332.0	333.0	332.0	331.0	334.0	335.0	333.0	
Sat Jun 03 12:43:00 UTC 2017	1.0	1.047281664E9	2792.427001953125	0.0	2.5731072E7	0.0	2.0	8.09639936E8	31.45625877380371	0.0	0.0	1.062281216E9	1.050107904E9	0.0	null	0.08150000125169754	0.04800000041723251	0.04500000178813934	0.9892500042915344	0.7277056574821472	0.0	244.0	371.0	0.0	0.0	0.0	0.0	0.0	0.0	null	null	null	null	null	null	null	null	333.0	332.0	330.0	332.0	335.0	333.0	332.0	332.0	333.0	331.0	335.0	
Sat Jun 03 12:42:00 UTC 2017	1.0	1.048293376E9	2792.427001953125	0.0	2.5731072E7	0.0	3.0	8.09639936E8	31.45625877380371	0.0	0.0	1.061269504E9	1.050107904E9	0.0	null	0.07325000315904617	0.05575000122189522	0.04574999958276749	0.9904999732971191	0.7276713848114014	0.0	244.0	371.0	0.0	0.0	0.0	0.0	0.0	0.0	null	null	null	null	null	null	null	null	334.0	333.0	336.0	331.0	333.0	334.0	332.0	331.0	331.0	332.0	331.0	
Sat Jun 03 12:41:00 UTC 2017	0.0	1.047281664E9	2792.427001953125	0.0	2.5731072E7	0.0	4.0	8.09639936E8	31.45625877380371	1.0	1.0	1.062281216E9	1.050107904E9	0.0	null	0.1080000028014183	0.051249999552965164	0.04749999940395355	0.9912499785423279	0.730014979839325	0.0	244.0	371.0	0.0	0.0	0.0	0.0	0.0	0.0	null	null	null	null	null	null	null	null	333.0	335.0	330.0	337.0	333.0	332.0	333.0	337.0	336.0	337.0	335.0	
Sat Jun 03 12:40:00 UTC 2017	0.0	1.048293376E9	2792.427001953125	0.0	2.5731072E7	0.0	5.0	8.09517056E8	42.668190002441406	0.0	1.0	1.061269504E9	1.050107904E9	0.0	null	0.07349999994039536	0.04774999991059303	0.05025000125169754	0.9912499785423279	0.727651834487915	0.0	244.0	371.0	0.0	0.0	0.0	0.0	0.0	0.0	null	null	null	null	null	null	null	null	335.0	335.0	338.0	332.0	331.0	331.0	333.0	331.0	331.0	334.0	333.0	
Sat Jun 03 12:39:00 UTC 2017	1.0	1.048293376E9	2653.43310546875	0.0	2.5731072E7	0.0	2.0	8.09426944E8	42.668190002441406	0.0	0.0	1.062281216E9	1.050107904E9	0.0	null	0.0742499977350235	0.05225000157952309	0.04075000062584877	0.9912499785423279	0.7276347279548645	0.0	244.0	371.0	0.0	0.0	0.0	0.0	0.0	0.0	null	null	null	null	null	null	null	null	335.0	334.0	333.0	334.0	336.0	337.0	333.0	332.0	336.0	334.0	331.0	
Sat Jun 03 12:38:00 UTC 2017	1.0	1.047281664E9	2653.43310546875	0.0	2.5731072E7	0.0	2.0	8.09426944E8	42.668190002441406	0.0	0.0	1.061269504E9	1.050107904E9	0.0	null	0.06925000250339508	0.05050000175833702	0.04975000023841858	0.9915000200271606	0.7276268601417542	0.0	244.0	371.0	0.0	0.0	0.0	0.0	0.0	0.0	null	null	null	null	null	null	null	null	334.0	329.0	330.0	331.0	333.0	331.0	333.0	336.0	335.0	333.0	334.0	
Sat Jun 03 12:37:00 UTC 2017	1.0	1.047281664E9	2962.103759765625	0.0	2.5731072E7	0.0	6.0	8.09426944E8	42.08442687988281	0.0	0.0	1.062281216E9	1.050107904E9	0.0	null	0.07575000077486038	0.052000001072883606	0.05000000074505806	0.9915000200271606	0.729893147945404	0.0	244.0	371.0	0.0	0.0	0.0	0.0	0.0	0.0	null	null	null	null	null	null	null	null	337.0	338.0	337.0	331.0	335.0	336.0	334.0	334.0	333.0	334.0	334.0	
Sat Jun 03 12:36:00 UTC 2017	1.0	1.047281664E9	2766.192138671875	0.0	2.5731072E7	0.0	7.0	8.09426944E8	42.08442687988281	0.0	0.0	1.061269504E9	1.050107904E9	0.0	null	0.08799999952316284	0.050999999046325684	0.04749999940395355	0.9917500019073486	0.7280662059783936	0.0	244.0	371.0	0.0	0.0	0.0	0.0	0.0	0.0	null	null	null	null	null	null	null	null	331.0	330.0	330.0	336.0	330.0	334.0	333.0	334.0	337.0	333.0	330.0	
Sat Jun 03 12:35:00 UTC 2017	0.0	1.048293376E9	2766.192138671875	0.0	2.5731072E7	0.0	2.0	8.09304064E8	47.48246765136719	0.0	0.0	1.061269504E9	1.050107904E9	0.0	0.0	0.07275000214576721	0.051500000059604645	0.04574999958276749	0.9915000200271606	0.7275916337966919	0.0	244.0	371.0	0.0	0.0	0.0	0.0	0.0	0.0	null	null	null	null	null	null	null	null	333.0	336.0	337.0	335.0	336.0	333.0	331.0	333.0	331.0	334.0	333.0	
Sat Jun 03 12:34:00 UTC 2017	1.0	1.048293376E9	2625.6416015625	0.0	2.5731072E7	0.0	2.0	8.09213952E8	42.2514762878418	0.0	0.0	1.061269504E9	1.050107904E9	0.0	null	0.0754999965429306	0.0507499985396862	0.04699999839067459	0.9915000200271606	0.7275906801223755	0.0	244.0	371.0	0.0	0.0	0.0	0.0	0.0	0.0	null	null	null	null	null	null	null	null	338.0	333.0	330.0	334.0	335.0	335.0	333.0	332.0	335.0	335.0	332.0	
Sat Jun 03 12:33:00 UTC 2017	1.0	1.048293376E9	3061.476806640625	0.0	2.5731072E7	0.0	2.0	8.09213952E8	42.2514762878418	0.0	0.0	1.062281216E9	1.050107904E9	0.0	null	0.07575000077486038	0.0560000017285347	0.04475000128149986	0.9915000200271606	0.729864776134491	0.0	244.0	371.0	0.0	0.0	0.0	0.0	0.0	0.0	null	null	null	null	null	null	null	null	332.0	332.0	337.0	330.0	332.0	334.0	338.0	334.0	337.0	330.0	337.0	
Sat Jun 03 12:32:00 UTC 2017	0.0	1.048293376E9	3265.709716796875	0.0	2.5731072E7	0.0	2.0	8.09213952E8	42.2514762878418	0.0	0.0	1.062281216E9	1.050107904E9	0.0	null	0.07325000315904617	0.04749999940395355	0.04774999991059303	0.9915000200271606	0.7281699776649475	0.0	244.0	371.0	0.0	0.0	0.0	0.0	0.0	0.0	null	null	null	null	null	null	null	null	331.0	333.0	329.0	338.0	330.0	333.0	333.0	335.0	337.0	333.0	331.0	
Sat Jun 03 12:31:00 UTC 2017	0.0	1.047281664E9	3265.709716796875	0.0	2.5731072E7	0.0	2.0	8.09213952E8	43.30410385131836	0.0	0.0	1.062281216E9	1.050107904E9	0.0	0.0	0.10000000149011612	0.048250000923871994	0.05025000125169754	0.9915000200271606	0.7298374176025391	0.0	244.0	371.0	0.0	0.0	0.0	0.0	0.0	0.0	null	null	null	null	null	null	null	null	332.0	338.0	338.0	332.0	334.0	336.0	332.0	337.0	333.0	333.0	335.0	
Sat Jun 03 12:30:00 UTC 2017	0.0	1.047281664E9	2867.56640625	0.0	2.5731072E7	0.0	2.0	8.09091072E8	43.30410385131836	0.0	0.0	1.061269504E9	1.050107904E9	0.0	0.0	0.07774999737739563	0.05375000089406967	0.045249998569488525	0.9917500019073486	0.7275461554527283	0.0	244.0	371.0	0.0	0.0	0.0	0.0	0.0	0.0	null	null	null	null	null	null	null	null	335.0	333.0	333.0	337.0	336.0	334.0	334.0	334.0	334.0	332.0	337.0	
Sat Jun 03 12:29:00 UTC 2017	0.0	1.048293376E9	2867.56640625	0.0	2.5731072E7	0.0	4.0	8.0900096E8	34.114234924316406	1.0	0.0	1.061269504E9	1.050107904E9	0.0	0.0	0.06549999862909317	0.051750000566244125	0.04874999821186066	0.9909999966621399	0.727528989315033	0.0	244.0	371.0	0.0	0.0	0.0	0.0	0.0	0.0	null	null	null	null	null	null	null	null	333.0	331.0	331.0	334.0	332.0	331.0	334.0	333.0	335.0	334.0	334.0	
Sat Jun 03 12:28:00 UTC 2017	0.0	1.047281664E9	2867.56640625	0.0	2.5731072E7	0.0	2.0	8.0900096E8	41.828983306884766	0.0	0.0	1.062281216E9	1.050107904E9	0.0	0.0	0.07824999839067459	0.04650000110268593	0.0494999997317791	0.9912499785423279	0.7275143265724182	0.0	244.0	371.0	0.0	0.0	0.0	0.0	0.0	0.0	null	null	null	null	null	null	null	null	336.0	336.0	335.0	333.0	337.0	334.0	329.0	330.0	331.0	336.0	333.0	
Sat Jun 03 12:27:00 UTC 2017	1.0	1.048293376E9	2867.56640625	0.0	2.5731072E7	0.0	2.0	8.0900096E8	41.828983306884766	0.0	0.0	1.061269504E9	1.050107904E9	0.0	0.0	0.06700000166893005	0.05624999850988388	0.04324999824166298	0.9912499785423279	0.727510929107666	0.0	244.0	371.0	0.0	0.0	0.0	0.0	0.0	0.0	null	null	null	null	null	null	null	null	332.0	331.0	331.0	330.0	332.0	330.0	336.0	334.0	337.0	331.0	335.0	
Sat Jun 03 12:26:00 UTC 2017	1.0	1.047281664E9	2867.56640625	0.0	2.5731072E7	0.0	2.0	8.0900096E8	40.713104248046875	0.0	0.0	1.062281216E9	1.050107904E9	0.0	0.0	0.08874999731779099	0.042500000447034836	0.05274999886751175	0.9917500019073486	0.7274947762489319	0.0	244.0	371.0	0.0	0.0	0.0	0.0	0.0	0.0	null	null	null	null	null	null	null	null	337.0	333.0	332.0	335.0	338.0	337.0	331.0	331.0	333.0	329.0	332.0	
Sat Jun 03 12:25:00 UTC 2017	1.0	1.048293376E9	2867.56640625	0.0	2.5731072E7	0.0	2.0	8.08882176E8	40.57597732543945	0.0	0.0	1.062281216E9	1.050107904E9	0.0	0.0	0.06800000369548798	0.05824999883770943	0.04399999976158142	0.9917500019073486	0.7274776697158813	0.0	244.0	371.0	0.0	0.0	0.0	0.0	0.0	0.0	null	null	null	null	null	null	null	null	331.0	333.0	335.0	335.0	333.0	338.0	336.0	337.0	337.0	335.0	332.0	
Sat Jun 03 12:24:00 UTC 2017	1.0	1.048293376E9	3086.03125	0.0	2.5731072E7	0.0	2.0	8.08792064E8	38.89482116699219	0.0	0.0	1.061269504E9	1.050107904E9	0.0	0.0	0.07975000143051147	0.05050000175833702	0.04800000041723251	0.9919999837875366	0.7274365425109863	0.0	244.0	371.0	0.0	0.0	0.0	0.0	0.0	0.0	null	null	null	null	null	null	null	null	338.0	334.0	330.0	335.0	333.0	336.0	338.0	331.0	342.0	335.0	333.0	
Sat Jun 03 12:23:00 UTC 2017	0.0	1.047281664E9	3086.03125	0.0	2.5731072E7	0.0	2.0	8.08792064E8	38.89482116699219	0.0	1.0	1.061269504E9	1.050107904E9	0.0	0.0	0.06724999845027924	0.048500001430511475	0.04625000059604645	0.9917500019073486	0.7293412685394287	0.0	244.0	371.0	0.0	0.0	0.0	0.0	0.0	0.0	null	null	null	null	null	null	null	null	333.0	338.0	334.0	335.0	333.0	333.0	332.0	333.0	333.0	333.0	335.0	
Sat Jun 03 12:22:00 UTC 2017	0.0	1.048293376E9	3086.03125	0.0	2.5731072E7	0.0	2.0	8.08792064E8	38.89482116699219	0.0	0.0	1.061269504E9	1.050107904E9	0.0	0.0	0.07850000262260437	0.04975000023841858	0.04650000110268593	0.9919999837875366	0.72746342420578	0.0	244.0	371.0	0.0	0.0	0.0	0.0	0.0	0.0	null	null	null	null	null	null	null	null	332.0	333.0	336.0	332.0	334.0	335.0	335.0	336.0	335.0	334.0	334.0	
Sat Jun 03 12:21:00 UTC 2017	0.0	1.048293376E9	2165.95751953125	0.0	2.5731072E7	0.0	3.0	8.08792064E8	49.89427947998047	0.0	0.0	1.062281216E9	1.050107904E9	0.0	0.0	0.10175000131130219	0.052000001072883606	0.04800000041723251	0.9917500019073486	0.7273856401443481	0.0	244.0	371.0	0.0	0.0	0.0	0.0	0.0	0.0	null	null	null	null	null	null	null	null	332.0	335.0	333.0	334.0	334.0	335.0	334.0	333.0	337.0	334.0	336.0	
Sat Jun 03 12:20:00 UTC 2017	1.0	1.048293376E9	2499.5986328125	0.0	2.5731072E7	0.0	6.0	8.08669184E8	49.89427947998047	0.0	0.0	1.061269504E9	1.050107904E9	0.0	0.0	0.07325000315904617	0.04699999839067459	0.04800000041723251	0.9917500019073486	0.727520227432251	0.0	244.0	371.0	0.0	0.0	0.0	0.0	0.0	0.0	null	null	null	null	null	null	null	null	337.0	333.0	335.0	333.0	330.0	334.0	333.0	337.0	333.0	335.0	335.0	
Sat Jun 03 12:19:00 UTC 2017	0.0	1.048293376E9	2334.390380859375	0.0	2.5731072E7	0.0	3.0	8.08579072E8	49.89427947998047	0.0	0.0	1.062281216E9	1.050107904E9	0.0	0.0	0.07524999976158142	0.05575000122189522	0.05400000140070915	0.9917500019073486	0.7273993492126465	0.0	244.0	371.0	0.0	0.0	0.0	0.0	0.0	0.0	null	null	null	null	null	null	null	null	332.0	335.0	332.0	335.0	336.0	331.0	333.0	334.0	335.0	334.0	335.0	
Sat Jun 03 12:18:00 UTC 2017	0.0	1.047281664E9	2334.390380859375	0.0	2.5731072E7	0.0	2.0	8.08579072E8	44.71913528442383	0.0	0.0	1.061269504E9	1.050107904E9	0.0	0.0	0.07699999958276749	0.04600000008940697	0.04574999958276749	0.9915000200271606	0.7273592352867126	0.0	244.0	371.0	0.0	0.0	0.0	0.0	0.0	0.0	null	null	null	null	null	null	null	null	335.0	334.0	337.0	334.0	332.0	336.0	334.0	333.0	335.0	333.0	333.0	
Sat Jun 03 12:17:00 UTC 2017	0.0	1.048293376E9	2334.390380859375	0.0	2.5731072E7	0.0	2.0	8.08579072E8	44.32548141479492	1.0	1.0	1.061269504E9	1.050107904E9	0.0	0.0	0.07599999755620956	0.05575000122189522	0.04749999940395355	0.9912499785423279	0.7273293733596802	0.0	244.0	371.0	0.0	0.0	0.0	0.0	0.0	0.0	null	null	null	null	null	null	null	null	335.0	334.0	328.0	331.0	330.0	329.0	331.0	333.0	332.0	334.0	333.0	
Sat Jun 03 12:16:00 UTC 2017	1.0	1.047281664E9	2334.390380859375	0.0	2.5731072E7	0.0	3.0	8.08579072E8	44.32548141479492	0.0	0.0	1.061269504E9	1.050107904E9	0.0	0.0	0.07374999672174454	0.05249999836087227	0.04650000110268593	0.9917500019073486	0.7277868390083313	0.0	244.0	371.0	0.0	0.0	0.0	0.0	0.0	0.0	null	null	null	null	null	null	null	null	334.0	336.0	336.0	334.0	335.0	337.0	332.0	331.0	330.0	336.0	334.0	
Sat Jun 03 12:15:00 UTC 2017	0.0	1.047281664E9	3079.5146484375	0.0	2.5731072E7	0.0	2.0	8.08439808E8	44.32548141479492	0.0	0.0	1.061269504E9	1.050107904E9	0.0	null	0.0794999971985817	0.054749999195337296	0.04874999821186066	0.9917500019073486	0.7273034453392029	0.0	244.0	371.0	0.0	0.0	0.0	0.0	0.0	0.0	null	null	null	null	null	null	null	null	333.0	335.0	334.0	334.0	333.0	334.0	335.0	335.0	335.0	335.0	336.0	
Sat Jun 03 12:14:00 UTC 2017	0.0	1.048293376E9	3079.5146484375	0.0	2.5731072E7	0.0	2.0	8.08349696E8	51.34229278564453	0.0	0.0	1.062281216E9	1.050107904E9	0.0	null	0.06274999678134918	0.04650000110268593	0.05249999836087227	0.9917500019073486	0.7272853851318359	0.0	244.0	371.0	0.0	0.0	0.0	0.0	0.0	0.0	null	null	null	null	null	null	null	null	336.0	335.0	333.0	334.0	337.0	334.0	335.0	336.0	336.0	332.0	331.0	
Sat Jun 03 12:13:00 UTC 2017	0.0	1.048293376E9	2958.4794921875	0.0	2.5731072E7	0.0	2.0	8.08349696E8	51.34229278564453	0.0	0.0	1.061269504E9	1.050107904E9	0.0	null	0.08100000023841858	0.051750000566244125	0.0442500002682209	0.9919999837875366	0.7272716760635376	0.0	244.0	371.0	0.0	0.0	0.0	0.0	0.0	0.0	null	null	null	null	null	null	null	null	334.0	334.0	335.0	332.0	332.0	333.0	332.0	333.0	331.0	334.0	335.0	
Sat Jun 03 12:12:00 UTC 2017	0.0	1.047281664E9	2958.4794921875	0.0	2.5731072E7	0.0	3.0	8.08349696E8	51.34229278564453	0.0	0.0	1.062281216E9	1.050107904E9	0.0	null	0.07199999690055847	0.05324999988079071	0.05025000125169754	0.9917500019073486	0.7295222878456116	0.0	244.0	371.0	0.0	0.0	0.0	0.0	0.0	0.0	null	null	null	null	null	null	null	null	335.0	332.0	335.0	337.0	334.0	333.0	332.0	335.0	339.0	336.0	334.0	
Sat Jun 03 12:11:00 UTC 2017	0.0	1.048293376E9	2958.4794921875	0.0	2.5731072E7	0.0	3.0	8.08349696E8	51.2801628112793	0.0	0.0	1.061269504E9	1.050107904E9	0.0	null	0.10400000214576721	0.04800000041723251	0.042750000953674316	0.9915000200271606	0.7272236943244934	0.0	244.0	371.0	0.0	0.0	0.0	0.0	0.0	0.0	null	null	null	null	null	null	null	null	332.0	335.0	335.0	335.0	334.0	336.0	338.0	333.0	334.0	331.0	335.0	
Sat Jun 03 12:10:00 UTC 2017	0.0	1.048293376E9	2343.69482421875	0.0	2.5731072E7	0.0	4.0	8.08493056E8	56.13365936279297	0.0	0.0	1.062281216E9	1.050107904E9	0.0	null	0.0767500028014183	0.04899999871850014	0.05050000175833702	0.9917500019073486	0.7272026538848877	0.0	244.0	371.0	0.0	0.0	0.0	0.0	0.0	0.0	null	null	null	null	null	null	null	null	336.0	335.0	330.0	333.0	334.0	331.0	330.0	334.0	334.0	333.0	331.0	
Sat Jun 03 12:09:00 UTC 2017	0.0	1.048293376E9	3312.6552734375	0.0	2.5731072E7	0.0	3.0	8.0807936E8	60.5296745300293	0.0	0.0	1.061269504E9	1.050107904E9	0.0	null	0.07074999809265137	0.05249999836087227	0.045249998569488525	0.9912499785423279	0.7272012233734131	0.0	244.0	371.0	0.0	0.0	0.0	0.0	0.0	0.0	null	null	null	null	null	null	null	null	329.0	335.0	336.0	333.0	334.0	336.0	338.0	335.0	331.0	335.0	334.0	
Sat Jun 03 12:08:00 UTC 2017	0.0	1.048293376E9	2576.380126953125	0.0	2.5731072E7	0.0	2.0	8.0807936E8	60.5296745300293	0.0	0.0	1.062281216E9	1.050107904E9	0.0	null	0.07649999856948853	0.04724999889731407	0.051249999552965164	0.9915000200271606	0.7271806597709656	0.0	244.0	371.0	0.0	0.0	0.0	0.0	0.0	0.0	null	null	null	null	null	null	null	null	334.0	333.0	332.0	333.0	330.0	332.0	333.0	333.0	334.0	333.0	334.0	
Sat Jun 03 12:07:00 UTC 2017	0.0	1.047281664E9	2576.380126953125	0.0	2.5731072E7	0.0	4.0	8.0807936E8	60.5296745300293	0.0	0.0	1.062281216E9	1.050107904E9	0.0	0.0	0.07400000095367432	0.052000001072883606	0.04125000163912773	0.9909999966621399	0.7271782159805298	0.0	244.0	371.0	0.0	0.0	0.0	0.0	0.0	0.0	null	null	null	null	null	null	null	null	330.0	332.0	338.0	334.0	337.0	334.0	334.0	335.0	333.0	333.0	332.0	
Sat Jun 03 12:06:00 UTC 2017	1.0	1.048293376E9	2576.380126953125	0.0	2.5731072E7	0.0	3.0	8.0807936E8	40.26765441894531	0.0	0.0	1.062281216E9	1.050107904E9	0.0	0.0	0.0742499977350235	0.04625000059604645	0.04899999871850014	0.9912499785423279	0.7271561622619629	0.0	244.0	371.0	0.0	0.0	0.0	0.0	0.0	0.0	null	null	null	null	null	null	null	null	334.0	334.0	333.0	330.0	330.0	337.0	334.0	333.0	330.0	331.0	331.0	
Sat Jun 03 12:05:00 UTC 2017	1.0	1.048293376E9	2959.69140625	0.0	2.5731072E7	0.0	2.0	8.0795648E8	36.336612701416016	0.0	0.0	1.061269504E9	1.050107904E9	0.0	0.0	0.06549999862909317	0.0507499985396862	0.04749999940395355	0.9912499785423279	0.7287130355834961	0.0	244.0	371.0	0.0	0.0	0.0	0.0	0.0	0.0	null	null	null	null	null	null	null	null	335.0	333.0	333.0	334.0	335.0	331.0	333.0	332.0	336.0	337.0	330.0	
Sat Jun 03 12:04:00 UTC 2017	0.0	1.048293376E9	2744.66796875	0.0	2.5731072E7	0.0	2.0	8.07866368E8	55.08635711669922	0.0	0.0	1.062281216E9	1.050107904E9	0.0	0.0	0.07750000059604645	0.054749999195337296	0.051500000059604645	0.9917500019073486	0.729417085647583	0.0	244.0	371.0	0.0	0.0	0.0	0.0	0.0	0.0	null	null	null	null	null	null	null	null	335.0	335.0	332.0	335.0	334.0	338.0	335.0	333.0	332.0	333.0	334.0	
Sat Jun 03 12:03:00 UTC 2017	0.0	1.047281664E9	2744.66796875	0.0	2.5731072E7	0.0	2.0	8.07866368E8	55.08635711669922	0.0	0.0	1.062281216E9	1.050107904E9	0.0	0.0	0.0754999965429306	0.04625000059604645	0.042500000447034836	0.9919999837875366	0.7293021082878113	0.0	244.0	371.0	0.0	0.0	0.0	0.0	0.0	0.0	null	null	null	null	null	null	null	null	335.0	332.0	339.0	338.0	336.0	334.0	334.0	335.0	335.0	333.0	337.0	
Sat Jun 03 12:02:00 UTC 2017	0.0	1.048293376E9	2744.66796875	0.0	2.5731072E7	0.0	2.0	8.07866368E8	55.08635711669922	0.0	0.0	1.062281216E9	1.050107904E9	0.0	null	0.07249999791383743	0.05299999937415123	0.0507499985396862	0.9917500019073486	0.7294132113456726	0.0	244.0	371.0	0.0	0.0	0.0	0.0	0.0	0.0	null	null	null	null	null	null	null	null	333.0	335.0	334.0	333.0	330.0	337.0	336.0	339.0	335.0	338.0	334.0	
Sat Jun 03 12:01:00 UTC 2017	0.0	1.047281664E9	2744.66796875	0.0	2.5731072E7	0.0	2.0	8.07866368E8	55.08635711669922	0.0	0.0	1.062281216E9	1.050107904E9	0.0	0.0	0.10050000250339508	0.054999999701976776	0.04975000023841858	0.9912499785423279	0.72712242603302	0.0	244.0	371.0	0.0	0.0	0.0	0.0	0.0	0.0	null	null	null	null	null	null	null	null	331.0	336.0	334.0	332.0	335.0	333.0	334.0	333.0	332.0	330.0	333.0	
Sat Jun 03 12:00:00 UTC 2017	0.0	1.047281664E9	2569.759033203125	0.0	2.5731072E7	0.0	3.0	8.07739392E8	33.481605529785156	0.0	0.0	1.061269504E9	1.050107904E9	0.0	0.0	0.07000000029802322	0.05000000074505806	0.04374999925494194	0.9915000200271606	0.7271835803985596	0.0	244.0	371.0	0.0	0.0	0.0	0.0	0.0	0.0	null	null	null	null	null	null	null	null	339.0	333.0	332.0	332.0	334.0	333.0	338.0	338.0	333.0	336.0	331.0	
Sat Jun 03 11:59:00 UTC 2017	0.0	1.047281664E9	2739.3427734375	0.0	2.5731072E7	0.0	2.0	8.0764928E8	42.48861312866211	0.0	0.0	1.061269504E9	1.050107904E9	0.0	null	0.07850000262260437	0.04699999839067459	0.04899999871850014	0.9915000200271606	0.7293804287910461	0.0	244.0	371.0	0.0	0.0	0.0	0.0	0.0	0.0	null	null	null	null	null	null	null	null	333.0	334.0	335.0	336.0	336.0	335.0	335.0	334.0	335.0	331.0	338.0	
Sat Jun 03 11:58:00 UTC 2017	0.0	1.048293376E9	2739.3427734375	0.0	2.5731072E7	0.0	3.0	8.0764928E8	42.48861312866211	0.0	0.0	1.062281216E9	1.050107904E9	0.0	null	0.07124999910593033	0.05000000074505806	0.04675000160932541	0.9917500019073486	0.7270911335945129	0.0	244.0	371.0	0.0	0.0	0.0	0.0	0.0	0.0	null	null	null	null	null	null	null	null	332.0	334.0	331.0	341.0	333.0	334.0	330.0	328.0	334.0	338.0	331.0	
Sat Jun 03 11:57:00 UTC 2017	0.0	1.048293376E9	3051.45703125	0.0	2.5731072E7	0.0	3.0	8.0764928E8	42.48861312866211	0.0	0.0	1.062281216E9	1.050107904E9	0.0	0.0	0.07649999856948853	0.057500001043081284	0.051500000059604645	0.9917500019073486	0.7271009087562561	0.0	244.0	371.0	0.0	0.0	0.0	0.0	0.0	0.0	null	null	null	null	null	null	null	null	335.0	334.0	337.0	337.0	337.0	334.0	336.0	333.0	336.0	333.0	337.0	
Sat Jun 03 11:56:00 UTC 2017	0.0	1.048293376E9	2468.048828125	0.0	2.5731072E7	0.0	3.0	8.0764928E8	42.48861312866211	0.0	0.0	1.061269504E9	1.050107904E9	0.0	0.0	0.07975000143051147	0.0507499985396862	0.048250000923871994	0.9912499785423279	0.7282183766365051	0.0	244.0	371.0	0.0	0.0	0.0	0.0	0.0	0.0	null	null	null	null	null	null	null	null	335.0	332.0	330.0	332.0	335.0	336.0	332.0	336.0	338.0	332.0	334.0	
Sat Jun 03 11:55:00 UTC 2017	1.0	1.047281664E9	2468.048828125	0.0	2.5731072E7	0.0	4.0	8.075264E8	42.48861312866211	0.0	0.0	1.062281216E9	1.050107904E9	0.0	0.0	0.08124999701976776	0.045249998569488525	0.0430000014603138	0.9877499938011169	0.7270500063896179	0.0	244.0	371.0	0.0	0.0	0.0	0.0	0.0	0.0	null	null	null	null	null	null	null	null	330.0	331.0	332.0	336.0	331.0	331.0	336.0	333.0	332.0	332.0	328.0	
Sat Jun 03 11:54:00 UTC 2017	1.0	1.048293376E9	2468.048828125	0.0	2.5731072E7	0.0	2.0	8.07436288E8	42.48861312866211	0.0	0.0	1.062281216E9	1.050107904E9	0.0	0.0	0.06525000184774399	0.05350000038743019	0.04924999922513962	0.9912499785423279	0.7293011546134949	0.0	244.0	371.0	0.0	0.0	0.0	0.0	0.0	0.0	null	null	null	null	null	null	null	null	332.0	334.0	338.0	329.0	335.0	335.0	333.0	331.0	335.0	336.0	335.0	
Sat Jun 03 11:53:00 UTC 2017	0.0	1.047281664E9	2468.048828125	0.0	2.5731072E7	0.0	3.0	8.07436288E8	40.917449951171875	0.0	0.0	1.061269504E9	1.050107904E9	0.0	0.0	0.07724999636411667	0.05050000175833702	0.04650000110268593	0.9912499785423279	0.727952241897583	0.0	244.0	371.0	0.0	0.0	0.0	0.0	0.0	0.0	null	null	null	null	null	null	null	null	335.0	332.0	332.0	335.0	335.0	335.0	335.0	337.0	331.0	334.0	332.0	
Sat Jun 03 11:52:00 UTC 2017	1.0	1.047281664E9	3149.470947265625	0.0	2.5731072E7	0.0	2.0	8.07436288E8	43.592262268066406	0.0	0.0	1.062281216E9	1.050107904E9	0.0	0.0	0.07500000298023224	0.045249998569488525	0.04874999821186066	0.9917500019073486	0.7269629240036011	0.0	244.0	371.0	0.0	0.0	0.0	0.0	0.0	0.0	null	null	null	null	null	null	null	null	332.0	336.0	334.0	333.0	334.0	334.0	335.0	334.0	333.0	333.0	334.0	
Sat Jun 03 11:51:00 UTC 2017	0.0	1.047281664E9	3079.812744140625	0.0	2.5731072E7	0.0	4.0	8.07436288E8	49.043025970458984	0.0	0.0	1.061269504E9	1.050107904E9	0.0	0.0	0.09700000286102295	0.05299999937415123	0.04724999889731407	0.9917500019073486	0.7269600033760071	0.0	244.0	371.0	0.0	0.0	0.0	0.0	0.0	0.0	null	null	null	null	null	null	null	null	336.0	330.0	335.0	334.0	333.0	332.0	335.0	333.0	335.0	331.0	333.0	
Sat Jun 03 11:50:00 UTC 2017	0.0	1.048293376E9	3079.812744140625	0.0	2.5731072E7	0.0	6.0	8.07317504E8	45.56219482421875	0.0	0.0	1.061269504E9	1.050107904E9	0.0	0.0	0.0754999965429306	0.054999999701976776	0.04749999940395355	0.9917500019073486	0.7269428968429565	0.0	244.0	371.0	0.0	0.0	0.0	0.0	0.0	0.0	null	null	null	null	null	null	null	null	331.0	337.0	333.0	335.0	336.0	335.0	333.0	335.0	335.0	335.0	334.0	
Sat Jun 03 11:49:00 UTC 2017	1.0	1.047281664E9	3079.812744140625	0.0	2.5731072E7	0.0	3.0	8.07227392E8	45.51451873779297	0.0	0.0	1.062281216E9	1.050107904E9	0.0	0.0	0.07000000029802322	0.050999999046325684	0.04500000178813934	0.9917500019073486	0.726925253868103	0.0	244.0	371.0	0.0	0.0	0.0	0.0	0.0	0.0	null	null	null	null	null	null	null	null	336.0	329.0	332.0	332.0	335.0	336.0	336.0	335.0	335.0	334.0	335.0	
Sat Jun 03 11:48:00 UTC 2017	0.0	1.047281664E9	2264.2587890625	0.0	2.5731072E7	0.0	2.0	8.07227392E8	47.56412124633789	0.0	0.0	1.062281216E9	1.050107904E9	0.0	0.0	0.0820000022649765	0.042249999940395355	0.05000000074505806	0.9915000200271606	0.7269198894500732	0.0	244.0	371.0	0.0	0.0	0.0	0.0	0.0	0.0	null	null	null	null	null	null	null	null	333.0	334.0	332.0	330.0	331.0	334.0	334.0	337.0	332.0	335.0	335.0	
Sat Jun 03 11:47:00 UTC 2017	1.0	1.048293376E9	2264.2587890625	0.0	2.5731072E7	0.0	2.0	8.07227392E8	47.56412124633789	0.0	0.0	1.061269504E9	1.050107904E9	0.0	0.0	0.07400000095367432	0.05375000089406967	0.04625000059604645	0.9890000224113464	0.7269051671028137	0.0	244.0	371.0	0.0	0.0	0.0	0.0	0.0	0.0	null	null	null	null	null	null	null	null	332.0	333.0	334.0	333.0	333.0	329.0	332.0	329.0	335.0	332.0	330.0	
Sat Jun 03 11:46:00 UTC 2017	1.0	1.047281664E9	2264.2587890625	0.0	2.5731072E7	0.0	3.0	8.07227392E8	48.13188934326172	0.0	0.0	1.062281216E9	1.050107904E9	0.0	0.0	0.07750000059604645	0.04975000023841858	0.050999999046325684	0.9915000200271606	0.7268885374069214	0.0	244.0	371.0	0.0	0.0	0.0	0.0	0.0	0.0	null	null	null	null	null	null	null	null	332.0	333.0	333.0	333.0	334.0	335.0	335.0	332.0	332.0	333.0	335.0	
Sat Jun 03 11:45:00 UTC 2017	1.0	1.048293376E9	2264.2587890625	0.0	2.5731072E7	0.0	3.0	8.07104512E8	44.27469253540039	0.0	0.0	1.062281216E9	1.050107904E9	0.0	0.0	0.0742499977350235	0.04924999922513962	0.048250000923871994	0.9894999861717224	0.7289454340934753	0.0	244.0	371.0	0.0	0.0	0.0	0.0	0.0	0.0	null	null	null	null	null	null	null	null	334.0	332.0	332.0	332.0	332.0	330.0	334.0	337.0	332.0	334.0	333.0	
Sat Jun 03 11:44:00 UTC 2017	0.0	1.048293376E9	2461.888671875	0.0	2.5731072E7	0.0	2.0	8.070144E8	38.047977447509766	0.0	0.0	1.062281216E9	1.050107904E9	0.0	0.0	0.07074999809265137	0.054999999701976776	0.04749999940395355	0.987500011920929	0.7268674969673157	0.0	244.0	371.0	0.0	0.0	0.0	0.0	0.0	0.0	null	null	null	null	null	null	null	null	333.0	333.0	332.0	332.0	332.0	332.0	331.0	332.0	332.0	333.0	332.0	
Sat Jun 03 11:43:00 UTC 2017	0.0	1.047281664E9	2461.888671875	0.0	2.5731072E7	0.0	2.0	8.070144E8	38.047977447509766	1.0	1.0	1.062281216E9	1.050107904E9	0.0	0.0	0.07074999809265137	0.054249998182058334	0.0430000014603138	0.9909999966621399	0.7268474698066711	0.0	244.0	371.0	0.0	0.0	0.0	0.0	0.0	0.0	null	null	null	null	null	null	null	null	335.0	332.0	336.0	334.0	335.0	334.0	333.0	335.0	335.0	333.0	335.0	
Sat Jun 03 11:42:00 UTC 2017	0.0	1.047281664E9	2435.60888671875	0.0	2.5731072E7	0.0	2.0	8.070144E8	55.126007080078125	1.0	0.0	1.061269504E9	1.050107904E9	0.0	0.0	0.07575000077486038	0.04975000023841858	0.04600000008940697	0.9877499938011169	0.72684645652771	0.0	244.0	371.0	0.0	0.0	0.0	0.0	0.0	0.0	null	null	null	null	null	null	null	null	333.0	332.0	333.0	334.0	332.0	332.0	332.0	332.0	331.0	333.0	333.0	
Sat Jun 03 11:41:00 UTC 2017	1.0	1.048293376E9	2435.60888671875	0.0	2.5731072E7	0.0	2.0	8.070144E8	44.116798400878906	1.0	1.0	1.062281216E9	1.050107904E9	0.0	0.0	0.11500000208616257	0.05550000071525574	0.04975000023841858	0.9907500147819519	0.7267735600471497	0.0	244.0	371.0	0.0	0.0	0.0	0.0	0.0	0.0	null	null	null	null	null	null	null	null	327.0	335.0	334.0	332.0	332.0	333.0	331.0	334.0	333.0	332.0	333.0	
Sat Jun 03 11:40:00 UTC 2017	1.0	1.047281664E9	2435.60888671875	0.0	2.5731072E7	0.0	2.0	8.0689152E8	46.9439697265625	0.0	0.0	1.062281216E9	1.050107904E9	0.0	0.0	0.06700000166893005	0.051750000566244125	0.04600000008940697	0.9915000200271606	0.7267633080482483	0.0	244.0	371.0	0.0	0.0	0.0	0.0	0.0	0.0	null	null	null	null	null	null	null	null	332.0	330.0	330.0	334.0	334.0	334.0	336.0	334.0	333.0	335.0	331.0	
Sat Jun 03 11:39:00 UTC 2017	1.0	1.047281664E9	2365.35107421875	0.0	2.5731072E7	0.0	6.0	8.06801408E8	46.9439697265625	0.0	0.0	1.061269504E9	1.050107904E9	0.0	0.0	0.07975000143051147	0.04749999940395355	0.04724999889731407	0.9917500019073486	0.7267265915870667	0.0	244.0	371.0	0.0	0.0	0.0	0.0	0.0	0.0	null	null	null	null	null	null	null	null	335.0	333.0	337.0	330.0	333.0	331.0	331.0	335.0	336.0	331.0	336.0	
Sat Jun 03 11:38:00 UTC 2017	0.0	1.048293376E9	2365.35107421875	0.0	2.5731072E7	0.0	2.0	8.06801408E8	38.45130920410156	0.0	0.0	1.062281216E9	1.050107904E9	0.0	0.0	0.07800000160932541	0.05299999937415123	0.05000000074505806	0.9917500019073486	0.7266928553581238	0.0	244.0	371.0	0.0	0.0	0.0	0.0	0.0	0.0	null	null	null	null	null	null	null	null	333.0	334.0	333.0	335.0	334.0	334.0	338.0	334.0	335.0	336.0	333.0	
Sat Jun 03 11:37:00 UTC 2017	0.0	1.047281664E9	2365.35107421875	0.0	2.5731072E7	0.0	4.0	8.06801408E8	41.10789108276367	0.0	1.0	1.062281216E9	1.050107904E9	0.0	0.0	0.07450000196695328	0.05225000157952309	0.04475000128149986	0.9917500019073486	0.7266062498092651	0.0	244.0	371.0	0.0	0.0	0.0	0.0	0.0	0.0	null	null	null	null	null	null	null	null	334.0	334.0	332.0	335.0	335.0	332.0	332.0	335.0	336.0	333.0	335.0	
Sat Jun 03 11:36:00 UTC 2017	0.0	1.047281664E9	2662.95703125	0.0	2.5731072E7	0.0	7.0	8.06801408E8	43.70671844482422	1.0	2.0	1.061269504E9	1.050107904E9	0.0	0.0	0.07074999809265137	0.057750001549720764	0.05249999836087227	0.9909999966621399	0.7266047596931458	0.0	244.0	371.0	0.0	0.0	0.0	0.0	0.0	0.0	null	null	null	null	null	null	null	null	332.0	332.0	334.0	334.0	331.0	333.0	331.0	334.0	332.0	336.0	332.0	
Sat Jun 03 11:35:00 UTC 2017	1.0	1.048293376E9	2662.95703125	0.0	2.5731072E7	0.0	4.0	8.06682624E8	43.70671844482422	1.0	1.0	1.061269504E9	1.050107904E9	0.0	0.0	0.06975000351667404	0.052000001072883606	0.04475000128149986	0.9915000200271606	0.7266826033592224	0.0	244.0	371.0	0.0	0.0	0.0	0.0	0.0	0.0	null	null	null	null	null	null	null	null	334.0	331.0	336.0	330.0	332.0	334.0	334.0	333.0	331.0	332.0	334.0	
Sat Jun 03 11:34:00 UTC 2017	1.0	1.048293376E9	2254.38037109375	0.0	2.5731072E7	0.0	2.0	8.06592512E8	38.75505447387695	0.0	0.0	1.061269504E9	1.050107904E9	0.0	0.0	0.07450000196695328	0.05400000140070915	0.04749999940395355	0.9915000200271606	0.727798581123352	0.0	244.0	371.0	0.0	0.0	0.0	0.0	0.0	0.0	null	null	null	null	null	null	null	null	332.0	336.0	330.0	337.0	336.0	332.0	335.0	333.0	334.0	337.0	332.0	
Sat Jun 03 11:33:00 UTC 2017	0.0	1.048293376E9	3106.1298828125	0.0	2.5731072E7	0.0	2.0	8.06592512E8	49.948326110839844	0.0	0.0	1.061269504E9	1.050107904E9	0.0	null	0.07199999690055847	0.051249999552965164	0.04650000110268593	0.9915000200271606	0.7266615629196167	0.0	244.0	371.0	0.0	0.0	0.0	0.0	0.0	0.0	null	null	null	null	null	null	null	null	334.0	332.0	336.0	335.0	332.0	334.0	335.0	332.0	337.0	334.0	337.0	
Sat Jun 03 11:32:00 UTC 2017	1.0	1.048293376E9	2582.015869140625	0.0	2.5731072E7	0.0	2.0	8.06592512E8	49.948326110839844	0.0	0.0	1.061269504E9	1.050107904E9	0.0	0.0	0.08275000005960464	0.0507499985396862	0.04600000008940697	0.9915000200271606	0.7266722917556763	0.0	244.0	371.0	0.0	0.0	0.0	0.0	0.0	0.0	null	null	null	null	null	null	null	null	334.0	331.0	336.0	332.0	333.0	334.0	336.0	330.0	330.0	334.0	331.0	
Sat Jun 03 11:31:00 UTC 2017	1.0	1.048293376E9	3144.138916015625	0.0	2.5731072E7	0.0	4.0	8.06592512E8	49.948326110839844	0.0	0.0	1.061269504E9	1.050107904E9	0.0	0.0	0.09149999916553497	0.05249999836087227	0.04800000041723251	0.9917500019073486	0.7266282439231873	0.0	244.0	371.0	0.0	0.0	0.0	0.0	0.0	0.0	null	null	null	null	null	null	null	null	334.0	333.0	335.0	336.0	331.0	330.0	331.0	334.0	334.0	333.0	334.0	
Sat Jun 03 11:30:00 UTC 2017	0.0	1.047281664E9	3144.138916015625	0.0	2.5731072E7	0.0	3.0	8.06469632E8	50.1658821105957	0.0	0.0	1.062281216E9	1.050107904E9	0.0	0.0	0.07074999809265137	0.04699999839067459	0.051500000059604645	0.9917500019073486	0.7265499830245972	0.0	244.0	371.0	0.0	0.0	0.0	0.0	0.0	0.0	null	null	null	null	null	null	null	null	333.0	337.0	332.0	333.0	333.0	334.0	335.0	335.0	334.0	336.0	334.0	
Sat Jun 03 11:29:00 UTC 2017	0.0	1.047281664E9	2962.43603515625	0.0	2.5731072E7	0.0	2.0	8.0637952E8	42.56718826293945	0.0	1.0	1.061269504E9	1.050107904E9	0.0	0.0	0.0742499977350235	0.05225000157952309	0.0494999997317791	0.9915000200271606	0.7265533804893494	0.0	244.0	371.0	0.0	0.0	0.0	0.0	0.0	0.0	null	null	null	null	null	null	null	null	332.0	335.0	335.0	335.0	333.0	338.0	332.0	334.0	335.0	334.0	336.0	
Sat Jun 03 11:28:00 UTC 2017	1.0	1.048293376E9	2962.43603515625	0.0	2.5731072E7	0.0	2.0	8.0637952E8	45.7074089050293	0.0	0.0	1.061269504E9	1.050107904E9	0.0	0.0	0.07850000262260437	0.054749999195337296	0.04374999925494194	0.9915000200271606	0.7265318632125854	0.0	244.0	371.0	0.0	0.0	0.0	0.0	0.0	0.0	null	null	null	null	null	null	null	null	333.0	329.0	331.0	332.0	337.0	331.0	333.0	333.0	334.0	335.0	331.0	
Sat Jun 03 11:27:00 UTC 2017	1.0	1.047281664E9	2962.43603515625	0.0	2.5731072E7	0.0	2.0	8.0637952E8	45.7074089050293	0.0	0.0	1.062281216E9	1.050107904E9	0.0	0.0	0.07524999976158142	0.041749998927116394	0.048500001430511475	0.9917500019073486	0.7288040518760681	0.0	244.0	371.0	0.0	0.0	0.0	0.0	0.0	0.0	null	null	null	null	null	null	null	null	335.0	338.0	333.0	334.0	331.0	335.0	335.0	334.0	332.0	334.0	338.0	
Sat Jun 03 11:26:00 UTC 2017	0.0	1.048293376E9	2962.43603515625	0.0	2.5731072E7	0.0	3.0	8.0637952E8	36.81065368652344	0.0	0.0	1.061269504E9	1.050107904E9	0.0	0.0	0.0637499988079071	0.05299999937415123	0.048250000923871994	0.9915000200271606	0.7265138030052185	0.0	244.0	371.0	0.0	0.0	0.0	0.0	0.0	0.0	null	null	null	null	null	null	null	null	331.0	330.0	332.0	335.0	334.0	335.0	336.0	337.0	333.0	332.0	330.0	
Sat Jun 03 11:25:00 UTC 2017	0.0	1.047281664E9	2962.43603515625	0.0	2.5731072E7	0.0	2.0	8.0625664E8	37.863548278808594	0.0	0.0	1.062281216E9	1.050107904E9	0.0	0.0	0.07900000363588333	0.05624999850988388	0.04650000110268593	0.9917500019073486	0.7265045046806335	0.0	244.0	371.0	0.0	0.0	0.0	0.0	0.0	0.0	null	null	null	null	null	null	null	null	336.0	333.0	338.0	335.0	336.0	334.0	334.0	330.0	331.0	335.0	336.0	
Sat Jun 03 11:24:00 UTC 2017	0.0	1.048293376E9	2962.43603515625	0.0	2.5731072E7	0.0	2.0	8.06166528E8	37.863548278808594	0.0	0.0	1.062281216E9	1.050107904E9	0.0	0.0	0.07374999672174454	0.0442500002682209	0.04774999991059303	0.9912499785423279	0.728791356086731	0.0	244.0	371.0	0.0	0.0	0.0	0.0	0.0	0.0	null	null	null	null	null	null	null	null	331.0	335.0	330.0	334.0	333.0	334.0	332.0	337.0	336.0	333.0	335.0	
Sat Jun 03 11:23:00 UTC 2017	0.0	1.047281664E9	2962.43603515625	0.0	2.5731072E7	0.0	4.0	8.06166528E8	37.863548278808594	0.0	1.0	1.061269504E9	1.050107904E9	0.0	0.0	0.06750000268220901	0.05925000086426735	0.05050000175833702	0.9915000200271606	0.7265377640724182	0.0	244.0	371.0	0.0	0.0	0.0	0.0	0.0	0.0	null	null	null	null	null	null	null	null	332.0	332.0	335.0	333.0	336.0	332.0	334.0	333.0	334.0	337.0	330.0	
Sat Jun 03 11:22:00 UTC 2017	1.0	1.048293376E9	2962.43603515625	0.0	2.5731072E7	0.0	2.0	8.06166528E8	43.52244567871094	0.0	0.0	1.061269504E9	1.050107904E9	0.0	0.0	0.08275000005960464	0.04600000008940697	0.04349999874830246	0.9915000200271606	0.7264770865440369	0.0	244.0	371.0	0.0	0.0	0.0	0.0	0.0	0.0	null	null	null	null	null	null	null	null	333.0	330.0	331.0	331.0	333.0	333.0	335.0	336.0	335.0	332.0	334.0	
Sat Jun 03 11:21:00 UTC 2017	1.0	1.048293376E9	2824.73681640625	0.0	2.5731072E7	0.0	3.0	8.06166528E8	43.52244567871094	0.0	0.0	1.062281216E9	1.050107904E9	0.0	0.0	0.09399999678134918	0.054999999701976776	0.04600000008940697	0.9915000200271606	0.7264599800109863	0.0	244.0	371.0	0.0	0.0	0.0	0.0	0.0	0.0	null	null	null	null	null	null	null	null	334.0	334.0	333.0	336.0	332.0	335.0	331.0	329.0	331.0	332.0	334.0	
Sat Jun 03 11:20:00 UTC 2017	1.0	1.048293376E9	2907.574951171875	0.0	2.5731072E7	0.0	2.0	8.06047744E8	43.52244567871094	0.0	0.0	1.061269504E9	1.050107904E9	0.0	0.0	0.07199999690055847	0.04475000128149986	0.05525000020861626	0.9915000200271606	0.7273186445236206	0.0	244.0	371.0	0.0	0.0	0.0	0.0	0.0	0.0	null	null	null	null	null	null	null	null	336.0	332.0	336.0	330.0	333.0	334.0	334.0	336.0	334.0	333.0	332.0	
Sat Jun 03 11:19:00 UTC 2017	1.0	1.047281664E9	2907.574951171875	0.0	2.5731072E7	0.0	2.0	8.05957632E8	39.32872009277344	0.0	1.0	1.062281216E9	1.050107904E9	0.0	0.0	0.07000000029802322	0.054499998688697815	0.042249999940395355	0.9912499785423279	0.7264487147331238	0.0	244.0	371.0	0.0	0.0	0.0	0.0	0.0	0.0	null	null	null	null	null	null	null	null	331.0	336.0	331.0	337.0	335.0	336.0	334.0	332.0	332.0	335.0	337.0	
Sat Jun 03 11:18:00 UTC 2017	1.0	1.047281664E9	2270.838134765625	0.0	2.5731072E7	0.0	2.0	8.05957632E8	39.32872009277344	1.0	1.0	1.061269504E9	1.050107904E9	0.0	0.0	0.07325000315904617	0.05624999850988388	0.04975000023841858	0.9909999966621399	0.7287365198135376	0.0	244.0	371.0	0.0	0.0	0.0	0.0	0.0	0.0	null	null	null	null	null	null	null	null	333.0	329.0	336.0	334.0	332.0	330.0	333.0	334.0	336.0	333.0	333.0	
Sat Jun 03 11:17:00 UTC 2017	0.0	1.048293376E9	2270.838134765625	0.0	2.5731072E7	0.0	3.0	8.05957632E8	40.74784851074219	0.0	0.0	1.061269504E9	1.050107904E9	0.0	0.0	0.07474999874830246	0.04600000008940697	0.04800000041723251	0.9900000095367432	0.7277345061302185	0.0	244.0	371.0	0.0	0.0	0.0	0.0	0.0	0.0	null	null	null	null	null	null	null	null	331.0	332.0	333.0	333.0	333.0	334.0	334.0	334.0	335.0	334.0	333.0	
Sat Jun 03 11:16:00 UTC 2017	1.0	1.048293376E9	3780.955810546875	0.0	2.5731072E7	0.0	9.0	8.05830656E8	46.38169479370117	0.0	0.0	1.062281216E9	1.050107904E9	0.0	0.0	0.07575000077486038	0.05225000157952309	0.05225000157952309	0.9892500042915344	0.7264467477798462	0.0	244.0	371.0	0.0	0.0	0.0	0.0	0.0	0.0	null	null	null	null	null	null	null	null	331.0	330.0	330.0	330.0	333.0	332.0	330.0	331.0	332.0	331.0	331.0	
Sat Jun 03 11:15:00 UTC 2017	1.0	1.048293376E9	2678.392333984375	0.0	2.5731072E7	0.0	2.0	8.05830656E8	66.56173706054688	0.0	0.0	1.061269504E9	1.050107904E9	0.0	0.0	0.07325000315904617	0.04800000041723251	0.04650000110268593	0.9887499809265137	0.7263665199279785	0.0	244.0	371.0	0.0	0.0	0.0	0.0	0.0	0.0	null	null	null	null	null	null	null	null	329.0	332.0	330.0	336.0	329.0	329.0	333.0	330.0	332.0	331.0	332.0	
Sat Jun 03 11:14:00 UTC 2017	1.0	1.047281664E9	2678.392333984375	0.0	2.5731072E7	0.0	2.0	8.05740544E8	43.664024353027344	0.0	0.0	1.062281216E9	1.050107904E9	0.0	0.0	0.07150000333786011	0.05550000071525574	0.045249998569488525	0.9912499785423279	0.726386547088623	0.0	244.0	371.0	0.0	0.0	0.0	0.0	0.0	0.0	null	null	null	null	null	null	null	null	337.0	334.0	332.0	333.0	335.0	337.0	332.0	331.0	332.0	333.0	332.0	
Sat Jun 03 11:13:00 UTC 2017	0.0	1.047281664E9	2784.84716796875	0.0	2.5731072E7	0.0	4.0	8.05740544E8	46.37190246582031	0.0	0.0	1.061269504E9	1.050107904E9	0.0	0.0	0.07050000131130219	0.04699999839067459	0.048250000923871994	0.9909999966621399	0.7262906432151794	0.0	244.0	371.0	0.0	0.0	0.0	0.0	0.0	0.0	null	null	null	null	null	null	null	null	331.0	335.0	332.0	334.0	331.0	330.0	328.0	333.0	334.0	331.0	335.0	
Sat Jun 03 11:12:00 UTC 2017	1.0	1.047281664E9	2836.437744140625	0.0	2.5731072E7	0.0	2.0	8.05740544E8	34.01680374145508	0.0	0.0	1.062281216E9	1.050107904E9	0.0	0.0	0.07349999994039536	0.05249999836087227	0.05025000125169754	0.9912499785423279	0.726890504360199	0.0	244.0	371.0	0.0	0.0	0.0	0.0	0.0	0.0	null	null	null	null	null	null	null	null	331.0	335.0	334.0	334.0	334.0	334.0	335.0	335.0	335.0	335.0	334.0	
Sat Jun 03 11:11:00 UTC 2017	0.0	1.048293376E9	2836.437744140625	0.0	2.5731072E7	0.0	7.0	8.06076416E8	34.01680374145508	0.0	0.0	1.062281216E9	1.050107904E9	0.0	0.0	0.11800000071525574	0.05274999886751175	0.04650000110268593	0.9917500019073486	0.7262725830078125	0.0	244.0	371.0	0.0	0.0	0.0	0.0	0.0	0.0	null	null	null	null	null	null	null	null	335.0	333.0	334.0	330.0	338.0	334.0	336.0	334.0	331.0	334.0	335.0	
Sat Jun 03 11:10:00 UTC 2017	1.0	1.047281664E9	2836.437744140625	0.0	2.5731072E7	0.0	5.0	8.05879808E8	34.01680374145508	0.0	0.0	1.061269504E9	1.050107904E9	0.0	0.0	0.07050000131130219	0.05050000175833702	0.04699999839067459	0.9915000200271606	0.7262980341911316	0.0	244.0	371.0	0.0	0.0	0.0	0.0	0.0	0.0	null	null	null	null	null	null	null	null	336.0	333.0	334.0	335.0	333.0	337.0	333.0	331.0	333.0	335.0	330.0	
Sat Jun 03 11:09:00 UTC 2017	1.0	1.047281664E9	2383.213623046875	0.0	2.5731072E7	0.0	2.0	8.055808E8	34.01680374145508	0.0	0.0	1.061269504E9	1.050107904E9	0.0	null	0.07349999994039536	0.04924999922513962	0.048500001430511475	0.9917500019073486	0.7262970209121704	0.0	244.0	371.0	0.0	0.0	0.0	0.0	0.0	0.0	null	null	null	null	null	null	null	null	334.0	336.0	333.0	336.0	332.0	330.0	336.0	334.0	336.0	333.0	336.0	
Sat Jun 03 11:08:00 UTC 2017	1.0	1.047281664E9	2709.034423828125	0.0	2.5731072E7	0.0	3.0	8.055808E8	58.05596160888672	0.0	0.0	1.061269504E9	1.050107904E9	0.0	null	0.0832500010728836	0.0507499985396862	0.045499999076128006	0.9917500019073486	0.7262833118438721	0.0	244.0	371.0	0.0	0.0	0.0	0.0	0.0	0.0	null	null	null	null	null	null	null	null	333.0	332.0	336.0	334.0	334.0	334.0	335.0	335.0	331.0	334.0	332.0	
Sat Jun 03 11:07:00 UTC 2017	0.0	1.048293376E9	2709.034423828125	0.0	2.5731072E7	0.0	2.0	8.055808E8	36.53239440917969	0.0	0.0	1.061269504E9	1.050107904E9	0.0	0.0	0.07124999910593033	0.0494999997317791	0.04924999922513962	0.9917500019073486	0.7262480854988098	0.0	244.0	371.0	0.0	0.0	0.0	0.0	0.0	0.0	null	null	null	null	null	null	null	null	336.0	337.0	333.0	331.0	335.0	333.0	333.0	333.0	335.0	335.0	335.0	
Sat Jun 03 11:06:00 UTC 2017	0.0	1.048293376E9	2879.163330078125	0.0	2.5731072E7	0.0	3.0	8.055808E8	48.39480972290039	0.0	0.0	1.062281216E9	1.050107904E9	0.0	0.0	0.07275000214576721	0.05225000157952309	0.04874999821186066	0.9912499785423279	0.7262314558029175	0.0	244.0	371.0	0.0	0.0	0.0	0.0	0.0	0.0	null	null	null	null	null	null	null	null	331.0	331.0	333.0	333.0	334.0	334.0	331.0	332.0	333.0	331.0	329.0	
Sat Jun 03 11:05:00 UTC 2017	1.0	1.049636864E9	2635.757080078125	0.0	2.5731072E7	0.0	6.0	8.0545792E8	43.02141189575195	0.0	0.0	1.062281216E9	1.050107904E9	0.0	0.0	0.06925000250339508	0.05000000074505806	0.05025000125169754	0.9915000200271606	0.7263909578323364	0.0	244.0	371.0	0.0	0.0	0.0	0.0	0.0	0.0	null	null	null	null	null	null	null	null	335.0	331.0	335.0	331.0	334.0	336.0	333.0	336.0	334.0	335.0	339.0	
Sat Jun 03 11:04:00 UTC 2017	1.0	1.049636864E9	2803.554931640625	0.0	2.5731072E7	0.0	3.0	8.05367808E8	43.02141189575195	0.0	0.0	1.061269504E9	1.050107904E9	0.0	0.0	0.07874999940395355	0.051750000566244125	0.04600000008940697	0.9917500019073486	0.7263860702514648	0.0	244.0	371.0	0.0	0.0	0.0	0.0	0.0	0.0	null	null	null	null	null	null	null	null	335.0	335.0	336.0	338.0	339.0	333.0	333.0	335.0	334.0	335.0	334.0	
Sat Jun 03 11:03:00 UTC 2017	0.0	1.048625152E9	2803.554931640625	0.0	2.5731072E7	0.0	3.0	8.05367808E8	48.4477653503418	0.0	1.0	1.062281216E9	1.050107904E9	0.0	0.0	0.06499999761581421	0.04650000110268593	0.0507499985396862	0.9915000200271606	0.7263714075088501	0.0	244.0	371.0	0.0	0.0	0.0	0.0	0.0	0.0	null	null	null	null	null	null	null	null	333.0	333.0	334.0	333.0	334.0	331.0	333.0	331.0	334.0	332.0	331.0	
Sat Jun 03 11:02:00 UTC 2017	1.0	1.049636864E9	2803.554931640625	0.0	2.5731072E7	0.0	2.0	8.05367808E8	48.4477653503418	0.0	0.0	1.062281216E9	1.050107904E9	0.0	null	0.08124999701976776	0.05324999988079071	0.045249998569488525	0.9917500019073486	0.7264467477798462	0.0	244.0	371.0	0.0	0.0	0.0	0.0	0.0	0.0	null	null	null	null	null	null	null	null	336.0	335.0	332.0	332.0	334.0	336.0	334.0	334.0	334.0	334.0	332.0	
Sat Jun 03 11:01:00 UTC 2017	0.0	1.049636864E9	2453.211181640625	0.0	2.5731072E7	0.0	3.0	8.05367808E8	48.4477653503418	0.0	0.0	1.062281216E9	1.050107904E9	0.0	0.0	0.09925000369548798	0.05674999952316284	0.04924999922513962	0.9915000200271606	0.7263591885566711	0.0	244.0	371.0	0.0	0.0	0.0	0.0	0.0	0.0	null	null	null	null	null	null	null	null	334.0	334.0	332.0	335.0	331.0	332.0	333.0	335.0	333.0	337.0	336.0	
Sat Jun 03 11:00:00 UTC 2017	0.0	1.048625152E9	2453.211181640625	0.0	2.5731072E7	0.0	2.0	8.05249024E8	44.44731903076172	1.0	1.0	1.062281216E9	1.050107904E9	0.0	null	0.06224999949336052	0.05225000157952309	0.04749999940395355	0.9915000200271606	0.7276014089584351	0.0	244.0	371.0	0.0	0.0	0.0	0.0	0.0	0.0	null	null	null	null	null	null	null	null	334.0	331.0	335.0	333.0	334.0	332.0	335.0	333.0	336.0	333.0	333.0	
Sat Jun 03 10:59:00 UTC 2017	0.0	1.049636864E9	2453.211181640625	0.0	2.5731072E7	0.0	2.0	8.05158912E8	44.44731903076172	0.0	0.0	1.061269504E9	1.050107904E9	0.0	null	0.07524999976158142	0.051500000059604645	0.04574999958276749	0.9917500019073486	0.7263283729553223	0.0	244.0	371.0	0.0	0.0	0.0	0.0	0.0	0.0	null	null	null	null	null	null	null	null	332.0	338.0	332.0	337.0	336.0	334.0	332.0	335.0	331.0	334.0	332.0	
Sat Jun 03 10:58:00 UTC 2017	0.0	1.048625152E9	2453.211181640625	0.0	2.5731072E7	0.0	2.0	8.05158912E8	44.44731903076172	0.0	0.0	1.061269504E9	1.050107904E9	0.0	null	0.07649999856948853	0.0507499985396862	0.048250000923871994	0.9917500019073486	0.7263097763061523	0.0	244.0	371.0	0.0	0.0	0.0	0.0	0.0	0.0	null	null	null	null	null	null	null	null	337.0	332.0	336.0	332.0	333.0	334.0	333.0	337.0	336.0	335.0	335.0	
Sat Jun 03 10:57:00 UTC 2017	0.0	1.048625152E9	2568.836669921875	0.0	2.5731072E7	0.0	2.0	8.05158912E8	50.899959564208984	0.0	0.0	1.062281216E9	1.050107904E9	0.0	null	0.07050000131130219	0.0507499985396862	0.04899999871850014	0.9917500019073486	0.7262936234474182	0.0	244.0	371.0	0.0	0.0	0.0	0.0	0.0	0.0	null	null	null	null	null	null	null	null	333.0	335.0	334.0	336.0	336.0	332.0	338.0	333.0	334.0	336.0	334.0	
Sat Jun 03 10:56:00 UTC 2017	1.0	1.048625152E9	3541.138916015625	0.0	2.5731072E7	0.0	3.0	8.05158912E8	46.83026885986328	0.0	0.0	1.062281216E9	1.050107904E9	0.0	0.0	0.08049999922513962	0.04625000059604645	0.04874999821186066	0.9917500019073486	0.7262955904006958	0.0	244.0	371.0	0.0	0.0	0.0	0.0	0.0	0.0	null	null	null	null	null	null	null	null	332.0	334.0	335.0	332.0	331.0	335.0	334.0	334.0	335.0	336.0	335.0	
Sat Jun 03 10:55:00 UTC 2017	0.0	1.048625152E9	2359.154296875	0.0	2.5731072E7	0.0	4.0	8.05036032E8	52.57421875	0.0	0.0	1.062281216E9	1.050107904E9	0.0	0.0	0.0689999982714653	0.0507499985396862	0.04600000008940697	0.9912499785423279	0.7263415455818176	0.0	244.0	371.0	0.0	0.0	0.0	0.0	0.0	0.0	null	null	null	null	null	null	null	null	335.0	332.0	333.0	338.0	336.0	336.0	335.0	333.0	333.0	333.0	333.0	
Sat Jun 03 10:54:00 UTC 2017	0.0	1.048625152E9	2718.005859375	0.0	2.5731072E7	0.0	4.0	8.0494592E8	52.57421875	0.0	0.0	1.062281216E9	1.050107904E9	0.0	0.0	0.07374999672174454	0.05400000140070915	0.04500000178813934	0.9915000200271606	0.7262588739395142	0.0	244.0	371.0	0.0	0.0	0.0	0.0	0.0	0.0	null	null	null	null	null	null	null	null	333.0	335.0	336.0	332.0	335.0	332.0	330.0	333.0	334.0	333.0	336.0	
Sat Jun 03 10:53:00 UTC 2017	1.0	1.049636864E9	2718.005859375	0.0	2.5731072E7	0.0	2.0	8.0494592E8	52.57421875	0.0	0.0	1.061269504E9	1.050107904E9	0.0	0.0	0.07050000131130219	0.05375000089406967	0.0507499985396862	0.9879999756813049	0.7262593507766724	0.0	244.0	371.0	0.0	0.0	0.0	0.0	0.0	0.0	null	null	null	null	null	null	null	null	331.0	329.0	330.0	331.0	331.0	332.0	336.0	331.0	333.0	333.0	330.0	
Sat Jun 03 10:52:00 UTC 2017	1.0	1.048625152E9	2718.005859375	0.0	2.5731072E7	0.0	2.0	8.0494592E8	52.57421875	0.0	0.0	1.062281216E9	1.050107904E9	0.0	0.0	0.0702499970793724	0.04475000128149986	0.04399999976158142	0.9912499785423279	0.7263146638870239	0.0	244.0	371.0	0.0	0.0	0.0	0.0	0.0	0.0	null	null	null	null	null	null	null	null	330.0	334.0	334.0	337.0	335.0	331.0	335.0	335.0	336.0	337.0	335.0	
Sat Jun 03 10:51:00 UTC 2017	1.0	1.048625152E9	2846.57666015625	0.0	2.5731072E7	0.0	2.0	8.0494592E8	47.97398376464844	0.0	0.0	1.062281216E9	1.050107904E9	0.0	0.0	0.10575000196695328	0.05525000020861626	0.04924999922513962	0.9912499785423279	0.7285065650939941	0.0	244.0	371.0	0.0	0.0	0.0	0.0	0.0	0.0	null	null	null	null	null	null	null	null	336.0	331.0	336.0	333.0	333.0	331.0	331.0	334.0	332.0	333.0	332.0	
Sat Jun 03 10:50:00 UTC 2017	1.0	1.048625152E9	2867.652099609375	0.0	2.5731072E7	0.0	2.0	8.0482304E8	35.583457946777344	0.0	0.0	1.061269504E9	1.050107904E9	0.0	0.0	0.07599999755620956	0.04800000041723251	0.04500000178813934	0.9915000200271606	0.7285051345825195	0.0	244.0	371.0	0.0	0.0	0.0	0.0	0.0	0.0	null	null	null	null	null	null	null	null	335.0	336.0	330.0	334.0	336.0	337.0	337.0	334.0	331.0	331.0	333.0	
Sat Jun 03 10:49:00 UTC 2017	1.0	1.049636864E9	2867.652099609375	0.0	2.5731072E7	0.0	2.0	8.04732928E8	35.583457946777344	0.0	0.0	1.061269504E9	1.050107904E9	0.0	null	0.06549999862909317	0.05025000125169754	0.051500000059604645	0.9912499785423279	0.726195752620697	0.0	244.0	371.0	0.0	0.0	0.0	0.0	0.0	0.0	null	null	null	null	null	null	null	null	333.0	332.0	334.0	334.0	335.0	332.0	334.0	331.0	336.0	334.0	338.0	
Sat Jun 03 10:48:00 UTC 2017	1.0	1.049636864E9	3173.905517578125	0.0	2.5731072E7	0.0	2.0	8.04732928E8	35.583457946777344	0.0	0.0	1.062281216E9	1.050107904E9	0.0	null	0.08174999803304672	0.057750001549720764	0.04774999991059303	0.9917500019073486	0.7269653677940369	0.0	244.0	371.0	0.0	0.0	0.0	0.0	0.0	0.0	null	null	null	null	null	null	null	null	333.0	333.0	333.0	333.0	333.0	335.0	335.0	332.0	334.0	337.0	334.0	
Sat Jun 03 10:47:00 UTC 2017	0.0	1.048625152E9	3173.905517578125	0.0	2.5731072E7	0.0	4.0	8.04732928E8	35.583457946777344	0.0	0.0	1.061269504E9	1.050107904E9	0.0	null	0.06849999725818634	0.04149999842047691	0.04874999821186066	0.9915000200271606	0.726155161857605	0.0	244.0	371.0	0.0	0.0	0.0	0.0	0.0	0.0	null	null	null	null	null	null	null	null	332.0	331.0	337.0	334.0	333.0	333.0	333.0	335.0	329.0	329.0	332.0	
Sat Jun 03 10:46:00 UTC 2017	1.0	1.048625152E9	2770.54833984375	0.0	2.5731072E7	0.0	3.0	8.04732928E8	50.648468017578125	0.0	0.0	1.062281216E9	1.050107904E9	0.0	null	0.07800000160932541	0.050999999046325684	0.04749999940395355	0.9915000200271606	0.7261502742767334	0.0	244.0	371.0	0.0	0.0	0.0	0.0	0.0	0.0	null	null	null	null	null	null	null	null	333.0	331.0	332.0	332.0	331.0	328.0	332.0	337.0	332.0	336.0	337.0	
Sat Jun 03 10:45:00 UTC 2017	1.0	1.049636864E9	2770.54833984375	0.0	2.5731072E7	0.0	4.0	8.04614144E8	50.648468017578125	0.0	0.0	1.062281216E9	1.050107904E9	0.0	null	0.07474999874830246	0.05025000125169754	0.045499999076128006	0.9915000200271606	0.7277692556381226	0.0	244.0	371.0	0.0	0.0	0.0	0.0	0.0	0.0	null	null	null	null	null	null	null	null	339.0	333.0	334.0	336.0	335.0	334.0	337.0	334.0	334.0	333.0	332.0	
Sat Jun 03 10:44:00 UTC 2017	0.0	1.048625152E9	2770.54833984375	0.0	2.5731072E7	0.0	3.0	8.04524032E8	38.02033615112305	0.0	0.0	1.061269504E9	1.050107904E9	0.0	null	0.07500000298023224	0.0507499985396862	0.05550000071525574	0.9919999837875366	0.7261238098144531	0.0	244.0	371.0	0.0	0.0	0.0	0.0	0.0	0.0	null	null	null	null	null	null	null	null	334.0	333.0	331.0	335.0	335.0	334.0	333.0	333.0	332.0	336.0	335.0	
Sat Jun 03 10:43:00 UTC 2017	0.0	1.048625152E9	2633.708984375	0.0	2.5731072E7	0.0	6.0	8.04528128E8	49.6063117980957	0.0	0.0	1.062281216E9	1.050107904E9	0.0	null	0.07074999809265137	0.05299999937415123	0.051750000566244125	0.9915000200271606	0.7261248230934143	0.0	244.0	371.0	0.0	0.0	0.0	0.0	0.0	0.0	null	null	null	null	null	null	null	null	332.0	336.0	336.0	332.0	335.0	334.0	336.0	338.0	332.0	332.0	333.0	
Sat Jun 03 10:42:00 UTC 2017	0.0	1.048625152E9	2764.809814453125	0.0	2.5731072E7	0.0	3.0	8.04528128E8	49.6063117980957	0.0	0.0	1.062281216E9	1.050107904E9	0.0	0.0	0.0702499970793724	0.05400000140070915	0.04450000077486038	0.9917500019073486	0.7270461320877075	0.0	244.0	371.0	0.0	0.0	0.0	0.0	0.0	0.0	null	null	null	null	null	null	null	null	333.0	333.0	332.0	335.0	334.0	334.0	335.0	336.0	332.0	335.0	335.0	
Sat Jun 03 10:41:00 UTC 2017	1.0	1.048625152E9	2751.48193359375	0.0	2.5731072E7	0.0	5.0	8.04864E8	49.6063117980957	0.0	0.0	1.061269504E9	1.050107904E9	0.0	0.0	0.09825000166893005	0.05225000157952309	0.04699999839067459	0.9917500019073486	0.7283676266670227	0.0	244.0	371.0	0.0	0.0	0.0	0.0	0.0	0.0	null	null	null	null	null	null	null	null	338.0	333.0	336.0	336.0	334.0	332.0	335.0	331.0	332.0	333.0	333.0	
Sat Jun 03 10:40:00 UTC 2017	1.0	1.048625152E9	2782.31201171875	0.0	2.5731072E7	0.0	4.0	8.04405248E8	72.19768524169922	0.0	0.0	1.062281216E9	1.050107904E9	0.0	0.0	0.07599999755620956	0.04724999889731407	0.04749999940395355	0.9917500019073486	0.7260773777961731	0.0	244.0	371.0	0.0	0.0	0.0	0.0	0.0	0.0	null	null	null	null	null	null	null	null	333.0	337.0	334.0	334.0	333.0	336.0	332.0	337.0	337.0	331.0	330.0	
Sat Jun 03 10:39:00 UTC 2017	0.0	1.049636864E9	2782.31201171875	0.0	2.5731072E7	0.0	7.0	8.04315136E8	72.19768524169922	0.0	0.0	1.062281216E9	1.050107904E9	0.0	null	0.08174999803304672	0.04724999889731407	0.05550000071525574	0.9915000200271606	0.7260617017745972	0.0	244.0	371.0	0.0	0.0	0.0	0.0	0.0	0.0	null	null	null	null	null	null	null	null	337.0	333.0	332.0	336.0	335.0	331.0	336.0	333.0	332.0	335.0	332.0	
Sat Jun 03 10:38:00 UTC 2017	0.0	1.048625152E9	2782.31201171875	0.0	2.5731072E7	0.0	2.0	8.04315136E8	37.73564910888672	0.0	0.0	1.061269504E9	1.050107904E9	0.0	null	0.07000000029802322	0.05550000071525574	0.04774999991059303	0.9915000200271606	0.7260524034500122	0.0	244.0	371.0	0.0	0.0	0.0	0.0	0.0	0.0	null	null	null	null	null	null	null	null	333.0	336.0	336.0	330.0	333.0	337.0	332.0	336.0	335.0	334.0	334.0	
Sat Jun 03 10:37:00 UTC 2017	0.0	1.048625152E9	3143.233642578125	0.0	2.5731072E7	0.0	2.0	8.04315136E8	40.03538131713867	0.0	0.0	1.061269504E9	1.050107904E9	0.0	0.0	0.06949999928474426	0.04749999940395355	0.04574999958276749	0.9917500019073486	0.7282981276512146	0.0	244.0	371.0	0.0	0.0	0.0	0.0	0.0	0.0	null	null	null	null	null	null	null	null	333.0	331.0	335.0	335.0	336.0	333.0	335.0	330.0	331.0	330.0	331.0	
Sat Jun 03 10:36:00 UTC 2017	0.0	1.048625152E9	2698.423828125	0.0	2.5731072E7	0.0	2.0	8.04315136E8	40.03538131713867	0.0	0.0	1.061269504E9	1.050107904E9	0.0	0.0	0.08250000327825546	0.051750000566244125	0.04500000178813934	0.9917500019073486	0.7259648442268372	0.0	244.0	371.0	0.0	0.0	0.0	0.0	0.0	0.0	null	null	null	null	null	null	null	null	334.0	337.0	332.0	334.0	329.0	328.0	335.0	336.0	334.0	332.0	332.0	
Sat Jun 03 10:35:00 UTC 2017	0.0	1.049636864E9	2698.423828125	0.0	2.5731072E7	0.0	3.0	8.04192256E8	40.03538131713867	0.0	0.0	1.061269504E9	1.050107904E9	0.0	0.0	0.06724999845027924	0.04874999821186066	0.05000000074505806	0.9917500019073486	0.7259467244148254	0.0	244.0	371.0	0.0	0.0	0.0	0.0	0.0	0.0	null	null	null	null	null	null	null	null	334.0	333.0	337.0	335.0	333.0	334.0	332.0	335.0	332.0	332.0	334.0	
Sat Jun 03 10:34:00 UTC 2017	1.0	1.048625152E9	2698.423828125	0.0	2.5731072E7	0.0	2.0	8.04102144E8	40.03538131713867	0.0	0.0	1.061269504E9	1.050107904E9	0.0	0.0	0.08025000244379044	0.05375000089406967	0.04975000023841858	0.9912499785423279	0.7266101837158203	0.0	244.0	371.0	0.0	0.0	0.0	0.0	0.0	0.0	null	null	null	null	null	null	null	null	333.0	332.0	330.0	335.0	335.0	332.0	335.0	335.0	334.0	331.0	332.0	
Sat Jun 03 10:33:00 UTC 2017	1.0	1.048625152E9	3053.356689453125	0.0	2.5731072E7	0.0	2.0	8.04102144E8	34.50395584106445	0.0	0.0	1.062281216E9	1.050107904E9	0.0	0.0	0.06825000047683716	0.04650000110268593	0.04475000128149986	0.9912499785423279	0.7259432673454285	0.0	244.0	371.0	0.0	0.0	0.0	0.0	0.0	0.0	null	null	null	null	null	null	null	null	333.0	335.0	335.0	332.0	331.0	335.0	331.0	332.0	336.0	335.0	336.0	
Sat Jun 03 10:32:00 UTC 2017	1.0	1.049636864E9	3053.356689453125	0.0	2.5731072E7	0.0	2.0	8.04102144E8	31.076431274414062	0.0	0.0	1.062281216E9	1.050107904E9	0.0	0.0	0.07625000178813934	0.051750000566244125	0.04600000008940697	0.9915000200271606	0.7282071709632874	0.0	244.0	371.0	0.0	0.0	0.0	0.0	0.0	0.0	null	null	null	null	null	null	null	null	330.0	334.0	334.0	334.0	335.0	330.0	334.0	335.0	330.0	331.0	331.0	
Sat Jun 03 10:31:00 UTC 2017	1.0	1.048625152E9	3053.356689453125	0.0	2.5731072E7	0.0	3.0	8.04102144E8	58.69717025756836	0.0	0.0	1.062281216E9	1.050107904E9	0.0	null	0.10350000113248825	0.05025000125169754	0.05000000074505806	0.9915000200271606	0.7258997559547424	0.0	244.0	371.0	0.0	0.0	0.0	0.0	0.0	0.0	null	null	null	null	null	null	null	null	334.0	334.0	330.0	336.0	333.0	334.0	332.0	332.0	335.0	332.0	335.0	
Sat Jun 03 10:30:00 UTC 2017	0.0	1.048625152E9	2573.5517578125	0.0	2.5731072E7	0.0	2.0	8.03979264E8	47.04701614379883	0.0	0.0	1.062281216E9	1.050107904E9	0.0	0.0	0.0689999982714653	0.04749999940395355	0.05050000175833702	0.9917500019073486	0.7282418608665466	0.0	244.0	371.0	0.0	0.0	0.0	0.0	0.0	0.0	null	null	null	null	null	null	null	null	334.0	336.0	336.0	332.0	335.0	337.0	333.0	334.0	332.0	336.0	331.0	
Sat Jun 03 10:29:00 UTC 2017	1.0	1.048625152E9	2957.478515625	0.0	2.5731072E7	0.0	2.0	8.03889152E8	47.04701614379883	0.0	0.0	1.062281216E9	1.050107904E9	0.0	0.0	0.07750000059604645	0.05400000140070915	0.04899999871850014	0.9917500019073486	0.7258816361427307	0.0	244.0	371.0	0.0	0.0	0.0	0.0	0.0	0.0	null	null	null	null	null	null	null	null	336.0	334.0	333.0	334.0	333.0	332.0	335.0	332.0	334.0	333.0	336.0	
Sat Jun 03 10:28:00 UTC 2017	0.0	1.049636864E9	2957.478515625	0.0	2.5731072E7	0.0	2.0	8.03889152E8	47.04701614379883	0.0	0.0	1.061269504E9	1.050107904E9	0.0	0.0	0.0702499970793724	0.048250000923871994	0.042750000953674316	0.9917500019073486	0.7258586287498474	0.0	244.0	371.0	0.0	0.0	0.0	0.0	0.0	0.0	null	null	null	null	null	null	null	null	334.0	333.0	333.0	336.0	337.0	335.0	335.0	334.0	336.0	333.0	332.0	
Sat Jun 03 10:27:00 UTC 2017	0.0	1.049636864E9	2694.853759765625	0.0	2.5731072E7	0.0	2.0	8.03889152E8	47.04701614379883	0.0	0.0	1.062281216E9	1.050107904E9	0.0	0.0	0.07225000113248825	0.04774999991059303	0.04874999821186066	0.9919999837875366	0.7281230092048645	0.0	244.0	371.0	0.0	0.0	0.0	0.0	0.0	0.0	null	null	null	null	null	null	null	null	334.0	335.0	335.0	333.0	334.0	335.0	334.0	337.0	333.0	334.0	334.0	
Sat Jun 03 10:26:00 UTC 2017	0.0	1.048625152E9	2694.853759765625	0.0	2.5731072E7	0.0	2.0	8.03889152E8	41.11066436767578	0.0	0.0	1.062281216E9	1.050107904E9	0.0	null	0.07750000059604645	0.05575000122189522	0.04650000110268593	0.9919999837875366	0.7258386015892029	0.0	244.0	371.0	0.0	0.0	0.0	0.0	0.0	0.0	null	null	null	null	null	null	null	null	332.0	336.0	333.0	335.0	335.0	334.0	335.0	334.0	334.0	336.0	335.0	
Sat Jun 03 10:25:00 UTC 2017	0.0	1.048625152E9	2490.8037109375	0.0	2.5731072E7	0.0	2.0	8.03766272E8	41.11066436767578	0.0	0.0	1.062281216E9	1.050107904E9	0.0	null	0.07975000143051147	0.04975000023841858	0.048500001430511475	0.9919999837875366	0.7258096933364868	0.0	244.0	371.0	0.0	0.0	0.0	0.0	0.0	0.0	null	null	null	null	null	null	null	null	336.0	331.0	333.0	336.0	333.0	335.0	334.0	335.0	336.0	332.0	336.0	
Sat Jun 03 10:24:00 UTC 2017	0.0	1.048625152E9	3016.64990234375	0.0	2.5731072E7	0.0	2.0	8.0367616E8	41.11066436767578	0.0	0.0	1.062281216E9	1.050107904E9	0.0	null	0.0689999982714653	0.05274999886751175	0.0507499985396862	0.9919999837875366	0.7258087396621704	0.0	244.0	371.0	0.0	0.0	0.0	0.0	0.0	0.0	null	null	null	null	null	null	null	null	331.0	337.0	337.0	333.0	335.0	337.0	336.0	332.0	332.0	334.0	334.0	
Sat Jun 03 10:23:00 UTC 2017	0.0	1.048625152E9	2683.350830078125	0.0	2.5731072E7	0.0	7.0	8.0367616E8	41.11066436767578	0.0	0.0	1.061269504E9	1.050107904E9	0.0	null	0.08275000005960464	0.04724999889731407	0.04349999874830246	0.9919999837875366	0.72639000415802	0.0	244.0	371.0	0.0	0.0	0.0	0.0	0.0	0.0	null	null	null	null	null	null	null	null	338.0	337.0	334.0	338.0	335.0	336.0	330.0	336.0	335.0	334.0	335.0	
Sat Jun 03 10:22:00 UTC 2017	0.0	1.049636864E9	2683.350830078125	0.0	2.5731072E7	0.0	4.0	8.0367616E8	48.1457405090332	0.0	0.0	1.061269504E9	1.050107904E9	0.0	null	0.07000000029802322	0.05375000089406967	0.04874999821186066	0.9919999837875366	0.7257720232009888	0.0	244.0	371.0	0.0	0.0	0.0	0.0	0.0	0.0	null	null	null	null	null	null	null	null	332.0	332.0	332.0	333.0	333.0	331.0	335.0	332.0	335.0	337.0	336.0	
Sat Jun 03 10:21:00 UTC 2017	0.0	1.048625152E9	2683.350830078125	0.0	2.5731072E7	0.0	4.0	8.0367616E8	48.1457405090332	0.0	0.0	1.061269504E9	1.050107904E9	0.0	0.0	0.10175000131130219	0.0494999997317791	0.04800000041723251	0.9915000200271606	0.7257236242294312	0.0	244.0	371.0	0.0	0.0	0.0	0.0	0.0	0.0	null	null	null	null	null	null	null	null	335.0	334.0	336.0	333.0	336.0	338.0	337.0	335.0	332.0	336.0	333.0	
Sat Jun 03 10:20:00 UTC 2017	0.0	1.048625152E9	2427.85546875	0.0	2.5731072E7	0.0	2.0	8.0355328E8	48.1457405090332	0.0	0.0	1.062281216E9	1.050107904E9	0.0	0.0	0.07050000131130219	0.051500000059604645	0.05274999886751175	0.9917500019073486	0.7257059812545776	0.0	244.0	371.0	0.0	0.0	0.0	0.0	0.0	0.0	null	null	null	null	null	null	null	null	334.0	333.0	333.0	336.0	337.0	331.0	333.0	338.0	340.0	331.0	334.0	
Sat Jun 03 10:19:00 UTC 2017	0.0	1.048625152E9	2486.42529296875	0.0	2.5731072E7	0.0	2.0	8.03463168E8	48.1457405090332	0.0	0.0	1.061269504E9	1.050107904E9	0.0	0.0	0.07150000333786011	0.051750000566244125	0.04625000059604645	0.9915000200271606	0.7256898283958435	0.0	244.0	371.0	0.0	0.0	0.0	0.0	0.0	0.0	null	null	null	null	null	null	null	null	331.0	334.0	334.0	331.0	334.0	334.0	333.0	334.0	334.0	335.0	333.0	
Sat Jun 03 10:18:00 UTC 2017	1.0	1.049636864E9	2486.42529296875	0.0	2.5731072E7	0.0	4.0	8.03463168E8	48.1457405090332	0.0	0.0	1.062281216E9	1.050107904E9	0.0	0.0	0.07349999994039536	0.04625000059604645	0.04450000077486038	0.9909999966621399	0.72785484790802	0.0	244.0	371.0	0.0	0.0	0.0	0.0	0.0	0.0	null	null	null	null	null	null	null	null	332.0	333.0	334.0	334.0	334.0	332.0	332.0	330.0	335.0	335.0	332.0	
Sat Jun 03 10:17:00 UTC 2017	1.0	1.048625152E9	2486.42529296875	0.0	2.5731072E7	0.0	2.0	8.03463168E8	40.69704055786133	0.0	0.0	1.062281216E9	1.050107904E9	0.0	0.0	0.07500000298023224	0.054749999195337296	0.04774999991059303	0.9915000200271606	0.7256712317466736	0.0	244.0	371.0	0.0	0.0	0.0	0.0	0.0	0.0	null	null	null	null	null	null	null	null	335.0	333.0	330.0	334.0	332.0	336.0	335.0	335.0	334.0	332.0	336.0	
Sat Jun 03 10:16:00 UTC 2017	1.0	1.049636864E9	2486.42529296875	0.0	2.5731072E7	0.0	2.0	8.03463168E8	45.96750259399414	1.0	1.0	1.062281216E9	1.050107904E9	0.0	0.0	0.0820000022649765	0.05274999886751175	0.05225000157952309	0.9907500147819519	0.7256423830986023	0.0	244.0	371.0	0.0	0.0	0.0	0.0	0.0	0.0	null	null	null	null	null	null	null	null	333.0	335.0	330.0	336.0	330.0	331.0	330.0	329.0	332.0	334.0	335.0	
Sat Jun 03 10:15:00 UTC 2017	1.0	1.048625152E9	2486.42529296875	0.0	2.5731072E7	0.0	2.0	8.03340288E8	45.96750259399414	0.0	0.0	1.061269504E9	1.050107904E9	0.0	0.0	0.06925000250339508	0.04625000059604645	0.0430000014603138	0.9915000200271606	0.7266008853912354	0.0	244.0	371.0	0.0	0.0	0.0	0.0	0.0	0.0	null	null	null	null	null	null	null	null	337.0	335.0	334.0	332.0	335.0	333.0	334.0	336.0	334.0	336.0	334.0	
Sat Jun 03 10:14:00 UTC 2017	0.0	1.048625152E9	3042.150146484375	0.0	2.5731072E7	0.0	3.0	8.03250176E8	36.693729400634766	0.0	0.0	1.062281216E9	1.050107904E9	0.0	0.0	0.08025000244379044	0.04899999871850014	0.05249999836087227	0.9915000200271606	0.7256379723548889	0.0	244.0	371.0	0.0	0.0	0.0	0.0	0.0	0.0	null	null	null	null	null	null	null	null	333.0	335.0	333.0	334.0	330.0	335.0	338.0	332.0	332.0	333.0	333.0	
Sat Jun 03 10:13:00 UTC 2017	0.0	1.048625152E9	2626.678466796875	0.0	2.5731072E7	0.0	3.0	8.03250176E8	36.35951232910156	0.0	0.0	1.061269504E9	1.050107904E9	0.0	0.0	0.06825000047683716	0.05274999886751175	0.04324999824166298	0.9915000200271606	0.725622832775116	0.0	244.0	371.0	0.0	0.0	0.0	0.0	0.0	0.0	null	null	null	null	null	null	null	null	333.0	334.0	333.0	334.0	337.0	335.0	333.0	332.0	337.0	331.0	339.0	
Sat Jun 03 10:12:00 UTC 2017	0.0	1.048625152E9	2605.875244140625	0.0	2.5731072E7	0.0	4.0	8.03250176E8	36.35951232910156	0.0	0.0	1.062281216E9	1.050107904E9	0.0	0.0	0.07249999791383743	0.054999999701976776	0.04899999871850014	0.9862499833106995	0.7256051898002625	0.0	244.0	371.0	0.0	0.0	0.0	0.0	0.0	0.0	null	null	null	null	null	null	null	null	328.0	336.0	331.0	328.0	331.0	332.0	332.0	331.0	330.0	332.0	330.0	
Sat Jun 03 10:11:00 UTC 2017	1.0	1.049636864E9	2605.875244140625	0.0	2.5731072E7	0.0	3.0	8.03250176E8	51.47975158691406	0.0	0.0	1.061269504E9	1.050107904E9	0.0	0.0	0.09749999642372131	0.05025000125169754	0.04450000077486038	0.9909999966621399	0.7256081104278564	0.0	244.0	371.0	0.0	0.0	0.0	0.0	0.0	0.0	null	null	null	null	null	null	null	null	333.0	335.0	332.0	336.0	336.0	332.0	330.0	333.0	332.0	334.0	336.0	
Sat Jun 03 10:10:00 UTC 2017	0.0	1.048625152E9	2605.875244140625	0.0	2.5731072E7	0.0	3.0	8.03393536E8	50.218196868896484	0.0	0.0	1.062281216E9	1.050107904E9	0.0	0.0	0.07999999821186066	0.0494999997317791	0.05249999836087227	0.9909999966621399	0.7255920171737671	0.0	244.0	371.0	0.0	0.0	0.0	0.0	0.0	0.0	null	null	null	null	null	null	null	null	334.0	332.0	330.0	336.0	332.0	332.0	335.0	333.0	333.0	331.0	330.0	
Sat Jun 03 10:09:00 UTC 2017	1.0	1.049636864E9	2605.875244140625	0.0	2.5731072E7	0.0	3.0	8.02955264E8	50.218196868896484	0.0	0.0	1.062281216E9	1.050107904E9	0.0	0.0	0.07874999940395355	0.04450000077486038	0.04475000128149986	0.9912499785423279	0.7255812287330627	0.0	244.0	371.0	0.0	0.0	0.0	0.0	0.0	0.0	null	null	null	null	null	null	null	null	335.0	335.0	333.0	333.0	333.0	338.0	332.0	338.0	337.0	333.0	334.0	
Sat Jun 03 10:08:00 UTC 2017	1.0	1.048625152E9	2605.875244140625	0.0	2.5731072E7	0.0	3.0	8.02955264E8	50.218196868896484	0.0	0.0	1.062281216E9	1.050107904E9	0.0	0.0	0.0689999982714653	0.05274999886751175	0.0494999997317791	0.9915000200271606	0.7256531715393066	0.0	244.0	371.0	0.0	0.0	0.0	0.0	0.0	0.0	null	null	null	null	null	null	null	null	333.0	331.0	333.0	330.0	330.0	331.0	332.0	331.0	328.0	330.0	337.0	
Sat Jun 03 10:07:00 UTC 2017	1.0	1.048625152E9	2485.04833984375	0.0	2.5731072E7	0.0	5.0	8.02955264E8	50.218196868896484	0.0	0.0	1.061269504E9	1.050107904E9	0.0	0.0	0.0807500034570694	0.04874999821186066	0.04924999922513962	0.9912499785423279	0.7277942299842834	0.0	244.0	371.0	0.0	0.0	0.0	0.0	0.0	0.0	null	null	null	null	null	null	null	null	333.0	331.0	331.0	330.0	332.0	335.0	334.0	335.0	334.0	331.0	333.0	
Sat Jun 03 10:06:00 UTC 2017	1.0	1.048625152E9	3338.225341796875	0.0	2.5731072E7	0.0	4.0	8.02955264E8	50.218196868896484	0.0	0.0	1.061269504E9	1.050107904E9	0.0	0.0	0.06300000101327896	0.054999999701976776	0.04699999839067459	0.9915000200271606	0.7273939847946167	0.0	244.0	371.0	0.0	0.0	0.0	0.0	0.0	0.0	null	null	null	null	null	null	null	null	333.0	335.0	333.0	333.0	336.0	332.0	331.0	333.0	332.0	335.0	334.0	
Sat Jun 03 10:05:00 UTC 2017	0.0	1.048625152E9	2570.358154296875	0.0	2.5731072E7	0.0	2.0	8.0283648E8	43.63777160644531	0.0	1.0	1.062281216E9	1.050107904E9	0.0	0.0	0.07275000214576721	0.0507499985396862	0.04475000128149986	0.9915000200271606	0.7255181074142456	0.0	244.0	371.0	0.0	0.0	0.0	0.0	0.0	0.0	null	null	null	null	null	null	null	null	335.0	332.0	336.0	334.0	331.0	336.0	334.0	335.0	337.0	334.0	334.0	
Sat Jun 03 10:04:00 UTC 2017	0.0	1.048625152E9	2837.3974609375	0.0	2.5731072E7	0.0	2.0	8.02742272E8	43.63777160644531	0.0	0.0	1.061269504E9	1.050107904E9	0.0	0.0	0.08124999701976776	0.04924999922513962	0.04399999976158142	0.9917500019073486	0.7255191206932068	0.0	244.0	371.0	0.0	0.0	0.0	0.0	0.0	0.0	null	null	null	null	null	null	null	null	330.0	336.0	332.0	335.0	336.0	330.0	335.0	332.0	335.0	334.0	335.0	
Sat Jun 03 10:03:00 UTC 2017	1.0	1.049636864E9	2837.3974609375	0.0	2.5731072E7	0.0	3.0	8.02742272E8	68.98596954345703	1.0	0.0	1.061269504E9	1.050107904E9	0.0	0.0	0.06875000149011612	0.05400000140070915	0.05025000125169754	0.9915000200271606	0.7255039215087891	0.0	244.0	371.0	0.0	0.0	0.0	0.0	0.0	0.0	null	null	null	null	null	null	null	null	334.0	333.0	332.0	332.0	333.0	334.0	333.0	335.0	331.0	331.0	332.0	
Sat Jun 03 10:02:00 UTC 2017	1.0	1.049636864E9	2576.9267578125	0.0	2.5731072E7	0.0	5.0	8.02742272E8	39.90192413330078	0.0	0.0	1.062281216E9	1.050107904E9	0.0	0.0	0.07599999755620956	0.051249999552965164	0.042500000447034836	0.9915000200271606	0.7255058884620667	0.0	244.0	371.0	0.0	0.0	0.0	0.0	0.0	0.0	null	null	null	null	null	null	null	null	330.0	337.0	335.0	334.0	336.0	334.0	334.0	334.0	331.0	335.0	333.0	
Sat Jun 03 10:01:00 UTC 2017	1.0	1.048625152E9	2576.9267578125	0.0	2.5731072E7	0.0	4.0	8.02742272E8	77.6787338256836	0.0	0.0	1.061269504E9	1.050107904E9	0.0	0.0	0.10450000315904617	0.045499999076128006	0.05324999988079071	0.9912499785423279	0.7254906892776489	0.0	244.0	371.0	0.0	0.0	0.0	0.0	0.0	0.0	null	null	null	null	null	null	null	null	334.0	329.0	331.0	334.0	331.0	335.0	328.0	336.0	334.0	331.0	333.0	
Sat Jun 03 10:00:00 UTC 2017	1.0	1.048625152E9	2718.0224609375	0.0	2.5731072E7	0.0	4.0	8.02619392E8	29.3955078125	0.0	0.0	1.062281216E9	1.050107904E9	0.0	0.0	0.07000000029802322	0.054499998688697815	0.04749999940395355	0.9879999756813049	0.7254735827445984	0.0	244.0	371.0	0.0	0.0	0.0	0.0	0.0	0.0	null	null	null	null	null	null	null	null	326.0	335.0	333.0	334.0	335.0	329.0	331.0	333.0	333.0	334.0	335.0	
Sat Jun 03 09:59:00 UTC 2017	1.0	1.048625152E9	2511.4013671875	0.0	2.5731072E7	0.0	4.0	8.0252928E8	29.3955078125	0.0	0.0	1.062281216E9	1.050107904E9	0.0	null	0.07225000113248825	0.04899999871850014	0.04500000178813934	0.9907500147819519	0.7254745960235596	0.0	244.0	371.0	0.0	0.0	0.0	0.0	0.0	0.0	null	null	null	null	null	null	null	null	334.0	334.0	330.0	329.0	333.0	336.0	335.0	332.0	330.0	333.0	334.0	
Sat Jun 03 09:58:00 UTC 2017	1.0	1.048625152E9	2407.226318359375	0.0	2.5731072E7	0.0	3.0	8.0252928E8	29.3955078125	0.0	0.0	1.061269504E9	1.050107904E9	0.0	null	0.07850000262260437	0.051750000566244125	0.04749999940395355	0.9872499704360962	0.7254574298858643	0.0	244.0	371.0	0.0	0.0	0.0	0.0	0.0	0.0	null	null	null	null	null	null	null	null	333.0	329.0	333.0	333.0	332.0	332.0	328.0	333.0	333.0	332.0	327.0	
Sat Jun 03 09:57:00 UTC 2017	1.0	1.049636864E9	2407.226318359375	0.0	2.5731072E7	0.0	3.0	8.0252928E8	34.382896423339844	0.0	0.0	1.062281216E9	1.050107904E9	0.0	null	0.06475000083446503	0.045499999076128006	0.04749999940395355	0.9887499809265137	0.7254613637924194	0.0	244.0	371.0	0.0	0.0	0.0	0.0	0.0	0.0	null	null	null	null	null	null	null	null	335.0	333.0	334.0	334.0	334.0	329.0	332.0	332.0	333.0	335.0	335.0	
Sat Jun 03 09:56:00 UTC 2017	1.0	1.049636864E9	2800.391357421875	0.0	2.5731072E7	0.0	3.0	8.02865152E8	34.382896423339844	0.0	0.0	1.062281216E9	1.050107904E9	0.0	0.0	0.08275000005960464	0.05324999988079071	0.051500000059604645	0.9857500195503235	0.7254608869552612	0.0	244.0	371.0	0.0	0.0	0.0	0.0	0.0	0.0	null	null	null	null	null	null	null	null	332.0	332.0	326.0	329.0	330.0	335.0	334.0	331.0	331.0	331.0	334.0	
Sat Jun 03 09:55:00 UTC 2017	1.0	1.048625152E9	2800.391357421875	0.0	2.5731072E7	0.0	2.0	8.024064E8	34.382896423339844	0.0	0.0	1.061269504E9	1.050107904E9	0.0	0.0	0.06599999964237213	0.05575000122189522	0.04399999976158142	0.9912499785423279	0.7254432439804077	0.0	244.0	371.0	0.0	0.0	0.0	0.0	0.0	0.0	null	null	null	null	null	null	null	null	331.0	334.0	336.0	334.0	335.0	333.0	333.0	333.0	331.0	330.0	334.0	
Sat Jun 03 09:54:00 UTC 2017	1.0	1.048625152E9	2497.93701171875	0.0	2.5731072E7	0.0	2.0	8.02316288E8	46.53656005859375	0.0	0.0	1.062281216E9	1.050107904E9	0.0	0.0	0.07925000041723251	0.04749999940395355	0.04699999839067459	0.9907500147819519	0.7254124283790588	0.0	244.0	371.0	0.0	0.0	0.0	0.0	0.0	0.0	null	null	null	null	null	null	null	null	335.0	332.0	332.0	333.0	334.0	331.0	330.0	331.0	335.0	334.0	334.0	
Sat Jun 03 09:53:00 UTC 2017	1.0	1.049636864E9	2497.93701171875	0.0	2.5731072E7	0.0	2.0	8.02316288E8	46.53656005859375	0.0	0.0	1.062281216E9	1.050107904E9	0.0	0.0	0.06800000369548798	0.04975000023841858	0.04600000008940697	0.9865000247955322	0.7253977656364441	0.0	244.0	371.0	0.0	0.0	0.0	0.0	0.0	0.0	null	null	null	null	null	null	null	null	329.0	331.0	331.0	334.0	332.0	336.0	332.0	330.0	330.0	333.0	331.0	
Sat Jun 03 09:52:00 UTC 2017	1.0	1.048625152E9	2497.93701171875	0.0	2.5731072E7	0.0	2.0	8.02316288E8	51.36449432373047	0.0	0.0	1.062281216E9	1.050107904E9	0.0	null	0.08124999701976776	0.050999999046325684	0.04924999922513962	0.9912499785423279	0.7253855466842651	0.0	244.0	371.0	0.0	0.0	0.0	0.0	0.0	0.0	null	null	null	null	null	null	null	null	335.0	335.0	334.0	335.0	334.0	331.0	336.0	333.0	334.0	332.0	333.0	
Sat Jun 03 09:51:00 UTC 2017	0.0	1.049636864E9	2497.93701171875	0.0	2.5731072E7	0.0	2.0	8.02316288E8	51.36449432373047	0.0	0.0	1.061269504E9	1.050107904E9	0.0	null	0.09399999678134918	0.04749999940395355	0.04774999991059303	0.9912499785423279	0.7252050042152405	0.0	244.0	371.0	0.0	0.0	0.0	0.0	0.0	0.0	null	null	null	null	null	null	null	null	331.0	332.0	336.0	334.0	333.0	337.0	334.0	338.0	333.0	333.0	333.0	
Sat Jun 03 09:50:00 UTC 2017	0.0	1.049636864E9	2976.998779296875	0.0	2.5731072E7	0.0	3.0	8.02197504E8	51.36449432373047	0.0	0.0	1.062281216E9	1.050107904E9	0.0	null	0.07275000214576721	0.05025000125169754	0.04774999991059303	0.9917500019073486	0.7251824736595154	0.0	244.0	371.0	0.0	0.0	0.0	0.0	0.0	0.0	null	null	null	null	null	null	null	null	337.0	331.0	334.0	337.0	333.0	332.0	331.0	332.0	332.0	334.0	332.0	
Sat Jun 03 09:49:00 UTC 2017	0.0	1.048625152E9	2976.998779296875	0.0	2.5731072E7	0.0	2.0	8.02107392E8	51.36449432373047	0.0	0.0	1.061269504E9	1.050107904E9	0.0	null	0.07074999809265137	0.04975000023841858	0.04749999940395355	0.9915000200271606	0.7252495288848877	0.0	244.0	371.0	0.0	0.0	0.0	0.0	0.0	0.0	null	null	null	null	null	null	null	null	335.0	334.0	336.0	335.0	337.0	332.0	338.0	338.0	336.0	333.0	334.0	
Sat Jun 03 09:48:00 UTC 2017	0.0	1.048625152E9	2765.986572265625	0.0	2.5731072E7	0.0	5.0	8.02107392E8	51.36449432373047	0.0	0.0	1.061269504E9	1.050107904E9	0.0	null	0.07724999636411667	0.052000001072883606	0.04574999958276749	0.9915000200271606	0.7252225875854492	0.0	244.0	371.0	0.0	0.0	0.0	0.0	0.0	0.0	null	null	null	null	null	null	null	null	334.0	334.0	332.0	334.0	334.0	336.0	334.0	332.0	334.0	333.0	333.0	
Sat Jun 03 09:47:00 UTC 2017	0.0	1.049636864E9	2765.986572265625	0.0	2.5731072E7	0.0	5.0	8.02107392E8	66.38438415527344	0.0	0.0	1.061269504E9	1.050107904E9	0.0	0.0	0.0689999982714653	0.04774999991059303	0.0494999997317791	0.9915000200271606	0.7259594202041626	0.0	244.0	371.0	0.0	0.0	0.0	0.0	0.0	0.0	null	null	null	null	null	null	null	null	330.0	337.0	333.0	334.0	333.0	336.0	337.0	332.0	334.0	332.0	337.0	
Sat Jun 03 09:46:00 UTC 2017	0.0	1.048625152E9	2765.986572265625	0.0	2.5731072E7	0.0	3.0	8.02107392E8	52.804866790771484	0.0	0.0	1.061269504E9	1.050107904E9	0.0	null	0.07474999874830246	0.054499998688697815	0.0494999997317791	0.9915000200271606	0.7251908183097839	0.0	244.0	371.0	0.0	0.0	0.0	0.0	0.0	0.0	null	null	null	null	null	null	null	null	332.0	334.0	335.0	333.0	334.0	332.0	333.0	337.0	334.0	336.0	333.0	
Sat Jun 03 09:45:00 UTC 2017	0.0	1.048625152E9	2545.054443359375	0.0	2.5731072E7	0.0	3.0	8.01984512E8	52.804866790771484	0.0	0.0	1.062281216E9	1.050107904E9	0.0	null	0.08100000023841858	0.04975000023841858	0.048250000923871994	0.9917500019073486	0.726499617099762	0.0	244.0	371.0	0.0	0.0	0.0	0.0	0.0	0.0	null	null	null	null	null	null	null	null	339.0	333.0	334.0	336.0	332.0	332.0	339.0	331.0	334.0	334.0	332.0	
Sat Jun 03 09:44:00 UTC 2017	0.0	1.049636864E9	2545.054443359375	0.0	2.5731072E7	0.0	2.0	8.018944E8	52.804866790771484	0.0	0.0	1.062281216E9	1.050107904E9	0.0	null	0.06975000351667404	0.0494999997317791	0.04899999871850014	0.9919999837875366	0.7275255918502808	0.0	244.0	371.0	0.0	0.0	0.0	0.0	0.0	0.0	null	null	null	null	null	null	null	null	333.0	333.0	336.0	332.0	338.0	338.0	334.0	336.0	332.0	334.0	338.0	
Sat Jun 03 09:43:00 UTC 2017	0.0	1.049636864E9	3117.363037109375	0.0	2.5731072E7	0.0	3.0	8.018944E8	42.648536682128906	0.0	0.0	1.062281216E9	1.050107904E9	0.0	null	0.0742499977350235	0.054499998688697815	0.04574999958276749	0.9917500019073486	0.7252172231674194	0.0	244.0	371.0	0.0	0.0	0.0	0.0	0.0	0.0	null	null	null	null	null	null	null	null	336.0	332.0	336.0	339.0	331.0	331.0	333.0	335.0	338.0	334.0	330.0	
Sat Jun 03 09:42:00 UTC 2017	0.0	1.049636864E9	2914.937255859375	0.0	2.5731072E7	0.0	2.0	8.018944E8	42.648536682128906	0.0	0.0	1.062281216E9	1.050107904E9	0.0	0.0	0.07625000178813934	0.045499999076128006	0.04800000041723251	0.9917500019073486	0.7252338528633118	0.0	244.0	371.0	0.0	0.0	0.0	0.0	0.0	0.0	null	null	null	null	null	null	null	null	331.0	333.0	333.0	335.0	335.0	332.0	334.0	338.0	331.0	330.0	339.0	
Sat Jun 03 09:41:00 UTC 2017	0.0	1.049636864E9	3344.270751953125	0.0	2.5731072E7	0.0	4.0	8.018944E8	54.802162170410156	0.0	0.0	1.062281216E9	1.050107904E9	0.0	null	0.09825000166893005	0.05225000157952309	0.05025000125169754	0.9915000200271606	0.7252143025398254	0.0	244.0	371.0	0.0	0.0	0.0	0.0	0.0	0.0	null	null	null	null	null	null	null	null	334.0	333.0	333.0	333.0	334.0	334.0	332.0	331.0	336.0	336.0	332.0	
Sat Jun 03 09:40:00 UTC 2017	0.0	1.048625152E9	3344.270751953125	0.0	2.5731072E7	0.0	5.0	8.0177152E8	47.00316619873047	0.0	0.0	1.061269504E9	1.050107904E9	0.0	null	0.07374999672174454	0.04774999991059303	0.04475000128149986	0.9917500019073486	0.7252118587493896	0.0	244.0	371.0	0.0	0.0	0.0	0.0	0.0	0.0	null	null	null	null	null	null	null	null	334.0	334.0	334.0	335.0	336.0	334.0	336.0	335.0	336.0	334.0	333.0	
Sat Jun 03 09:39:00 UTC 2017	0.0	1.048625152E9	2546.251220703125	0.0	2.5731072E7	0.0	5.0	8.01681408E8	35.59393310546875	0.0	0.0	1.062281216E9	1.050107904E9	0.0	null	0.06800000369548798	0.04724999889731407	0.04874999821186066	0.9917500019073486	0.7261086702346802	0.0	244.0	371.0	0.0	0.0	0.0	0.0	0.0	0.0	null	null	null	null	null	null	null	null	334.0	336.0	336.0	333.0	330.0	331.0	333.0	334.0	335.0	332.0	335.0	
Sat Jun 03 09:38:00 UTC 2017	0.0	1.048625152E9	3450.257080078125	0.0	2.5731072E7	0.0	5.0	8.01681408E8	35.59393310546875	0.0	0.0	1.062281216E9	1.050107904E9	0.0	0.0	0.07925000041723251	0.05624999850988388	0.04874999821186066	0.9915000200271606	0.7251864075660706	0.0	244.0	371.0	0.0	0.0	0.0	0.0	0.0	0.0	null	null	null	null	null	null	null	null	335.0	331.0	330.0	332.0	332.0	335.0	331.0	334.0	333.0	335.0	335.0	
Sat Jun 03 09:37:00 UTC 2017	1.0	1.049636864E9	3450.257080078125	0.0	2.5731072E7	0.0	3.0	8.01681408E8	35.59393310546875	0.0	0.0	1.062281216E9	1.050107904E9	0.0	0.0	0.06475000083446503	0.04475000128149986	0.04699999839067459	0.9915000200271606	0.7251623868942261	0.0	244.0	371.0	0.0	0.0	0.0	0.0	0.0	0.0	null	null	null	null	null	null	null	null	335.0	335.0	334.0	336.0	333.0	335.0	332.0	331.0	339.0	332.0	332.0	
Sat Jun 03 09:36:00 UTC 2017	1.0	1.049636864E9	3055.747314453125	0.0	2.5731072E7	0.0	4.0	8.01931264E8	35.59393310546875	0.0	0.0	1.061269504E9	1.050107904E9	0.0	0.0	0.07925000041723251	0.054999999701976776	0.04625000059604645	0.9912499785423279	0.7274737358093262	0.0	244.0	371.0	0.0	0.0	0.0	0.0	0.0	0.0	null	null	null	null	null	null	null	null	332.0	330.0	331.0	332.0	334.0	329.0	332.0	334.0	331.0	334.0	335.0	
Sat Jun 03 09:35:00 UTC 2017	0.0	1.048625152E9	3055.747314453125	0.0	2.5731072E7	0.0	2.0	8.01558528E8	35.59393310546875	0.0	0.0	1.062281216E9	1.050107904E9	0.0	0.0	0.06449999660253525	0.04625000059604645	0.0494999997317791	0.9912499785423279	0.7264212965965271	0.0	244.0	371.0	0.0	0.0	0.0	0.0	0.0	0.0	null	null	null	null	null	null	null	null	332.0	335.0	339.0	335.0	333.0	334.0	333.0	335.0	332.0	333.0	334.0	
Sat Jun 03 09:34:00 UTC 2017	1.0	1.048625152E9	2789.395263671875	0.0	2.5731072E7	0.0	2.0	8.01468416E8	53.88559341430664	0.0	0.0	1.061269504E9	1.050107904E9	0.0	0.0	0.07450000196695328	0.04899999871850014	0.048250000923871994	0.9912499785423279	0.7251526117324829	0.0	244.0	371.0	0.0	0.0	0.0	0.0	0.0	0.0	null	null	null	null	null	null	null	null	333.0	335.0	331.0	337.0	331.0	334.0	335.0	332.0	333.0	332.0	332.0	
Sat Jun 03 09:33:00 UTC 2017	0.0	1.049636864E9	2789.395263671875	0.0	2.5731072E7	0.0	2.0	8.01468416E8	35.25373458862305	0.0	0.0	1.062281216E9	1.050107904E9	0.0	0.0	0.07625000178813934	0.051750000566244125	0.045499999076128006	0.9917500019073486	0.7252088785171509	0.0	244.0	371.0	0.0	0.0	0.0	0.0	0.0	0.0	null	null	null	null	null	null	null	null	335.0	333.0	333.0	331.0	336.0	334.0	336.0	334.0	334.0	335.0	335.0	
Sat Jun 03 09:32:00 UTC 2017	0.0	1.049636864E9	3095.229248046875	0.0	2.5731072E7	0.0	3.0	8.01468416E8	35.25373458862305	0.0	0.0	1.061269504E9	1.050107904E9	0.0	0.0	0.0742499977350235	0.04899999871850014	0.048250000923871994	0.9917500019073486	0.7251369953155518	0.0	244.0	371.0	0.0	0.0	0.0	0.0	0.0	0.0	null	null	null	null	null	null	null	null	334.0	333.0	336.0	336.0	333.0	329.0	331.0	334.0	337.0	334.0	334.0	
Sat Jun 03 09:31:00 UTC 2017	0.0	1.048625152E9	3095.229248046875	0.0	2.5731072E7	0.0	2.0	8.01468416E8	41.598960876464844	1.0	1.0	1.061269504E9	1.050107904E9	0.0	0.0	0.09375	0.06174999848008156	0.04475000128149986	0.9915000200271606	0.7251042127609253	0.0	244.0	371.0	0.0	0.0	0.0	0.0	0.0	0.0	null	null	null	null	null	null	null	null	331.0	337.0	333.0	336.0	335.0	335.0	336.0	333.0	334.0	331.0	334.0	
Sat Jun 03 09:30:00 UTC 2017	0.0	1.048625152E9	2855.359130859375	0.0	2.5731072E7	0.0	2.0	8.01345536E8	30.842437744140625	1.0	1.0	1.061269504E9	1.050107904E9	0.0	null	0.07450000196695328	0.04749999940395355	0.04975000023841858	0.9912499785423279	0.7250900268554688	0.0	244.0	371.0	0.0	0.0	0.0	0.0	0.0	0.0	null	null	null	null	null	null	null	null	333.0	330.0	332.0	335.0	333.0	331.0	336.0	332.0	332.0	335.0	334.0	
Sat Jun 03 09:29:00 UTC 2017	1.0	1.049636864E9	2855.359130859375	0.0	2.5731072E7	0.0	2.0	8.01255424E8	30.842437744140625	0.0	0.0	1.062281216E9	1.050107904E9	0.0	null	0.07750000059604645	0.054999999701976776	0.04500000178813934	0.9917500019073486	0.7261669039726257	0.0	244.0	371.0	0.0	0.0	0.0	0.0	0.0	0.0	null	null	null	null	null	null	null	null	336.0	335.0	335.0	333.0	336.0	334.0	332.0	335.0	335.0	335.0	333.0	
Sat Jun 03 09:28:00 UTC 2017	1.0	1.048625152E9	2855.359130859375	0.0	2.5731072E7	0.0	2.0	8.01255424E8	47.260643005371094	1.0	1.0	1.061269504E9	1.050107904E9	0.0	null	0.07124999910593033	0.054499998688697815	0.05225000157952309	0.9917500019073486	0.7263811826705933	0.0	244.0	371.0	0.0	0.0	0.0	0.0	0.0	0.0	null	null	null	null	null	null	null	null	330.0	336.0	334.0	332.0	334.0	335.0	335.0	335.0	335.0	333.0	334.0	
Sat Jun 03 09:27:00 UTC 2017	0.0	1.049636864E9	2855.359130859375	0.0	2.5731072E7	0.0	2.0	8.01255424E8	43.229827880859375	1.0	1.0	1.061269504E9	1.050107904E9	0.0	null	0.06925000250339508	0.05550000071525574	0.04800000041723251	0.9917500019073486	0.7250410914421082	0.0	244.0	371.0	0.0	0.0	0.0	0.0	0.0	0.0	null	null	null	null	null	null	null	null	336.0	333.0	335.0	333.0	336.0	335.0	333.0	334.0	334.0	337.0	336.0	
Sat Jun 03 09:26:00 UTC 2017	0.0	1.048625152E9	2855.359130859375	0.0	2.5731072E7	0.0	3.0	8.01255424E8	44.189701080322266	0.0	0.0	1.062281216E9	1.050107904E9	0.0	null	0.07750000059604645	0.04625000059604645	0.0442500002682209	0.9917500019073486	0.7258053421974182	0.0	244.0	371.0	0.0	0.0	0.0	0.0	0.0	0.0	null	null	null	null	null	null	null	null	334.0	333.0	334.0	336.0	334.0	335.0	334.0	332.0	334.0	329.0	333.0	
Sat Jun 03 09:25:00 UTC 2017	0.0	1.048625152E9	2374.425048828125	0.0	2.5731072E7	0.0	3.0	8.01132544E8	39.96574401855469	0.0	0.0	1.062281216E9	1.050107904E9	0.0	0.0	0.07249999791383743	0.054249998182058334	0.04650000110268593	0.9912499785423279	0.7250351905822754	0.0	244.0	371.0	0.0	0.0	0.0	0.0	0.0	0.0	null	null	null	null	null	null	null	null	332.0	333.0	332.0	332.0	327.0	332.0	334.0	335.0	334.0	337.0	331.0	
Sat Jun 03 09:24:00 UTC 2017	0.0	1.049636864E9	2374.425048828125	0.0	2.5731072E7	0.0	2.0	8.01042432E8	39.96574401855469	0.0	0.0	1.061269504E9	1.050107904E9	0.0	0.0	0.08150000125169754	0.04675000160932541	0.04675000160932541	0.9915000200271606	0.7250185608863831	0.0	244.0	371.0	0.0	0.0	0.0	0.0	0.0	0.0	null	null	null	null	null	null	null	null	334.0	333.0	333.0	335.0	337.0	334.0	332.0	334.0	334.0	332.0	336.0	
Sat Jun 03 09:23:00 UTC 2017	0.0	1.049636864E9	2654.92724609375	0.0	2.5731072E7	0.0	2.0	8.01042432E8	34.77536392211914	1.0	0.0	1.061269504E9	1.050107904E9	0.0	null	0.06849999725818634	0.051249999552965164	0.04774999991059303	0.9915000200271606	0.7250258922576904	0.0	244.0	371.0	0.0	0.0	0.0	0.0	0.0	0.0	null	null	null	null	null	null	null	null	334.0	334.0	335.0	332.0	333.0	336.0	334.0	335.0	331.0	334.0	335.0	
Sat Jun 03 09:22:00 UTC 2017	0.0	1.048625152E9	2654.92724609375	0.0	2.5731072E7	0.0	2.0	8.01042432E8	34.77536392211914	0.0	0.0	1.062281216E9	1.050107904E9	0.0	null	0.07850000262260437	0.051249999552965164	0.04724999889731407	0.9912499785423279	0.7250053286552429	0.0	244.0	371.0	0.0	0.0	0.0	0.0	0.0	0.0	null	null	null	null	null	null	null	null	335.0	333.0	333.0	333.0	332.0	333.0	332.0	331.0	334.0	335.0	330.0	
Sat Jun 03 09:21:00 UTC 2017	1.0	1.048625152E9	2435.20703125	0.0	2.5731072E7	0.0	3.0	8.01042432E8	38.58697509765625	0.0	0.0	1.062281216E9	1.050107904E9	0.0	0.0	0.09624999761581421	0.05000000074505806	0.051249999552965164	0.9912499785423279	0.7249882221221924	0.0	244.0	371.0	0.0	0.0	0.0	0.0	0.0	0.0	null	null	null	null	null	null	null	null	333.0	333.0	333.0	333.0	332.0	332.0	331.0	331.0	332.0	332.0	335.0	
Sat Jun 03 09:20:00 UTC 2017	1.0	1.049636864E9	2435.20703125	0.0	2.5731072E7	0.0	2.0	8.00923648E8	38.58697509765625	0.0	0.0	1.062281216E9	1.050107904E9	0.0	0.0	0.07349999994039536	0.04500000178813934	0.04475000128149986	0.9915000200271606	0.7249867916107178	0.0	244.0	371.0	0.0	0.0	0.0	0.0	0.0	0.0	null	null	null	null	null	null	null	null	333.0	336.0	337.0	335.0	336.0	334.0	334.0	334.0	334.0	333.0	333.0	
Sat Jun 03 09:19:00 UTC 2017	0.0	1.048625152E9	2435.20703125	0.0	2.5731072E7	0.0	2.0	8.00833536E8	38.58697509765625	0.0	0.0	1.061269504E9	1.050107904E9	0.0	0.0	0.06875000149011612	0.05274999886751175	0.04699999839067459	0.9917500019073486	0.7249726057052612	0.0	244.0	371.0	0.0	0.0	0.0	0.0	0.0	0.0	null	null	null	null	null	null	null	null	336.0	335.0	333.0	337.0	336.0	336.0	333.0	334.0	335.0	334.0	336.0	
Sat Jun 03 09:18:00 UTC 2017	0.0	1.049636864E9	2435.20703125	0.0	2.5731072E7	0.0	2.0	8.00833536E8	38.58697509765625	1.0	1.0	1.061269504E9	1.050107904E9	0.0	0.0	0.07824999839067459	0.05525000020861626	0.0442500002682209	0.9915000200271606	0.7249422669410706	0.0	244.0	371.0	0.0	0.0	0.0	0.0	0.0	0.0	null	null	null	null	null	null	null	null	332.0	335.0	336.0	331.0	333.0	333.0	332.0	334.0	335.0	334.0	336.0	
Sat Jun 03 09:17:00 UTC 2017	0.0	1.048625152E9	2435.20703125	0.0	2.5731072E7	0.0	4.0	8.00833536E8	38.724117279052734	0.0	0.0	1.062281216E9	1.050107904E9	0.0	0.0	0.0807500034570694	0.04800000041723251	0.0507499985396862	0.9915000200271606	0.724940299987793	0.0	244.0	371.0	0.0	0.0	0.0	0.0	0.0	0.0	null	null	null	null	null	null	null	null	334.0	333.0	331.0	336.0	338.0	335.0	333.0	332.0	336.0	333.0	332.0	
Sat Jun 03 09:16:00 UTC 2017	0.0	1.049636864E9	2435.20703125	0.0	2.5731072E7	0.0	3.0	8.00833536E8	35.31314468383789	0.0	0.0	1.061269504E9	1.050107904E9	0.0	0.0	0.07500000298023224	0.054249998182058334	0.0494999997317791	0.9915000200271606	0.7249075174331665	0.0	244.0	371.0	0.0	0.0	0.0	0.0	0.0	0.0	null	null	null	null	null	null	null	null	334.0	330.0	335.0	334.0	335.0	334.0	334.0	330.0	335.0	336.0	336.0	
Sat Jun 03 09:15:00 UTC 2017	0.0	1.049636864E9	3265.2021484375	0.0	2.5731072E7	0.0	5.0	8.00710656E8	33.76911544799805	0.0	0.0	1.062281216E9	1.050107904E9	0.0	0.0	0.06324999779462814	0.04874999821186066	0.04500000178813934	0.9915000200271606	0.7249060273170471	0.0	244.0	371.0	0.0	0.0	0.0	0.0	0.0	0.0	null	null	null	null	null	null	null	null	334.0	336.0	331.0	334.0	333.0	336.0	334.0	334.0	333.0	333.0	336.0	
Sat Jun 03 09:14:00 UTC 2017	0.0	1.048625152E9	3265.2021484375	0.0	2.5731072E7	0.0	7.0	8.00620544E8	33.76911544799805	0.0	0.0	1.061269504E9	1.050107904E9	0.0	0.0	0.0807500034570694	0.04749999940395355	0.04975000023841858	0.9915000200271606	0.7271845936775208	0.0	244.0	371.0	0.0	0.0	0.0	0.0	0.0	0.0	null	null	null	null	null	null	null	null	335.0	336.0	338.0	332.0	336.0	335.0	336.0	339.0	336.0	334.0	334.0	
Sat Jun 03 09:13:00 UTC 2017	0.0	1.048625152E9	2661.378173828125	0.0	2.5731072E7	0.0	3.0	8.00620544E8	43.590335845947266	0.0	0.0	1.062281216E9	1.050107904E9	0.0	0.0	0.06750000268220901	0.05375000089406967	0.04924999922513962	0.9917500019073486	0.7248986959457397	0.0	244.0	371.0	0.0	0.0	0.0	0.0	0.0	0.0	null	null	null	null	null	null	null	null	331.0	333.0	334.0	335.0	334.0	334.0	333.0	335.0	334.0	334.0	335.0	
Sat Jun 03 09:12:00 UTC 2017	0.0	1.049636864E9	2661.378173828125	0.0	2.5731072E7	0.0	4.0	8.00620544E8	43.590335845947266	0.0	0.0	1.061269504E9	1.050107904E9	0.0	0.0	0.07275000214576721	0.04800000041723251	0.04675000160932541	0.9917500019073486	0.7248786091804504	0.0	244.0	371.0	0.0	0.0	0.0	0.0	0.0	0.0	null	null	null	null	null	null	null	null	336.0	331.0	334.0	334.0	334.0	333.0	336.0	332.0	330.0	334.0	332.0	
Sat Jun 03 09:11:00 UTC 2017	0.0	1.049636864E9	2468.6572265625	0.0	2.5731072E7	0.0	5.0	8.00620544E8	43.590335845947266	0.0	0.0	1.062281216E9	1.050107904E9	0.0	0.0	0.09799999743700027	0.051500000059604645	0.04749999940395355	0.9912499785423279	0.7248160243034363	0.0	244.0	371.0	0.0	0.0	0.0	0.0	0.0	0.0	null	null	null	null	null	null	null	null	332.0	334.0	334.0	333.0	335.0	332.0	333.0	332.0	337.0	334.0	333.0	
Sat Jun 03 09:10:00 UTC 2017	0.0	1.048625152E9	2468.6572265625	0.0	2.5731072E7	0.0	7.0	8.00755712E8	43.590335845947266	0.0	0.0	1.062281216E9	1.050107904E9	0.0	0.0	0.08550000190734863	0.05225000157952309	0.04574999958276749	0.9917500019073486	0.7248590588569641	0.0	244.0	371.0	0.0	0.0	0.0	0.0	0.0	0.0	null	null	null	null	null	null	null	null	334.0	333.0	333.0	334.0	333.0	337.0	334.0	336.0	335.0	331.0	334.0	
Sat Jun 03 09:09:00 UTC 2017	0.0	1.049636864E9	2468.6572265625	0.0	2.5731072E7	0.0	2.0	8.00247808E8	40.2772331237793	0.0	0.0	1.062281216E9	1.050107904E9	0.0	0.0	0.06750000268220901	0.045499999076128006	0.05299999937415123	0.9917500019073486	0.7248414754867554	0.0	244.0	371.0	0.0	0.0	0.0	0.0	0.0	0.0	null	null	null	null	null	null	null	null	335.0	338.0	332.0	334.0	339.0	334.0	336.0	333.0	333.0	338.0	335.0	
Sat Jun 03 09:08:00 UTC 2017	0.0	1.049636864E9	2888.398193359375	0.0	2.5731072E7	0.0	2.0	8.00247808E8	40.2772331237793	0.0	0.0	1.062281216E9	1.050107904E9	0.0	null	0.07374999672174454	0.04899999871850014	0.04625000059604645	0.9915000200271606	0.7248409390449524	0.0	244.0	371.0	0.0	0.0	0.0	0.0	0.0	0.0	null	null	null	null	null	null	null	null	330.0	330.0	337.0	335.0	334.0	334.0	330.0	337.0	331.0	334.0	334.0	
Sat Jun 03 09:07:00 UTC 2017	0.0	1.049636864E9	2812.769775390625	0.0	2.5731072E7	0.0	3.0	8.00247808E8	57.77655792236328	0.0	0.0	1.061269504E9	1.050107904E9	0.0	null	0.08124999701976776	0.05299999937415123	0.04800000041723251	0.9915000200271606	0.7248233556747437	0.0	244.0	371.0	0.0	0.0	0.0	0.0	0.0	0.0	null	null	null	null	null	null	null	null	331.0	333.0	329.0	332.0	333.0	328.0	334.0	330.0	335.0	329.0	330.0	
Sat Jun 03 09:06:00 UTC 2017	1.0	1.048625152E9	2812.769775390625	0.0	2.5731072E7	0.0	5.0	8.00247808E8	57.77655792236328	0.0	0.0	1.061269504E9	1.050107904E9	0.0	null	0.0689999982714653	0.05575000122189522	0.04625000059604645	0.9915000200271606	0.7248008251190186	0.0	244.0	371.0	0.0	0.0	0.0	0.0	0.0	0.0	null	null	null	null	null	null	null	null	334.0	335.0	333.0	332.0	333.0	333.0	333.0	335.0	332.0	338.0	334.0	
Sat Jun 03 09:05:00 UTC 2017	1.0	1.048625152E9	3093.480712890625	0.0	2.5731072E7	0.0	2.0	8.00124928E8	38.62950897216797	0.0	0.0	1.062281216E9	1.050107904E9	0.0	null	0.07925000041723251	0.04600000008940697	0.0442500002682209	0.9912499785423279	0.724783718585968	0.0	244.0	371.0	0.0	0.0	0.0	0.0	0.0	0.0	null	null	null	null	null	null	null	null	334.0	332.0	335.0	333.0	333.0	338.0	336.0	335.0	334.0	330.0	333.0	
Sat Jun 03 09:04:00 UTC 2017	0.0	1.048625152E9	2577.25341796875	0.0	2.5731072E7	0.0	2.0	8.00034816E8	41.588199615478516	0.0	0.0	1.061269504E9	1.050107904E9	0.0	null	0.06825000047683716	0.05249999836087227	0.04574999958276749	0.9915000200271606	0.724783718585968	0.0	244.0	371.0	0.0	0.0	0.0	0.0	0.0	0.0	null	null	null	null	null	null	null	null	338.0	332.0	339.0	336.0	330.0	334.0	332.0	334.0	338.0	337.0	333.0	
Sat Jun 03 09:03:00 UTC 2017	0.0	1.049636864E9	2577.25341796875	0.0	2.5731072E7	0.0	2.0	8.00034816E8	41.588199615478516	0.0	0.0	1.062281216E9	1.050107904E9	0.0	null	0.07100000232458115	0.051750000566244125	0.04625000059604645	0.9915000200271606	0.7270656824111938	0.0	244.0	371.0	0.0	0.0	0.0	0.0	0.0	0.0	null	null	null	null	null	null	null	null	331.0	330.0	332.0	332.0	332.0	334.0	337.0	332.0	330.0	330.0	335.0	
Sat Jun 03 09:02:00 UTC 2017	0.0	1.049636864E9	2780.37451171875	0.0	2.5731072E7	0.0	2.0	8.00034816E8	41.588199615478516	1.0	1.0	1.061269504E9	1.050107904E9	0.0	null	0.0767500028014183	0.048250000923871994	0.048500001430511475	0.9915000200271606	0.7247876524925232	0.0	244.0	371.0	0.0	0.0	0.0	0.0	0.0	0.0	null	null	null	null	null	null	null	null	336.0	334.0	335.0	333.0	333.0	334.0	333.0	335.0	338.0	339.0	333.0	
Sat Jun 03 09:01:00 UTC 2017	0.0	1.049636864E9	2627.979736328125	0.0	2.5731072E7	0.0	4.0	8.00034816E8	41.588199615478516	0.0	0.0	1.061269504E9	1.050107904E9	0.0	null	0.11150000244379044	0.051500000059604645	0.04324999824166298	0.9915000200271606	0.7247910499572754	0.0	244.0	371.0	0.0	0.0	0.0	0.0	0.0	0.0	null	null	null	null	null	null	null	null	330.0	334.0	334.0	335.0	336.0	338.0	334.0	331.0	332.0	329.0	334.0	
Sat Jun 03 09:00:00 UTC 2017	0.0	1.049636864E9	2700.30517578125	0.0	2.5731072E7	0.0	2.0	7.99916032E8	35.001747131347656	0.0	0.0	1.061269504E9	1.050107904E9	0.0	0.0	0.06599999964237213	0.05525000020861626	0.051500000059604645	0.9917500019073486	0.7267686724662781	0.0	244.0	371.0	0.0	0.0	0.0	0.0	0.0	0.0	null	null	null	null	null	null	null	null	333.0	335.0	332.0	335.0	333.0	332.0	334.0	334.0	331.0	333.0	335.0	
Sat Jun 03 08:59:00 UTC 2017	0.0	1.048625152E9	2700.30517578125	0.0	2.5731072E7	0.0	2.0	7.9982592E8	39.53438949584961	0.0	0.0	1.061269504E9	1.050107904E9	0.0	0.0	0.0807500034570694	0.051750000566244125	0.04374999925494194	0.9912499785423279	0.7270607948303223	0.0	244.0	371.0	0.0	0.0	0.0	0.0	0.0	0.0	null	null	null	null	null	null	null	null	332.0	333.0	334.0	332.0	336.0	333.0	333.0	337.0	333.0	333.0	331.0	
Sat Jun 03 08:58:00 UTC 2017	1.0	1.048625152E9	2229.978271484375	0.0	2.5731072E7	0.0	2.0	7.9982592E8	38.83640670776367	0.0	0.0	1.061269504E9	1.050107904E9	0.0	0.0	0.07724999636411667	0.04724999889731407	0.04600000008940697	0.9900000095367432	0.7249515652656555	0.0	244.0	371.0	0.0	0.0	0.0	0.0	0.0	0.0	null	null	null	null	null	null	null	null	334.0	327.0	334.0	333.0	332.0	335.0	333.0	331.0	327.0	336.0	333.0	
Sat Jun 03 08:57:00 UTC 2017	1.0	1.049636864E9	2229.978271484375	0.0	2.5731072E7	0.0	2.0	7.9982592E8	38.83640670776367	1.0	0.0	1.061269504E9	1.050107904E9	0.0	0.0	0.07124999910593033	0.05624999850988388	0.04899999871850014	0.9912499785423279	0.7247406840324402	0.0	244.0	371.0	0.0	0.0	0.0	0.0	0.0	0.0	null	null	null	null	null	null	null	null	333.0	337.0	332.0	334.0	335.0	333.0	334.0	334.0	333.0	335.0	332.0	
Sat Jun 03 08:56:00 UTC 2017	1.0	1.048625152E9	2229.978271484375	0.0	2.5731072E7	0.0	2.0	7.9982592E8	39.42813491821289	0.0	0.0	1.062281216E9	1.050107904E9	0.0	0.0	0.07150000333786011	0.04500000178813934	0.04699999839067459	0.9912499785423279	0.7252984046936035	0.0	244.0	371.0	0.0	0.0	0.0	0.0	0.0	0.0	null	null	null	null	null	null	null	null	330.0	331.0	333.0	334.0	332.0	333.0	336.0	331.0	334.0	331.0	331.0	
Sat Jun 03 08:55:00 UTC 2017	1.0	1.048625152E9	2413.538330078125	0.0	2.5731072E7	0.0	2.0	7.9970304E8	39.42813491821289	0.0	0.0	1.061269504E9	1.050107904E9	0.0	0.0	0.06975000351667404	0.05000000074505806	0.0430000014603138	0.9915000200271606	0.7246893048286438	0.0	244.0	371.0	0.0	0.0	0.0	0.0	0.0	0.0	null	null	null	null	null	null	null	null	336.0	336.0	334.0	333.0	334.0	336.0	333.0	336.0	333.0	334.0	334.0	
Sat Jun 03 08:54:00 UTC 2017	0.0	1.049636864E9	2413.538330078125	0.0	2.5731072E7	0.0	2.0	7.99612928E8	39.42813491821289	0.0	0.0	1.062281216E9	1.050107904E9	0.0	0.0	0.08275000005960464	0.0560000017285347	0.04924999922513962	0.9915000200271606	0.7246726751327515	0.0	244.0	371.0	0.0	0.0	0.0	0.0	0.0	0.0	null	null	null	null	null	null	null	null	334.0	334.0	333.0	335.0	336.0	333.0	335.0	333.0	335.0	334.0	334.0	
Sat Jun 03 08:53:00 UTC 2017	0.0	1.048625152E9	2413.538330078125	0.0	2.5731072E7	0.0	4.0	7.99612928E8	66.43061065673828	0.0	0.0	1.061269504E9	1.050107904E9	0.0	0.0	0.07000000029802322	0.04699999839067459	0.04800000041723251	0.9915000200271606	0.7252582907676697	0.0	244.0	371.0	0.0	0.0	0.0	0.0	0.0	0.0	null	null	null	null	null	null	null	null	337.0	332.0	334.0	334.0	333.0	334.0	333.0	336.0	335.0	333.0	337.0	
Sat Jun 03 08:52:00 UTC 2017	0.0	1.048625152E9	2725.396728515625	0.0	2.5731072E7	0.0	2.0	7.99612928E8	66.43061065673828	0.0	0.0	1.061269504E9	1.050107904E9	0.0	0.0	0.06750000268220901	0.05874999985098839	0.04500000178813934	0.9917500019073486	0.7246403694152832	0.0	244.0	371.0	0.0	0.0	0.0	0.0	0.0	0.0	null	null	null	null	null	null	null	null	330.0	335.0	335.0	331.0	335.0	334.0	333.0	336.0	335.0	335.0	334.0	
Sat Jun 03 08:51:00 UTC 2017	1.0	1.048625152E9	3391.625244140625	0.0	2.5731072E7	0.0	2.0	7.999488E8	40.166297912597656	0.0	0.0	1.061269504E9	1.050107904E9	0.0	0.0	0.10499999672174454	0.04625000059604645	0.05000000074505806	0.9917500019073486	0.7246232628822327	0.0	244.0	371.0	0.0	0.0	0.0	0.0	0.0	0.0	null	null	null	null	null	null	null	null	335.0	333.0	334.0	333.0	336.0	333.0	335.0	331.0	331.0	333.0	332.0	
Sat Jun 03 08:50:00 UTC 2017	0.0	1.049636864E9	3391.625244140625	0.0	2.5731072E7	0.0	2.0	7.99490048E8	40.166297912597656	0.0	0.0	1.062281216E9	1.050107904E9	0.0	0.0	0.06400000303983688	0.054499998688697815	0.04749999940395355	0.9919999837875366	0.7246056199073792	0.0	244.0	371.0	0.0	0.0	0.0	0.0	0.0	0.0	null	null	null	null	null	null	null	null	333.0	334.0	335.0	334.0	330.0	335.0	336.0	337.0	335.0	334.0	334.0	
Sat Jun 03 08:49:00 UTC 2017	0.0	1.048625152E9	3391.625244140625	0.0	2.5731072E7	0.0	2.0	7.99399936E8	40.166297912597656	1.0	1.0	1.062281216E9	1.050107904E9	0.0	0.0	0.07575000077486038	0.045499999076128006	0.04650000110268593	0.9919999837875366	0.7246164083480835	0.0	244.0	371.0	0.0	0.0	0.0	0.0	0.0	0.0	null	null	null	null	null	null	null	null	334.0	332.0	334.0	336.0	334.0	336.0	336.0	335.0	335.0	336.0	333.0	
Sat Jun 03 08:48:00 UTC 2017	0.0	1.048625152E9	2842.45947265625	0.0	2.5731072E7	0.0	2.0	7.99399936E8	40.166297912597656	0.0	0.0	1.062281216E9	1.050107904E9	0.0	0.0	0.07175000011920929	0.05624999850988388	0.045499999076128006	0.9919999837875366	0.7245733141899109	0.0	244.0	371.0	0.0	0.0	0.0	0.0	0.0	0.0	null	null	null	null	null	null	null	null	335.0	334.0	336.0	331.0	335.0	332.0	332.0	333.0	333.0	335.0	335.0	
Sat Jun 03 08:47:00 UTC 2017	0.0	1.049636864E9	2842.45947265625	0.0	2.5731072E7	0.0	2.0	7.99399936E8	40.166297912597656	0.0	0.0	1.062281216E9	1.050107904E9	0.0	0.0	0.07524999976158142	0.04975000023841858	0.04774999991059303	0.9917500019073486	0.7245537638664246	0.0	244.0	371.0	0.0	0.0	0.0	0.0	0.0	0.0	null	null	null	null	null	null	null	null	333.0	335.0	335.0	332.0	337.0	334.0	334.0	337.0	334.0	333.0	337.0	
Sat Jun 03 08:46:00 UTC 2017	0.0	1.049636864E9	2553.628173828125	0.0	2.5731072E7	0.0	7.0	7.99399936E8	40.166297912597656	0.0	0.0	1.062281216E9	1.050107904E9	0.0	0.0	0.07474999874830246	0.04625000059604645	0.048500001430511475	0.9917500019073486	0.724551796913147	0.0	244.0	371.0	0.0	0.0	0.0	0.0	0.0	0.0	null	null	null	null	null	null	null	null	332.0	334.0	336.0	333.0	331.0	334.0	336.0	333.0	330.0	333.0	334.0	
Sat Jun 03 08:45:00 UTC 2017	1.0	1.049636864E9	2413.800537109375	0.0	2.5731072E7	0.0	2.0	7.99277056E8	52.7933349609375	0.0	0.0	1.062281216E9	1.050107904E9	0.0	0.0	0.07275000214576721	0.05674999952316284	0.04450000077486038	0.9915000200271606	0.7245449423789978	0.0	244.0	371.0	0.0	0.0	0.0	0.0	0.0	0.0	null	null	null	null	null	null	null	null	336.0	333.0	334.0	333.0	332.0	330.0	330.0	334.0	334.0	334.0	334.0	
Sat Jun 03 08:44:00 UTC 2017	1.0	1.048625152E9	2413.800537109375	0.0	2.5731072E7	0.0	2.0	7.99186944E8	40.7364501953125	0.0	0.0	1.061269504E9	1.050107904E9	0.0	0.0	0.07575000077486038	0.04924999922513962	0.054249998182058334	0.9915000200271606	0.7245591282844543	0.0	244.0	371.0	0.0	0.0	0.0	0.0	0.0	0.0	null	null	null	null	null	null	null	null	333.0	332.0	333.0	333.0	332.0	336.0	335.0	334.0	333.0	331.0	333.0	
Sat Jun 03 08:43:00 UTC 2017	0.0	1.049636864E9	2413.800537109375	0.0	2.5731072E7	0.0	3.0	7.99186944E8	55.069766998291016	0.0	0.0	1.061269504E9	1.050107904E9	0.0	0.0	0.07575000077486038	0.04874999821186066	0.045249998569488525	0.9917500019073486	0.7245566844940186	0.0	244.0	371.0	0.0	0.0	0.0	0.0	0.0	0.0	null	null	null	null	null	null	null	null	331.0	336.0	333.0	330.0	339.0	329.0	333.0	335.0	334.0	336.0	333.0	
Sat Jun 03 08:42:00 UTC 2017	0.0	1.048625152E9	2413.800537109375	0.0	2.5731072E7	0.0	3.0	7.99186944E8	55.069766998291016	0.0	0.0	1.061269504E9	1.050107904E9	0.0	0.0	0.07249999791383743	0.05000000074505806	0.04924999922513962	0.9915000200271606	0.7245439887046814	0.0	244.0	371.0	0.0	0.0	0.0	0.0	0.0	0.0	null	null	null	null	null	null	null	null	337.0	333.0	332.0	332.0	334.0	336.0	332.0	334.0	335.0	332.0	336.0	
Sat Jun 03 08:41:00 UTC 2017	0.0	1.049636864E9	2413.800537109375	0.0	2.5731072E7	0.0	3.0	7.99186944E8	55.069766998291016	0.0	0.0	1.061269504E9	1.050107904E9	0.0	0.0	0.09974999725818634	0.05400000140070915	0.04574999958276749	0.9912499785423279	0.7268087863922119	0.0	244.0	371.0	0.0	0.0	0.0	0.0	0.0	0.0	null	null	null	null	null	null	null	null	334.0	336.0	337.0	333.0	333.0	334.0	333.0	337.0	331.0	336.0	332.0	
Sat Jun 03 08:40:00 UTC 2017	0.0	1.049636864E9	3125.2412109375	0.0	2.5731072E7	0.0	6.0	7.99064064E8	44.012943267822266	1.0	0.0	1.061269504E9	1.050107904E9	0.0	0.0	0.0742499977350235	0.05249999836087227	0.04749999940395355	0.9917500019073486	0.7245278358459473	0.0	244.0	371.0	0.0	0.0	0.0	0.0	0.0	0.0	null	null	null	null	null	null	null	null	331.0	333.0	334.0	333.0	334.0	331.0	336.0	334.0	333.0	336.0	335.0	
Sat Jun 03 08:39:00 UTC 2017	0.0	1.049636864E9	2814.42333984375	0.0	2.5731072E7	0.0	2.0	7.98973952E8	44.012943267822266	1.0	0.0	1.061269504E9	1.050107904E9	0.0	0.0	0.07524999976158142	0.05025000125169754	0.04625000059604645	0.9915000200271606	0.7245082855224609	0.0	244.0	371.0	0.0	0.0	0.0	0.0	0.0	0.0	null	null	null	null	null	null	null	null	336.0	336.0	334.0	332.0	335.0	337.0	334.0	333.0	334.0	334.0	334.0	
Sat Jun 03 08:38:00 UTC 2017	0.0	1.049636864E9	2390.410888671875	0.0	2.5731072E7	0.0	4.0	7.98973952E8	44.012943267822266	0.0	0.0	1.061269504E9	1.050107904E9	0.0	0.0	0.07374999672174454	0.048250000923871994	0.04724999889731407	0.9915000200271606	0.724492609500885	0.0	244.0	371.0	0.0	0.0	0.0	0.0	0.0	0.0	null	null	null	null	null	null	null	null	336.0	334.0	334.0	331.0	332.0	332.0	333.0	338.0	333.0	333.0	336.0	
Sat Jun 03 08:37:00 UTC 2017	0.0	1.048625152E9	2390.410888671875	0.0	2.5731072E7	0.0	4.0	7.98973952E8	44.012943267822266	0.0	0.0	1.062281216E9	1.050107904E9	0.0	0.0	0.07150000333786011	0.04874999821186066	0.04924999922513962	0.9915000200271606	0.7244569063186646	0.0	244.0	371.0	0.0	0.0	0.0	0.0	0.0	0.0	null	null	null	null	null	null	null	null	334.0	334.0	333.0	331.0	335.0	332.0	332.0	334.0	333.0	332.0	330.0	
Sat Jun 03 08:36:00 UTC 2017	1.0	1.049636864E9	2390.410888671875	0.0	2.5731072E7	0.0	3.0	7.98973952E8	44.012943267822266	0.0	1.0	1.062281216E9	1.050107904E9	0.0	null	0.07500000298023224	0.05324999988079071	0.04675000160932541	0.9917500019073486	0.7243257761001587	0.0	244.0	371.0	0.0	0.0	0.0	0.0	0.0	0.0	null	null	null	null	null	null	null	null	333.0	333.0	333.0	333.0	333.0	331.0	334.0	334.0	337.0	333.0	337.0	
Sat Jun 03 08:35:00 UTC 2017	1.0	1.048625152E9	2390.410888671875	0.0	2.5731072E7	0.0	2.0	7.98851072E8	39.96287155151367	0.0	1.0	1.062281216E9	1.050107904E9	0.0	null	0.07374999672174454	0.05649999901652336	0.048500001430511475	0.9912499785423279	0.7243071794509888	0.0	244.0	371.0	0.0	0.0	0.0	0.0	0.0	0.0	null	null	null	null	null	null	null	null	333.0	335.0	331.0	333.0	332.0	334.0	335.0	332.0	333.0	336.0	334.0	
Sat Jun 03 08:34:00 UTC 2017	0.0	1.049636864E9	2390.410888671875	0.0	2.5731072E7	0.0	2.0	7.9876096E8	39.96287155151367	0.0	0.0	1.062281216E9	1.050107904E9	0.0	0.0	0.06949999928474426	0.04899999871850014	0.05050000175833702	0.9915000200271606	0.7242934703826904	0.0	244.0	371.0	0.0	0.0	0.0	0.0	0.0	0.0	null	null	null	null	null	null	null	null	336.0	330.0	332.0	337.0	337.0	336.0	330.0	333.0	334.0	336.0	331.0	
Sat Jun 03 08:33:00 UTC 2017	0.0	1.049636864E9	2450.769287109375	0.0	2.5731072E7	0.0	2.0	7.9876096E8	39.96287155151367	0.0	1.0	1.061269504E9	1.050107904E9	0.0	0.0	0.07824999839067459	0.054749999195337296	0.04450000077486038	0.9917500019073486	0.724292516708374	0.0	244.0	371.0	0.0	0.0	0.0	0.0	0.0	0.0	null	null	null	null	null	null	null	null	336.0	336.0	335.0	334.0	334.0	335.0	336.0	335.0	331.0	335.0	337.0	
Sat Jun 03 08:32:00 UTC 2017	0.0	1.049636864E9	2891.920654296875	0.0	2.5731072E7	0.0	5.0	7.9876096E8	44.000267028808594	0.0	0.0	1.062281216E9	1.050107904E9	0.0	0.0	0.07150000333786011	0.0494999997317791	0.05274999886751175	0.9917500019073486	0.7242695093154907	0.0	244.0	371.0	0.0	0.0	0.0	0.0	0.0	0.0	null	null	null	null	null	null	null	null	333.0	333.0	338.0	331.0	332.0	334.0	335.0	334.0	338.0	336.0	333.0	
Sat Jun 03 08:31:00 UTC 2017	0.0	1.048625152E9	2891.920654296875	0.0	2.5731072E7	0.0	3.0	7.9876096E8	64.86698913574219	0.0	0.0	1.062281216E9	1.050107904E9	0.0	0.0	0.08950000256299973	0.04650000110268593	0.04075000062584877	0.9915000200271606	0.7249099612236023	0.0	244.0	371.0	0.0	0.0	0.0	0.0	0.0	0.0	null	null	null	null	null	null	null	null	332.0	334.0	331.0	337.0	333.0	330.0	330.0	330.0	335.0	335.0	336.0	
Sat Jun 03 08:30:00 UTC 2017	1.0	1.048625152E9	2435.893310546875	0.0	2.5731072E7	0.0	2.0	7.98642176E8	64.86698913574219	0.0	0.0	1.061269504E9	1.050107904E9	0.0	0.0	0.0832500010728836	0.054749999195337296	0.048250000923871994	0.9915000200271606	0.7242367267608643	0.0	244.0	371.0	0.0	0.0	0.0	0.0	0.0	0.0	null	null	null	null	null	null	null	null	336.0	335.0	337.0	333.0	335.0	335.0	334.0	332.0	333.0	334.0	332.0	
Sat Jun 03 08:29:00 UTC 2017	0.0	1.048625152E9	2460.270263671875	0.0	2.5731072E7	0.0	3.0	7.98552064E8	64.86698913574219	0.0	0.0	1.062281216E9	1.050107904E9	0.0	0.0	0.06350000202655792	0.05225000157952309	0.04774999991059303	0.9912499785423279	0.7242200970649719	0.0	244.0	371.0	0.0	0.0	0.0	0.0	0.0	0.0	null	null	null	null	null	null	null	null	331.0	334.0	332.0	335.0	333.0	334.0	336.0	335.0	334.0	333.0	334.0	
Sat Jun 03 08:28:00 UTC 2017	1.0	1.049636864E9	2460.270263671875	0.0	2.5731072E7	0.0	2.0	7.98552064E8	34.9693603515625	0.0	0.0	1.062281216E9	1.050107904E9	0.0	null	0.07225000113248825	0.050999999046325684	0.04874999821186066	0.9915000200271606	0.7257079482078552	0.0	244.0	371.0	0.0	0.0	0.0	0.0	0.0	0.0	null	null	null	null	null	null	null	null	334.0	331.0	335.0	334.0	336.0	335.0	333.0	335.0	335.0	334.0	333.0	
Sat Jun 03 08:27:00 UTC 2017	1.0	1.049636864E9	3313.373779296875	0.0	2.5731072E7	0.0	2.0	7.98552064E8	44.902034759521484	0.0	0.0	1.062281216E9	1.050107904E9	0.0	0.0	0.0794999971985817	0.04349999874830246	0.04800000041723251	0.9915000200271606	0.7241882681846619	0.0	244.0	371.0	0.0	0.0	0.0	0.0	0.0	0.0	null	null	null	null	null	null	null	null	335.0	338.0	337.0	332.0	333.0	334.0	331.0	331.0	337.0	334.0	334.0	
Sat Jun 03 08:26:00 UTC 2017	0.0	1.048625152E9	3313.373779296875	0.0	2.5731072E7	0.0	2.0	7.98552064E8	36.17770004272461	0.0	0.0	1.062281216E9	1.050107904E9	0.0	null	0.06700000166893005	0.054249998182058334	0.04675000160932541	0.9917500019073486	0.726452112197876	0.0	244.0	371.0	0.0	0.0	0.0	0.0	0.0	0.0	null	null	null	null	null	null	null	null	337.0	331.0	332.0	335.0	335.0	336.0	335.0	335.0	334.0	336.0	330.0	
Sat Jun 03 08:25:00 UTC 2017	0.0	1.049636864E9	3313.373779296875	0.0	2.5731072E7	0.0	2.0	7.98429184E8	40.057403564453125	0.0	0.0	1.061269504E9	1.050107904E9	0.0	null	0.08500000089406967	0.04675000160932541	0.050999999046325684	0.9917500019073486	0.7258679270744324	0.0	244.0	371.0	0.0	0.0	0.0	0.0	0.0	0.0	null	null	null	null	null	null	null	null	335.0	334.0	334.0	334.0	334.0	336.0	332.0	337.0	333.0	335.0	334.0	
Sat Jun 03 08:24:00 UTC 2017	0.0	1.048625152E9	3313.373779296875	0.0	2.5731072E7	0.0	2.0	7.98339072E8	47.5869026184082	0.0	0.0	1.062281216E9	1.050107904E9	0.0	null	0.06949999928474426	0.05624999850988388	0.04399999976158142	0.9915000200271606	0.7241501212120056	0.0	244.0	371.0	0.0	0.0	0.0	0.0	0.0	0.0	null	null	null	null	null	null	null	null	332.0	336.0	333.0	336.0	331.0	333.0	336.0	335.0	333.0	331.0	337.0	
Sat Jun 03 08:23:00 UTC 2017	0.0	1.049636864E9	3313.373779296875	0.0	2.5731072E7	0.0	3.0	7.98339072E8	52.10237503051758	0.0	0.0	1.061269504E9	1.050107904E9	0.0	null	0.07649999856948853	0.05050000175833702	0.04675000160932541	0.9915000200271606	0.7241334915161133	0.0	244.0	371.0	0.0	0.0	0.0	0.0	0.0	0.0	null	null	null	null	null	null	null	null	334.0	337.0	338.0	332.0	332.0	334.0	331.0	334.0	340.0	334.0	335.0	
Sat Jun 03 08:22:00 UTC 2017	0.0	1.049636864E9	2592.748779296875	0.0	2.5731072E7	0.0	4.0	7.98339072E8	46.46403503417969	0.0	0.0	1.062281216E9	1.050107904E9	0.0	null	0.07074999809265137	0.04800000041723251	0.04874999821186066	0.9915000200271606	0.7261507511138916	0.0	244.0	371.0	0.0	0.0	0.0	0.0	0.0	0.0	null	null	null	null	null	null	null	null	337.0	332.0	331.0	334.0	337.0	334.0	335.0	332.0	333.0	335.0	330.0	
Sat Jun 03 08:21:00 UTC 2017	0.0	1.049636864E9	2391.05126953125	0.0	2.5731072E7	0.0	2.0	7.98216192E8	46.46403503417969	0.0	0.0	1.062281216E9	1.050107904E9	0.0	0.0	0.09749999642372131	0.05400000140070915	0.04699999839067459	0.9897500276565552	0.7241178154945374	0.0	244.0	371.0	0.0	0.0	0.0	0.0	0.0	0.0	null	null	null	null	null	null	null	null	329.0	331.0	330.0	332.0	330.0	332.0	330.0	336.0	332.0	327.0	333.0	
Sat Jun 03 08:20:00 UTC 2017	1.0	1.048625152E9	2391.05126953125	0.0	2.5731072E7	0.0	2.0	7.98216192E8	46.46403503417969	0.0	0.0	1.061269504E9	1.050107904E9	0.0	0.0	0.0820000022649765	0.0507499985396862	0.04675000160932541	0.9900000095367432	0.7240977883338928	0.0	244.0	371.0	0.0	0.0	0.0	0.0	0.0	0.0	null	null	null	null	null	null	null	null	333.0	335.0	332.0	332.0	332.0	333.0	333.0	330.0	330.0	333.0	332.0	
Sat Jun 03 08:19:00 UTC 2017	1.0	1.049636864E9	2391.05126953125	0.0	2.5731072E7	0.0	2.0	7.9812608E8	46.46403503417969	0.0	0.0	1.061269504E9	1.050107904E9	0.0	0.0	0.07325000315904617	0.042750000953674316	0.048250000923871994	0.9904999732971191	0.7240737676620483	0.0	244.0	371.0	0.0	0.0	0.0	0.0	0.0	0.0	null	null	null	null	null	null	null	null	330.0	332.0	333.0	329.0	331.0	335.0	334.0	335.0	334.0	332.0	333.0	
Sat Jun 03 08:18:00 UTC 2017	1.0	1.049636864E9	2770.27001953125	0.0	2.5731072E7	0.0	2.0	7.9812608E8	44.64939498901367	0.0	0.0	1.061269504E9	1.050107904E9	0.0	0.0	0.07199999690055847	0.054499998688697815	0.04749999940395355	0.9915000200271606	0.7240644693374634	0.0	244.0	371.0	0.0	0.0	0.0	0.0	0.0	0.0	null	null	null	null	null	null	null	null	334.0	336.0	335.0	333.0	332.0	331.0	331.0	331.0	335.0	336.0	332.0	
Sat Jun 03 08:17:00 UTC 2017	0.0	1.048625152E9	2770.27001953125	0.0	2.5731072E7	0.0	2.0	7.9812608E8	44.64939498901367	0.0	0.0	1.061269504E9	1.050107904E9	0.0	0.0	0.06925000250339508	0.051750000566244125	0.045249998569488525	0.9907500147819519	0.7240708470344543	0.0	244.0	371.0	0.0	0.0	0.0	0.0	0.0	0.0	null	null	null	null	null	null	null	null	336.0	334.0	334.0	335.0	333.0	336.0	333.0	335.0	334.0	335.0	335.0	
Sat Jun 03 08:16:00 UTC 2017	0.0	1.049636864E9	2770.27001953125	0.0	2.5731072E7	0.0	3.0	7.98461952E8	54.75785446166992	0.0	0.0	1.062281216E9	1.050107904E9	0.0	0.0	0.07325000315904617	0.05050000175833702	0.04625000059604645	0.9915000200271606	0.7240546941757202	0.0	244.0	371.0	0.0	0.0	0.0	0.0	0.0	0.0	null	null	null	null	null	null	null	null	330.0	331.0	333.0	333.0	332.0	332.0	334.0	334.0	331.0	333.0	334.0	
Sat Jun 03 08:15:00 UTC 2017	0.0	1.048625152E9	2770.27001953125	0.0	2.5731072E7	0.0	2.0	7.980032E8	38.133819580078125	1.0	0.0	1.061269504E9	1.050107904E9	0.0	0.0	0.08250000327825546	0.04774999991059303	0.048500001430511475	0.9915000200271606	0.7240409851074219	0.0	244.0	371.0	0.0	0.0	0.0	0.0	0.0	0.0	null	null	null	null	null	null	null	null	331.0	331.0	333.0	334.0	333.0	334.0	334.0	335.0	335.0	332.0	337.0	
Sat Jun 03 08:14:00 UTC 2017	1.0	1.049636864E9	2770.27001953125	0.0	2.5731072E7	0.0	2.0	7.97913088E8	41.40145492553711	0.0	0.0	1.061269504E9	1.050107904E9	0.0	null	0.06825000047683716	0.050999999046325684	0.04650000110268593	0.9915000200271606	0.7240586280822754	0.0	244.0	371.0	0.0	0.0	0.0	0.0	0.0	0.0	null	null	null	null	null	null	null	null	336.0	335.0	335.0	330.0	334.0	332.0	334.0	332.0	335.0	335.0	330.0	
Sat Jun 03 08:13:00 UTC 2017	0.0	1.049636864E9	3046.36328125	0.0	2.5731072E7	0.0	2.0	7.97913088E8	45.86967849731445	0.0	0.0	1.061269504E9	1.050107904E9	0.0	0.0	0.06925000250339508	0.04699999839067459	0.05050000175833702	0.9882500171661377	0.7239955067634583	0.0	244.0	371.0	0.0	0.0	0.0	0.0	0.0	0.0	null	null	null	null	null	null	null	null	335.0	333.0	333.0	334.0	332.0	334.0	332.0	330.0	330.0	333.0	332.0	
Sat Jun 03 08:12:00 UTC 2017	0.0	1.048625152E9	3046.36328125	0.0	2.5731072E7	0.0	2.0	7.97913088E8	45.86967849731445	0.0	0.0	1.062281216E9	1.050107904E9	0.0	0.0	0.08224999904632568	0.05525000020861626	0.04675000160932541	0.9915000200271606	0.7239901423454285	0.0	244.0	371.0	0.0	0.0	0.0	0.0	0.0	0.0	null	null	null	null	null	null	null	null	330.0	333.0	335.0	331.0	335.0	335.0	336.0	336.0	334.0	331.0	336.0	
Sat Jun 03 08:11:00 UTC 2017	0.0	1.048625152E9	2739.6025390625	0.0	2.5731072E7	0.0	6.0	7.97913088E8	45.86967849731445	0.0	0.0	1.061269504E9	1.050107904E9	0.0	0.0	0.09300000220537186	0.04899999871850014	0.0442500002682209	0.9909999966621399	0.7262628078460693	0.0	244.0	371.0	0.0	0.0	0.0	0.0	0.0	0.0	null	null	null	null	null	null	null	null	334.0	336.0	334.0	334.0	331.0	332.0	330.0	333.0	333.0	333.0	332.0	
Sat Jun 03 08:10:00 UTC 2017	1.0	1.048625152E9	2973.525634765625	0.0	2.5731072E7	0.0	4.0	7.98056448E8	46.828609466552734	0.0	0.0	1.062281216E9	1.050107904E9	0.0	0.0	0.07124999910593033	0.05000000074505806	0.04724999889731407	0.984749972820282	0.7239735126495361	0.0	244.0	371.0	0.0	0.0	0.0	0.0	0.0	0.0	null	null	null	null	null	null	null	null	331.0	325.0	327.0	334.0	331.0	332.0	332.0	326.0	333.0	330.0	330.0	
Sat Jun 03 08:09:00 UTC 2017	0.0	1.049636864E9	2973.525634765625	0.0	2.5731072E7	0.0	2.0	7.97855744E8	46.828609466552734	0.0	0.0	1.062281216E9	1.050107904E9	0.0	0.0	0.07450000196695328	0.054249998182058334	0.04699999839067459	0.9915000200271606	0.7239563465118408	0.0	244.0	371.0	0.0	0.0	0.0	0.0	0.0	0.0	null	null	null	null	null	null	null	null	336.0	335.0	333.0	336.0	332.0	333.0	331.0	335.0	329.0	337.0	333.0	
Sat Jun 03 08:08:00 UTC 2017	1.0	1.049636864E9	2446.1640625	0.0	2.5731072E7	0.0	2.0	7.97855744E8	46.828609466552734	0.0	0.0	1.062281216E9	1.050107904E9	0.0	0.0	0.0702499970793724	0.042249999940395355	0.0507499985396862	0.9915000200271606	0.7239372730255127	0.0	244.0	371.0	0.0	0.0	0.0	0.0	0.0	0.0	null	null	null	null	null	null	null	null	332.0	335.0	336.0	331.0	336.0	334.0	335.0	328.0	337.0	332.0	335.0	
Sat Jun 03 08:07:00 UTC 2017	1.0	1.049636864E9	2942.76904296875	0.0	2.5731072E7	0.0	2.0	7.97855744E8	57.32845687866211	0.0	0.0	1.061269504E9	1.050107904E9	0.0	0.0	0.11124999821186066	0.05050000175833702	0.04374999925494194	0.9912499785423279	0.7262172698974609	0.0	244.0	371.0	0.0	0.0	0.0	0.0	0.0	0.0	null	null	null	null	null	null	null	null	332.0	334.0	333.0	331.0	330.0	329.0	331.0	336.0	330.0	335.0	334.0	
Sat Jun 03 08:06:00 UTC 2017	0.0	1.049636864E9	3138.675537109375	0.0	2.5731072E7	0.0	3.0	7.97855744E8	48.885719299316406	0.0	0.0	1.061269504E9	1.050107904E9	0.0	null	0.07575000077486038	0.057500001043081284	0.050999999046325684	0.9915000200271606	0.723913311958313	0.0	244.0	371.0	0.0	0.0	0.0	0.0	0.0	0.0	null	null	null	null	null	null	null	null	336.0	334.0	333.0	335.0	334.0	335.0	336.0	334.0	334.0	333.0	335.0	
Sat Jun 03 08:05:00 UTC 2017	0.0	1.049636864E9	2523.7548828125	0.0	2.5731072E7	0.0	3.0	7.9773696E8	48.885719299316406	0.0	0.0	1.061269504E9	1.050107904E9	0.0	null	0.06925000250339508	0.04874999821186066	0.0442500002682209	0.9912499785423279	0.7238927483558655	0.0	244.0	371.0	0.0	0.0	0.0	0.0	0.0	0.0	null	null	null	null	null	null	null	null	333.0	334.0	335.0	333.0	334.0	336.0	333.0	332.0	335.0	333.0	335.0	
Sat Jun 03 08:04:00 UTC 2017	1.0	1.049636864E9	2768.781005859375	0.0	2.5731072E7	0.0	6.0	7.97646848E8	69.79073333740234	0.0	0.0	1.062281216E9	1.050107904E9	0.0	null	0.08100000023841858	0.051249999552965164	0.048500001430511475	0.9912499785423279	0.7238888144493103	0.0	244.0	371.0	0.0	0.0	0.0	0.0	0.0	0.0	null	null	null	null	null	null	null	null	335.0	334.0	336.0	336.0	334.0	332.0	333.0	336.0	332.0	332.0	331.0	
Sat Jun 03 08:03:00 UTC 2017	1.0	1.049636864E9	2479.93701171875	0.0	2.5731072E7	0.0	4.0	7.97646848E8	69.79073333740234	0.0	0.0	1.061269504E9	1.050107904E9	0.0	null	0.06300000101327896	0.048500001430511475	0.05000000074505806	0.9915000200271606	0.7238776087760925	0.0	244.0	371.0	0.0	0.0	0.0	0.0	0.0	0.0	null	null	null	null	null	null	null	null	333.0	335.0	332.0	336.0	337.0	333.0	335.0	333.0	339.0	336.0	332.0	
Sat Jun 03 08:02:00 UTC 2017	0.0	1.048625152E9	2479.93701171875	0.0	2.5731072E7	0.0	2.0	7.97646848E8	42.6140022277832	0.0	0.0	1.061269504E9	1.050107904E9	0.0	0.0	0.07999999821186066	0.048500001430511475	0.04625000059604645	0.9894999861717224	0.7238638997077942	0.0	244.0	371.0	0.0	0.0	0.0	0.0	0.0	0.0	null	null	null	null	null	null	null	null	329.0	333.0	335.0	330.0	334.0	334.0	334.0	334.0	330.0	334.0	331.0	
Sat Jun 03 08:01:00 UTC 2017	1.0	1.049636864E9	2479.93701171875	0.0	2.5731072E7	0.0	2.0	7.97646848E8	42.6140022277832	0.0	0.0	1.062281216E9	1.050107904E9	0.0	0.0	0.09549999982118607	0.054499998688697815	0.04749999940395355	0.9794999957084656	0.7238560318946838	0.0	244.0	371.0	0.0	0.0	0.0	0.0	0.0	0.0	null	null	null	null	null	null	null	null	330.0	327.0	327.0	332.0	328.0	328.0	328.0	326.0	330.0	325.0	330.0	
Sat Jun 03 08:00:00 UTC 2017	0.0	1.048625152E9	2479.93701171875	0.0	2.5731072E7	0.0	2.0	7.97523968E8	42.6140022277832	0.0	0.0	1.062281216E9	1.050107904E9	0.0	0.0	0.0729999989271164	0.05225000157952309	0.0494999997317791	0.9802500009536743	0.7238408923149109	0.0	244.0	371.0	0.0	0.0	0.0	0.0	0.0	0.0	null	null	null	null	null	null	null	null	332.0	330.0	329.0	330.0	328.0	330.0	327.0	332.0	329.0	331.0	329.0	
Sat Jun 03 07:59:00 UTC 2017	1.0	1.048625152E9	2997.191650390625	0.0	2.5731072E7	0.0	3.0	7.97433856E8	42.6140022277832	0.0	0.0	1.062281216E9	1.050107904E9	0.0	0.0	0.07074999809265137	0.050999999046325684	0.041749998927116394	0.9912499785423279	0.723822295665741	0.0	244.0	371.0	0.0	0.0	0.0	0.0	0.0	0.0	null	null	null	null	null	null	null	null	332.0	333.0	335.0	331.0	333.0	332.0	335.0	332.0	334.0	335.0	333.0	
Sat Jun 03 07:58:00 UTC 2017	1.0	1.048625152E9	2500.351806640625	0.0	2.5731072E7	0.0	2.0	7.97433856E8	42.6140022277832	0.0	0.0	1.061269504E9	1.050107904E9	0.0	0.0	0.0820000022649765	0.04600000008940697	0.051500000059604645	0.9915000200271606	0.7238257527351379	0.0	244.0	371.0	0.0	0.0	0.0	0.0	0.0	0.0	null	null	null	null	null	null	null	null	333.0	333.0	334.0	332.0	335.0	337.0	331.0	333.0	336.0	331.0	333.0	
Sat Jun 03 07:57:00 UTC 2017	0.0	1.049636864E9	2500.351806640625	0.0	2.5731072E7	0.0	2.0	7.97433856E8	75.69332885742188	0.0	0.0	1.062281216E9	1.050107904E9	0.0	0.0	0.0689999982714653	0.0560000017285347	0.048500001430511475	0.9915000200271606	0.7245684266090393	0.0	244.0	371.0	0.0	0.0	0.0	0.0	0.0	0.0	null	null	null	null	null	null	null	null	333.0	336.0	331.0	335.0	332.0	331.0	335.0	334.0	331.0	334.0	335.0	
Sat Jun 03 07:56:00 UTC 2017	1.0	1.048625152E9	2500.351806640625	0.0	2.5731072E7	0.0	2.0	7.97433856E8	75.69332885742188	0.0	0.0	1.061269504E9	1.050107904E9	0.0	0.0	0.0689999982714653	0.048500001430511475	0.04399999976158142	0.9915000200271606	0.7237905263900757	0.0	244.0	371.0	0.0	0.0	0.0	0.0	0.0	0.0	null	null	null	null	null	null	null	null	334.0	334.0	333.0	332.0	332.0	336.0	333.0	334.0	332.0	333.0	332.0	
Sat Jun 03 07:55:00 UTC 2017	1.0	1.049636864E9	2500.351806640625	0.0	2.5731072E7	0.0	3.0	7.9730688E8	43.56596374511719	0.0	0.0	1.061269504E9	1.050107904E9	0.0	0.0	0.0832500010728836	0.054999999701976776	0.04574999958276749	0.9912499785423279	0.7260856628417969	0.0	244.0	371.0	0.0	0.0	0.0	0.0	0.0	0.0	null	null	null	null	null	null	null	null	332.0	333.0	335.0	337.0	332.0	333.0	333.0	331.0	331.0	333.0	331.0	
Sat Jun 03 07:54:00 UTC 2017	1.0	1.049636864E9	2491.546142578125	0.0	2.5731072E7	0.0	2.0	7.97216768E8	45.694435119628906	1.0	0.0	1.061269504E9	1.050107904E9	0.0	null	0.0754999965429306	0.04699999839067459	0.04774999991059303	0.9915000200271606	0.7237806916236877	0.0	244.0	371.0	0.0	0.0	0.0	0.0	0.0	0.0	null	null	null	null	null	null	null	null	333.0	333.0	333.0	331.0	336.0	332.0	333.0	334.0	335.0	332.0	336.0	
Sat Jun 03 07:53:00 UTC 2017	0.0	1.048625152E9	2491.546142578125	0.0	2.5731072E7	0.0	2.0	7.97216768E8	45.694435119628906	1.0	1.0	1.062281216E9	1.050107904E9	0.0	null	0.0702499970793724	0.061000000685453415	0.04774999991059303	0.9904999732971191	0.7237645387649536	0.0	244.0	371.0	0.0	0.0	0.0	0.0	0.0	0.0	null	null	null	null	null	null	null	null	332.0	334.0	333.0	337.0	330.0	336.0	334.0	333.0	332.0	335.0	332.0	
Sat Jun 03 07:52:00 UTC 2017	0.0	1.049636864E9	2491.546142578125	0.0	2.5731072E7	0.0	2.0	7.97216768E8	45.694435119628906	2.0	3.0	1.062281216E9	1.050107904E9	0.0	0.0	0.06875000149011612	0.05350000038743019	0.05000000074505806	0.9912499785423279	0.7260524034500122	0.0	244.0	371.0	0.0	0.0	0.0	0.0	0.0	0.0	null	null	null	null	null	null	null	null	336.0	334.0	331.0	332.0	336.0	331.0	332.0	333.0	337.0	333.0	334.0	
Sat Jun 03 07:51:00 UTC 2017	1.0	1.049636864E9	2918.8349609375	0.0	2.5731072E7	0.0	3.0	7.97216768E8	45.694435119628906	1.0	1.0	1.061269504E9	1.050107904E9	0.0	0.0	0.10100000351667404	0.052000001072883606	0.04374999925494194	0.9912499785423279	0.7259413599967957	0.0	244.0	371.0	0.0	0.0	0.0	0.0	0.0	0.0	null	null	null	null	null	null	null	null	332.0	333.0	333.0	335.0	331.0	334.0	330.0	333.0	331.0	333.0	332.0	
Sat Jun 03 07:50:00 UTC 2017	1.0	1.049636864E9	2946.5771484375	0.0	2.5731072E7	0.0	2.0	7.97097984E8	45.694435119628906	0.0	1.0	1.062281216E9	1.050107904E9	0.0	0.0	0.0767500028014183	0.05400000140070915	0.04724999889731407	0.9912499785423279	0.7237278819084167	0.0	244.0	371.0	0.0	0.0	0.0	0.0	0.0	0.0	null	null	null	null	null	null	null	null	332.0	333.0	335.0	334.0	337.0	332.0	333.0	333.0	335.0	333.0	337.0	
Sat Jun 03 07:49:00 UTC 2017	0.0	1.048625152E9	2946.5771484375	0.0	2.5731072E7	0.0	4.0	7.97007872E8	45.694435119628906	1.0	1.0	1.061269504E9	1.050107904E9	0.0	0.0	0.06674999743700027	0.05624999850988388	0.0494999997317791	0.9915000200271606	0.723725438117981	0.0	244.0	371.0	0.0	0.0	0.0	0.0	0.0	0.0	null	null	null	null	null	null	null	null	336.0	333.0	337.0	331.0	335.0	334.0	330.0	333.0	330.0	336.0	332.0	
Sat Jun 03 07:48:00 UTC 2017	0.0	1.048625152E9	2810.045166015625	0.0	2.5731072E7	0.0	4.0	7.97007872E8	45.694435119628906	0.0	0.0	1.061269504E9	1.050107904E9	0.0	null	0.07599999755620956	0.04975000023841858	0.04874999821186066	0.9912499785423279	0.7237122058868408	0.0	244.0	371.0	0.0	0.0	0.0	0.0	0.0	0.0	null	null	null	null	null	null	null	null	338.0	338.0	335.0	339.0	332.0	333.0	333.0	334.0	329.0	333.0	333.0	
Sat Jun 03 07:47:00 UTC 2017	1.0	1.049636864E9	2810.045166015625	0.0	2.5731072E7	0.0	2.0	7.97007872E8	59.735904693603516	0.0	0.0	1.062281216E9	1.050107904E9	0.0	null	0.0729999989271164	0.048500001430511475	0.048250000923871994	0.9915000200271606	0.7236799001693726	0.0	244.0	371.0	0.0	0.0	0.0	0.0	0.0	0.0	null	null	null	null	null	null	null	null	331.0	331.0	331.0	333.0	338.0	335.0	336.0	338.0	334.0	334.0	337.0	
Sat Jun 03 07:46:00 UTC 2017	0.0	1.049636864E9	2640.998046875	0.0	2.5731072E7	0.0	3.0	7.97007872E8	59.735904693603516	0.0	0.0	1.061269504E9	1.050107904E9	0.0	null	0.07599999755620956	0.05299999937415123	0.04399999976158142	0.9912499785423279	0.7258821129798889	0.0	244.0	371.0	0.0	0.0	0.0	0.0	0.0	0.0	null	null	null	null	null	null	null	null	338.0	334.0	333.0	336.0	330.0	334.0	333.0	330.0	334.0	336.0	331.0	
Sat Jun 03 07:45:00 UTC 2017	0.0	1.048625152E9	2640.998046875	0.0	2.5731072E7	0.0	2.0	7.96884992E8	45.275611877441406	1.0	2.0	1.062281216E9	1.050107904E9	0.0	null	0.06875000149011612	0.05324999988079071	0.05299999937415123	0.9919999837875366	0.7236441969871521	0.0	244.0	371.0	0.0	0.0	0.0	0.0	0.0	0.0	null	null	null	null	null	null	null	null	333.0	335.0	338.0	332.0	333.0	335.0	331.0	337.0	336.0	331.0	335.0	
Sat Jun 03 07:44:00 UTC 2017	0.0	1.048625152E9	2813.21826171875	0.0	2.5731072E7	0.0	2.0	7.9679488E8	45.275611877441406	0.0	0.0	1.062281216E9	1.050107904E9	0.0	0.0	0.07649999856948853	0.04699999839067459	0.0442500002682209	0.9919999837875366	0.7236089706420898	0.0	244.0	371.0	0.0	0.0	0.0	0.0	0.0	0.0	null	null	null	null	null	null	null	null	334.0	334.0	331.0	336.0	335.0	335.0	334.0	335.0	338.0	336.0	338.0	
Sat Jun 03 07:43:00 UTC 2017	0.0	1.048625152E9	2721.23876953125	0.0	2.5731072E7	0.0	2.0	7.9679488E8	37.34134292602539	0.0	0.0	1.062281216E9	1.050107904E9	0.0	null	0.07599999755620956	0.054499998688697815	0.04650000110268593	0.9917500019073486	0.7235928177833557	0.0	244.0	371.0	0.0	0.0	0.0	0.0	0.0	0.0	null	null	null	null	null	null	null	null	338.0	337.0	334.0	331.0	334.0	334.0	336.0	332.0	331.0	337.0	332.0	
Sat Jun 03 07:42:00 UTC 2017	0.0	1.049636864E9	2721.23876953125	0.0	2.5731072E7	0.0	2.0	7.9679488E8	41.51961135864258	0.0	0.0	1.061269504E9	1.050107904E9	0.0	null	0.07374999672174454	0.045499999076128006	0.05050000175833702	0.9915000200271606	0.7235991954803467	0.0	244.0	371.0	0.0	0.0	0.0	0.0	0.0	0.0	null	null	null	null	null	null	null	null	335.0	333.0	332.0	334.0	332.0	336.0	335.0	338.0	333.0	332.0	331.0	
Sat Jun 03 07:41:00 UTC 2017	0.0	1.049636864E9	2584.182861328125	0.0	2.5731072E7	0.0	2.0	7.9679488E8	35.78818893432617	0.0	0.0	1.062281216E9	1.050107904E9	0.0	null	0.10300000011920929	0.051500000059604645	0.04600000008940697	0.9915000200271606	0.7235835194587708	0.0	244.0	371.0	0.0	0.0	0.0	0.0	0.0	0.0	null	null	null	null	null	null	null	null	333.0	334.0	334.0	336.0	334.0	331.0	331.0	330.0	336.0	335.0	334.0	
Sat Jun 03 07:40:00 UTC 2017	1.0	1.049636864E9	2616.53466796875	0.0	2.5731072E7	0.0	5.0	7.96672E8	43.553077697753906	0.0	0.0	1.061269504E9	1.050107904E9	0.0	null	0.07175000011920929	0.0494999997317791	0.04500000178813934	0.9915000200271606	0.7235864996910095	0.0	244.0	371.0	0.0	0.0	0.0	0.0	0.0	0.0	null	null	null	null	null	null	null	null	336.0	333.0	335.0	332.0	337.0	333.0	333.0	336.0	336.0	337.0	334.0	
Sat Jun 03 07:39:00 UTC 2017	0.0	1.049636864E9	2625.289306640625	0.0	2.5731072E7	0.0	2.0	7.96581888E8	54.52136993408203	0.0	0.0	1.061269504E9	1.050107904E9	0.0	null	0.06674999743700027	0.0507499985396862	0.04650000110268593	0.9915000200271606	0.7252465486526489	0.0	244.0	371.0	0.0	0.0	0.0	0.0	0.0	0.0	null	null	null	null	null	null	null	null	332.0	336.0	334.0	335.0	333.0	335.0	332.0	333.0	330.0	332.0	334.0	
Sat Jun 03 07:38:00 UTC 2017	0.0	1.049636864E9	2791.232666015625	0.0	2.5731072E7	0.0	2.0	7.96581888E8	44.017215728759766	0.0	0.0	1.061269504E9	1.050107904E9	0.0	null	0.07774999737739563	0.05375000089406967	0.051500000059604645	0.9915000200271606	0.7235199213027954	0.0	244.0	371.0	0.0	0.0	0.0	0.0	0.0	0.0	null	null	null	null	null	null	null	null	334.0	333.0	335.0	331.0	330.0	336.0	334.0	332.0	336.0	332.0	335.0	
Sat Jun 03 07:37:00 UTC 2017	0.0	1.048625152E9	2791.232666015625	0.0	2.5731072E7	0.0	3.0	7.96581888E8	44.017215728759766	0.0	0.0	1.061269504E9	1.050107904E9	0.0	0.0	0.07100000232458115	0.04874999821186066	0.04874999821186066	0.9915000200271606	0.7234905958175659	0.0	244.0	371.0	0.0	0.0	0.0	0.0	0.0	0.0	null	null	null	null	null	null	null	null	335.0	332.0	333.0	335.0	332.0	331.0	334.0	333.0	331.0	333.0	335.0	
Sat Jun 03 07:36:00 UTC 2017	1.0	1.048625152E9	2536.444091796875	0.0	2.5731072E7	0.0	5.0	7.96581888E8	40.89466857910156	0.0	0.0	1.062281216E9	1.050107904E9	0.0	0.0	0.0794999971985817	0.054999999701976776	0.05025000125169754	0.9909999966621399	0.7235321402549744	0.0	244.0	371.0	0.0	0.0	0.0	0.0	0.0	0.0	null	null	null	null	null	null	null	null	332.0	334.0	331.0	334.0	330.0	333.0	332.0	332.0	334.0	333.0	332.0	
Sat Jun 03 07:35:00 UTC 2017	1.0	1.049636864E9	2536.444091796875	0.0	2.5731072E7	0.0	4.0	7.96463104E8	40.1325798034668	0.0	0.0	1.062281216E9	1.050107904E9	0.0	null	0.07225000113248825	0.05299999937415123	0.05000000074505806	0.9912499785423279	0.723481297492981	0.0	244.0	371.0	0.0	0.0	0.0	0.0	0.0	0.0	null	null	null	null	null	null	null	null	333.0	333.0	335.0	334.0	335.0	335.0	331.0	335.0	331.0	335.0	332.0	
Sat Jun 03 07:34:00 UTC 2017	0.0	1.048625152E9	2536.444091796875	0.0	2.5731072E7	0.0	3.0	7.96372992E8	39.64583969116211	0.0	0.0	1.061269504E9	1.050107904E9	0.0	null	0.06875000149011612	0.04724999889731407	0.051249999552965164	0.9915000200271606	0.7234602570533752	0.0	244.0	371.0	0.0	0.0	0.0	0.0	0.0	0.0	null	null	null	null	null	null	null	null	334.0	337.0	334.0	333.0	334.0	333.0	333.0	333.0	336.0	330.0	335.0	
Sat Jun 03 07:33:00 UTC 2017	1.0	1.049636864E9	2536.444091796875	0.0	2.5731072E7	0.0	4.0	7.96372992E8	39.64583969116211	0.0	0.0	1.062281216E9	1.050107904E9	0.0	null	0.07050000131130219	0.052000001072883606	0.04924999922513962	0.9915000200271606	0.7234411835670471	0.0	244.0	371.0	0.0	0.0	0.0	0.0	0.0	0.0	null	null	null	null	null	null	null	null	335.0	334.0	336.0	331.0	333.0	332.0	335.0	335.0	330.0	337.0	336.0	
Sat Jun 03 07:32:00 UTC 2017	0.0	1.049636864E9	2768.17822265625	0.0	2.5731072E7	0.0	4.0	7.96372992E8	39.64583969116211	0.0	0.0	1.062281216E9	1.050107904E9	0.0	null	0.08425000309944153	0.04724999889731407	0.04924999922513962	0.9912499785423279	0.7234993577003479	0.0	244.0	371.0	0.0	0.0	0.0	0.0	0.0	0.0	null	null	null	null	null	null	null	null	336.0	336.0	334.0	335.0	332.0	331.0	337.0	335.0	334.0	331.0	332.0	
Sat Jun 03 07:31:00 UTC 2017	0.0	1.048625152E9	2768.17822265625	0.0	2.5731072E7	0.0	4.0	7.96372992E8	38.734371185302734	0.0	0.0	1.061269504E9	1.050107904E9	0.0	null	0.09125000238418579	0.04749999940395355	0.05050000175833702	0.9919999837875366	0.7257798910140991	0.0	244.0	371.0	0.0	0.0	0.0	0.0	0.0	0.0	null	null	null	null	null	null	null	null	332.0	332.0	335.0	334.0	333.0	334.0	330.0	334.0	334.0	334.0	333.0	
Sat Jun 03 07:30:00 UTC 2017	0.0	1.048625152E9	2933.4775390625	0.0	2.5731072E7	0.0	3.0	7.96250112E8	50.06846237182617	0.0	0.0	1.061269504E9	1.050107904E9	0.0	0.0	0.08174999803304672	0.0560000017285347	0.0507499985396862	0.9915000200271606	0.7233555316925049	0.0	244.0	371.0	0.0	0.0	0.0	0.0	0.0	0.0	null	null	null	null	null	null	null	null	335.0	336.0	333.0	335.0	336.0	335.0	335.0	333.0	332.0	334.0	335.0	
Sat Jun 03 07:29:00 UTC 2017	0.0	1.049636864E9	2933.4775390625	0.0	2.5731072E7	0.0	5.0	7.9616E8	37.76084899902344	0.0	0.0	1.061269504E9	1.050107904E9	0.0	0.0	0.07325000315904617	0.0494999997317791	0.05324999988079071	0.9917500019073486	0.7233374118804932	0.0	244.0	371.0	0.0	0.0	0.0	0.0	0.0	0.0	null	null	null	null	null	null	null	null	334.0	333.0	336.0	337.0	332.0	333.0	333.0	337.0	334.0	335.0	332.0	
Sat Jun 03 07:28:00 UTC 2017	0.0	1.049636864E9	2659.595947265625	0.0	2.5731072E7	0.0	3.0	7.9616E8	48.39522933959961	0.0	0.0	1.061269504E9	1.050107904E9	0.0	0.0	0.07050000131130219	0.05550000071525574	0.10074999928474426	0.9917500019073486	0.7233389019966125	0.0	244.0	371.0	0.0	0.0	0.0	0.0	0.0	0.0	null	null	null	null	null	null	null	null	334.0	337.0	331.0	335.0	337.0	331.0	334.0	333.0	335.0	330.0	334.0	
Sat Jun 03 07:27:00 UTC 2017	0.0	1.048625152E9	2659.595947265625	0.0	2.5731072E7	0.0	3.0	7.96164096E8	36.343170166015625	0.0	0.0	1.061269504E9	1.050107904E9	0.0	null	0.07050000131130219	0.04774999991059303	0.048250000923871994	0.9915000200271606	0.7233256697654724	0.0	244.0	371.0	0.0	0.0	0.0	0.0	0.0	0.0	null	null	null	null	null	null	null	null	334.0	331.0	334.0	330.0	330.0	335.0	336.0	333.0	331.0	334.0	334.0	
Sat Jun 03 07:26:00 UTC 2017	0.0	1.048625152E9	2549.1201171875	0.0	2.5731072E7	0.0	4.0	7.96164096E8	36.343170166015625	0.0	0.0	1.062281216E9	1.050107904E9	0.0	null	0.07074999809265137	0.0507499985396862	0.04650000110268593	0.9917500019073486	0.7232987880706787	0.0	244.0	371.0	0.0	0.0	0.0	0.0	0.0	0.0	null	null	null	null	null	null	null	null	334.0	333.0	335.0	336.0	334.0	337.0	332.0	335.0	334.0	334.0	334.0	
Sat Jun 03 07:25:00 UTC 2017	0.0	1.049636864E9	2549.1201171875	0.0	2.5731072E7	0.0	6.0	7.96041216E8	36.343170166015625	0.0	0.0	1.061269504E9	1.050107904E9	0.0	null	0.07599999755620956	0.051249999552965164	0.05400000140070915	0.9917500019073486	0.723292887210846	0.0	244.0	371.0	0.0	0.0	0.0	0.0	0.0	0.0	null	null	null	null	null	null	null	null	334.0	335.0	334.0	334.0	334.0	333.0	337.0	331.0	337.0	337.0	333.0	
Sat Jun 03 07:24:00 UTC 2017	0.0	1.048625152E9	2549.1201171875	0.0	2.5731072E7	0.0	8.0	7.95951104E8	36.343170166015625	0.0	0.0	1.062281216E9	1.050107904E9	0.0	null	0.07925000041723251	0.052000001072883606	0.05350000038743019	0.9917500019073486	0.7255635857582092	0.0	244.0	371.0	0.0	0.0	0.0	0.0	0.0	0.0	null	null	null	null	null	null	null	null	335.0	335.0	335.0	334.0	334.0	335.0	335.0	335.0	334.0	334.0	334.0	
Sat Jun 03 07:23:00 UTC 2017	0.0	1.048625152E9	2870.626220703125	0.0	2.5731072E7	0.0	2.0	7.95951104E8	36.343170166015625	0.0	0.0	1.062281216E9	1.050107904E9	0.0	null	0.07500000298023224	0.04600000008940697	0.0507499985396862	0.9917500019073486	0.7232542634010315	0.0	244.0	371.0	0.0	0.0	0.0	0.0	0.0	0.0	null	null	null	null	null	null	null	null	334.0	336.0	334.0	333.0	334.0	335.0	330.0	336.0	333.0	333.0	333.0	
Sat Jun 03 07:22:00 UTC 2017	0.0	1.049636864E9	2870.626220703125	0.0	2.5731072E7	0.0	2.0	7.95951104E8	34.02674865722656	0.0	0.0	1.062281216E9	1.050107904E9	0.0	0.0	0.07500000298023224	0.05324999988079071	0.04399999976158142	0.9917500019073486	0.7232615947723389	0.0	244.0	371.0	0.0	0.0	0.0	0.0	0.0	0.0	null	null	null	null	null	null	null	null	333.0	335.0	334.0	335.0	330.0	332.0	335.0	333.0	334.0	330.0	334.0	
Sat Jun 03 07:21:00 UTC 2017	0.0	1.048625152E9	2870.626220703125	0.0	2.5731072E7	0.0	3.0	7.95951104E8	34.02674865722656	0.0	0.0	1.061269504E9	1.050107904E9	0.0	0.0	0.09674999862909317	0.050999999046325684	0.048500001430511475	0.9915000200271606	0.72552889585495	0.0	244.0	371.0	0.0	0.0	0.0	0.0	0.0	0.0	null	null	null	null	null	null	null	null	332.0	332.0	333.0	332.0	334.0	332.0	331.0	333.0	332.0	334.0	332.0	
Sat Jun 03 07:20:00 UTC 2017	1.0	1.049636864E9	2870.626220703125	0.0	2.5731072E7	0.0	2.0	7.9583232E8	34.02674865722656	0.0	0.0	1.061269504E9	1.050107904E9	0.0	0.0	0.06750000268220901	0.0507499985396862	0.052000001072883606	0.9915000200271606	0.7255229949951172	0.0	244.0	371.0	0.0	0.0	0.0	0.0	0.0	0.0	null	null	null	null	null	null	null	null	332.0	335.0	333.0	336.0	333.0	334.0	333.0	336.0	333.0	334.0	335.0	
Sat Jun 03 07:19:00 UTC 2017	0.0	1.048625152E9	2870.626220703125	0.0	2.5731072E7	0.0	3.0	7.95742208E8	34.02674865722656	0.0	0.0	1.061269504E9	1.050107904E9	0.0	0.0	0.0729999989271164	0.04650000110268593	0.04475000128149986	0.9912499785423279	0.7232361435890198	0.0	244.0	371.0	0.0	0.0	0.0	0.0	0.0	0.0	null	null	null	null	null	null	null	null	336.0	332.0	333.0	334.0	331.0	333.0	337.0	333.0	337.0	333.0	333.0	
Sat Jun 03 07:18:00 UTC 2017	1.0	1.049636864E9	2870.626220703125	0.0	2.5731072E7	0.0	31.0	7.95742208E8	39.11900329589844	0.0	1.0	1.062281216E9	1.050103808E9	0.0	0.0	0.07724999636411667	0.05225000157952309	0.0572500005364418	0.9917500019073486	0.7232180237770081	0.0	244.0	371.0	0.0	0.0	0.0	0.0	0.0	0.0	null	null	null	null	null	null	null	null	334.0	337.0	339.0	333.0	335.0	334.0	334.0	335.0	332.0	333.0	334.0	
Sat Jun 03 07:17:00 UTC 2017	0.0	1.048625152E9	2870.626220703125	0.0	2.5731072E7	0.0	2.0	7.93608192E8	35.84040832519531	0.0	0.0	1.061269504E9	1.050103808E9	0.0	0.0	0.07874999940395355	0.05025000125169754	0.04650000110268593	0.9917500019073486	0.7231984734535217	0.0	244.0	371.0	0.0	0.0	0.0	0.0	0.0	0.0	null	null	null	null	null	null	null	null	335.0	332.0	332.0	335.0	335.0	336.0	333.0	332.0	332.0	334.0	332.0	
Sat Jun 03 07:16:00 UTC 2017	0.0	1.049636864E9	2870.626220703125	0.0	2.5731072E7	0.0	2.0	7.93608192E8	35.84040832519531	0.0	0.0	1.062281216E9	1.050103808E9	0.0	0.0	0.07225000113248825	0.05575000122189522	0.04625000059604645	0.9915000200271606	0.7254114747047424	0.0	244.0	371.0	0.0	0.0	0.0	0.0	0.0	0.0	null	null	null	null	null	null	null	null	331.0	334.0	338.0	334.0	332.0	335.0	331.0	337.0	333.0	334.0	333.0	
Sat Jun 03 07:15:00 UTC 2017	0.0	1.049636864E9	3069.066162109375	0.0	2.5731072E7	0.0	2.0	7.93485312E8	35.84040832519531	0.0	0.0	1.062281216E9	1.050103808E9	0.0	0.0	0.07100000232458115	0.0442500002682209	0.04724999889731407	0.9917500019073486	0.7231842875480652	0.0	244.0	371.0	0.0	0.0	0.0	0.0	0.0	0.0	null	null	null	null	null	null	null	null	333.0	335.0	331.0	333.0	335.0	334.0	332.0	332.0	337.0	332.0	332.0	
Sat Jun 03 07:14:00 UTC 2017	0.0	1.048625152E9	3069.066162109375	0.0	2.5731072E7	0.0	2.0	7.933952E8	35.84040832519531	0.0	0.0	1.062281216E9	1.050103808E9	0.0	0.0	0.07925000041723251	0.05674999952316284	0.048500001430511475	0.9917500019073486	0.7231798768043518	0.0	244.0	371.0	0.0	0.0	0.0	0.0	0.0	0.0	null	null	null	null	null	null	null	null	338.0	334.0	337.0	336.0	332.0	336.0	331.0	332.0	331.0	338.0	335.0	
Sat Jun 03 07:13:00 UTC 2017	0.0	1.048625152E9	2710.54638671875	0.0	2.5731072E7	0.0	2.0	7.933952E8	60.752628326416016	0.0	0.0	1.062281216E9	1.050103808E9	0.0	0.0	0.07349999994039536	0.048500001430511475	0.04450000077486038	0.9912499785423279	0.7231603264808655	0.0	244.0	371.0	0.0	0.0	0.0	0.0	0.0	0.0	null	null	null	null	null	null	null	null	334.0	332.0	331.0	333.0	336.0	333.0	337.0	333.0	335.0	332.0	334.0	
Sat Jun 03 07:12:00 UTC 2017	0.0	1.048625152E9	2820.5966796875	0.0	2.5731072E7	0.0	2.0	7.933952E8	49.86310958862305	0.0	0.0	1.062281216E9	1.050103808E9	0.0	null	0.07374999672174454	0.04749999940395355	0.04724999889731407	0.9917500019073486	0.7231162786483765	0.0	244.0	371.0	0.0	0.0	0.0	0.0	0.0	0.0	null	null	null	null	null	null	null	null	332.0	332.0	333.0	333.0	334.0	336.0	331.0	333.0	332.0	337.0	335.0	
Sat Jun 03 07:11:00 UTC 2017	0.0	1.049636864E9	2820.5966796875	0.0	2.5731072E7	0.0	6.0	7.933952E8	49.86310958862305	0.0	0.0	1.062281216E9	1.050103808E9	0.0	0.0	0.09175000339746475	0.05324999988079071	0.04724999889731407	0.9915000200271606	0.7230986952781677	0.0	244.0	371.0	0.0	0.0	0.0	0.0	0.0	0.0	null	null	null	null	null	null	null	null	334.0	334.0	336.0	335.0	331.0	331.0	338.0	336.0	330.0	333.0	332.0	
Sat Jun 03 07:10:00 UTC 2017	0.0	1.048625152E9	2820.5966796875	0.0	2.5731072E7	0.0	5.0	7.92834048E8	49.86310958862305	0.0	0.0	1.061269504E9	1.050103808E9	0.0	0.0	0.07774999737739563	0.04800000041723251	0.05274999886751175	0.9907500147819519	0.7230830192565918	0.0	244.0	371.0	0.0	0.0	0.0	0.0	0.0	0.0	null	null	null	null	null	null	null	null	333.0	334.0	333.0	334.0	338.0	335.0	330.0	334.0	333.0	333.0	333.0	
Sat Jun 03 07:09:00 UTC 2017	0.0	1.049636864E9	2820.5966796875	0.0	2.5731072E7	0.0	2.0	7.92461312E8	49.86310958862305	0.0	0.0	1.062281216E9	1.050103808E9	0.0	0.0	0.07225000113248825	0.05375000089406967	0.0430000014603138	0.9915000200271606	0.723077118396759	0.0	244.0	371.0	0.0	0.0	0.0	0.0	0.0	0.0	null	null	null	null	null	null	null	null	334.0	335.0	332.0	337.0	331.0	339.0	333.0	334.0	335.0	337.0	335.0	
Sat Jun 03 07:08:00 UTC 2017	0.0	1.049636864E9	2479.00146484375	0.0	2.5731072E7	0.0	2.0	7.92461312E8	37.34661865234375	0.0	0.0	1.061269504E9	1.050103808E9	0.0	0.0	0.07925000041723251	0.05299999937415123	0.05225000157952309	0.9915000200271606	0.7239837646484375	0.0	244.0	371.0	0.0	0.0	0.0	0.0	0.0	0.0	null	null	null	null	null	null	null	null	333.0	336.0	336.0	330.0	336.0	330.0	333.0	334.0	332.0	332.0	339.0	
Sat Jun 03 07:07:00 UTC 2017	0.0	1.049636864E9	2633.419189453125	0.0	2.5731072E7	0.0	2.0	7.92461312E8	38.85102844238281	0.0	0.0	1.061269504E9	1.050103808E9	0.0	0.0	0.07275000214576721	0.048500001430511475	0.04574999958276749	0.9892500042915344	0.7230316400527954	0.0	244.0	371.0	0.0	0.0	0.0	0.0	0.0	0.0	null	null	null	null	null	null	null	null	333.0	333.0	330.0	333.0	332.0	332.0	333.0	333.0	333.0	334.0	333.0	
Sat Jun 03 07:06:00 UTC 2017	0.0	1.048625152E9	2633.419189453125	0.0	2.5731072E7	0.0	4.0	7.92461312E8	35.441036224365234	0.0	0.0	1.061269504E9	1.050103808E9	0.0	0.0	0.08100000023841858	0.048250000923871994	0.04699999839067459	0.9917500019073486	0.7230135202407837	0.0	244.0	371.0	0.0	0.0	0.0	0.0	0.0	0.0	null	null	null	null	null	null	null	null	334.0	334.0	332.0	330.0	334.0	333.0	331.0	332.0	337.0	335.0	332.0	
Sat Jun 03 07:05:00 UTC 2017	0.0	1.049636864E9	2633.419189453125	0.0	2.5731072E7	0.0	2.0	7.92334336E8	35.441036224365234	0.0	0.0	1.061269504E9	1.050103808E9	0.0	0.0	0.06400000303983688	0.05324999988079071	0.04050000011920929	0.9915000200271606	0.72298663854599	0.0	244.0	371.0	0.0	0.0	0.0	0.0	0.0	0.0	null	null	null	null	null	null	null	null	334.0	336.0	334.0	333.0	334.0	337.0	333.0	334.0	333.0	333.0	332.0	
Sat Jun 03 07:04:00 UTC 2017	1.0	1.049636864E9	2959.693115234375	0.0	2.5731072E7	0.0	6.0	7.92244224E8	46.16380310058594	0.0	0.0	1.061269504E9	1.050103808E9	0.0	null	0.07225000113248825	0.04450000077486038	0.05299999937415123	0.9915000200271606	0.7252607345581055	0.0	244.0	371.0	0.0	0.0	0.0	0.0	0.0	0.0	null	null	null	null	null	null	null	null	334.0	334.0	332.0	334.0	335.0	333.0	332.0	334.0	334.0	336.0	333.0	
Sat Jun 03 07:03:00 UTC 2017	0.0	1.049636864E9	2673.932861328125	0.0	2.5731072E7	0.0	4.0	7.90511616E8	45.02803039550781	0.0	0.0	1.062281216E9	1.050103808E9	0.0	null	0.0754999965429306	0.05375000089406967	0.041999999433755875	0.9917500019073486	0.7251565456390381	0.0	244.0	371.0	0.0	0.0	0.0	0.0	0.0	0.0	null	null	null	null	null	null	null	null	330.0	335.0	333.0	334.0	333.0	336.0	335.0	330.0	334.0	334.0	334.0	
Sat Jun 03 07:02:00 UTC 2017	0.0	1.049636864E9	2951.024658203125	0.0	2.5731072E7	0.0	2.0	7.90511616E8	45.02803039550781	0.0	0.0	1.061269504E9	1.050103808E9	0.0	null	0.07999999821186066	0.051500000059604645	0.0494999997317791	0.9919999837875366	0.7229552865028381	0.0	244.0	371.0	0.0	0.0	0.0	0.0	0.0	0.0	null	null	null	null	null	null	null	null	335.0	335.0	334.0	335.0	333.0	332.0	334.0	334.0	336.0	333.0	336.0	
Sat Jun 03 07:01:00 UTC 2017	0.0	1.049636864E9	2966.707763671875	0.0	2.5731072E7	0.0	3.0	7.90511616E8	37.58378219604492	0.0	0.0	1.062281216E9	1.050103808E9	0.0	null	0.09525000303983688	0.0494999997317791	0.04650000110268593	0.9915000200271606	0.7229372262954712	0.0	244.0	371.0	0.0	0.0	0.0	0.0	0.0	0.0	null	null	null	null	null	null	null	null	333.0	328.0	334.0	336.0	336.0	335.0	334.0	337.0	336.0	334.0	332.0	
Sat Jun 03 07:00:00 UTC 2017	0.0	1.048625152E9	2966.707763671875	0.0	2.5731072E7	0.0	2.0	7.90392832E8	46.32694625854492	0.0	0.0	1.061269504E9	1.050103808E9	0.0	null	0.06875000149011612	0.050999999046325684	0.04699999839067459	0.9919999837875366	0.722892701625824	0.0	244.0	371.0	0.0	0.0	0.0	0.0	0.0	0.0	null	null	null	null	null	null	null	null	335.0	335.0	335.0	334.0	330.0	335.0	335.0	333.0	335.0	333.0	337.0	
Sat Jun 03 06:59:00 UTC 2017	0.0	1.048625152E9	2709.65771484375	0.0	2.5731072E7	0.0	2.0	7.9030272E8	35.3537483215332	0.0	0.0	1.061269504E9	1.050103808E9	0.0	null	0.08299999684095383	0.051249999552965164	0.04899999871850014	0.9919999837875366	0.7228931784629822	0.0	244.0	371.0	0.0	0.0	0.0	0.0	0.0	0.0	null	null	null	null	null	null	null	null	336.0	336.0	334.0	336.0	336.0	333.0	334.0	335.0	335.0	337.0	334.0	
Sat Jun 03 06:58:00 UTC 2017	0.0	1.048625152E9	2625.693603515625	0.0	2.5731072E7	0.0	2.0	7.9030272E8	35.3537483215332	0.0	0.0	1.061269504E9	1.050103808E9	0.0	0.0	0.07124999910593033	0.051750000566244125	0.04450000077486038	0.9919999837875366	0.7228579521179199	0.0	244.0	371.0	0.0	0.0	0.0	0.0	0.0	0.0	null	null	null	null	null	null	null	null	336.0	335.0	334.0	336.0	335.0	334.0	337.0	336.0	330.0	332.0	335.0	
Sat Jun 03 06:57:00 UTC 2017	0.0	1.049636864E9	2625.693603515625	0.0	2.5731072E7	0.0	4.0	7.9030272E8	42.48588943481445	0.0	0.0	1.061269504E9	1.050103808E9	0.0	null	0.07000000029802322	0.04650000110268593	0.051750000566244125	0.9919999837875366	0.7227630019187927	0.0	244.0	371.0	0.0	0.0	0.0	0.0	0.0	0.0	null	null	null	null	null	null	null	null	337.0	335.0	335.0	333.0	331.0	334.0	331.0	333.0	335.0	334.0	335.0	
Sat Jun 03 06:56:00 UTC 2017	0.0	1.048625152E9	2625.693603515625	0.0	2.5731072E7	0.0	2.0	7.9030272E8	33.33717727661133	0.0	0.0	1.062281216E9	1.050103808E9	0.0	null	0.07524999976158142	0.051750000566244125	0.04625000059604645	0.9915000200271606	0.7227224111557007	0.0	244.0	371.0	0.0	0.0	0.0	0.0	0.0	0.0	null	null	null	null	null	null	null	null	330.0	334.0	335.0	330.0	335.0	337.0	334.0	332.0	330.0	333.0	332.0	
Sat Jun 03 06:55:00 UTC 2017	0.0	1.049636864E9	2625.693603515625	0.0	2.5731072E7	0.0	2.0	7.9017984E8	36.08149337768555	0.0	0.0	1.061269504E9	1.050103808E9	0.0	null	0.07874999940395355	0.0560000017285347	0.041749998927116394	0.9915000200271606	0.7249994874000549	0.0	244.0	371.0	0.0	0.0	0.0	0.0	0.0	0.0	null	null	null	null	null	null	null	null	333.0	333.0	335.0	332.0	334.0	329.0	332.0	334.0	336.0	335.0	333.0	
Sat Jun 03 06:54:00 UTC 2017	1.0	1.048625152E9	2625.693603515625	0.0	2.5731072E7	0.0	2.0	7.90089728E8	41.828182220458984	0.0	0.0	1.062281216E9	1.050103808E9	0.0	null	0.07150000333786011	0.04724999889731407	0.04899999871850014	0.9917500019073486	0.7227082252502441	0.0	244.0	371.0	0.0	0.0	0.0	0.0	0.0	0.0	null	null	null	null	null	null	null	null	337.0	336.0	334.0	336.0	333.0	337.0	334.0	336.0	334.0	333.0	334.0	
Sat Jun 03 06:53:00 UTC 2017	0.0	1.049636864E9	2625.693603515625	0.0	2.5731072E7	0.0	2.0	7.90089728E8	41.828182220458984	0.0	1.0	1.062281216E9	1.050103808E9	0.0	null	0.07500000298023224	0.04924999922513962	0.04625000059604645	0.9915000200271606	0.7227067351341248	0.0	244.0	371.0	0.0	0.0	0.0	0.0	0.0	0.0	null	null	null	null	null	null	null	null	333.0	333.0	334.0	335.0	334.0	332.0	336.0	333.0	334.0	336.0	334.0	
Sat Jun 03 06:52:00 UTC 2017	1.0	1.048625152E9	2625.693603515625	0.0	2.5731072E7	0.0	2.0	7.90089728E8	29.194469451904297	2.0	1.0	1.061269504E9	1.050103808E9	0.0	null	0.06724999845027924	0.05999999865889549	0.04924999922513962	0.9915000200271606	0.7226896286010742	0.0	244.0	371.0	0.0	0.0	0.0	0.0	0.0	0.0	null	null	null	null	null	null	null	null	331.0	331.0	336.0	334.0	333.0	335.0	328.0	334.0	333.0	335.0	333.0	
Sat Jun 03 06:51:00 UTC 2017	0.0	1.049636864E9	2625.693603515625	0.0	2.5731072E7	0.0	7.0	7.90089728E8	29.194469451904297	0.0	0.0	1.062281216E9	1.050103808E9	0.0	null	0.09300000220537186	0.04724999889731407	0.04774999991059303	0.9915000200271606	0.7249305248260498	0.0	244.0	371.0	0.0	0.0	0.0	0.0	0.0	0.0	null	null	null	null	null	null	null	null	333.0	332.0	334.0	333.0	333.0	333.0	333.0	333.0	332.0	330.0	333.0	
Sat Jun 03 06:50:00 UTC 2017	1.0	1.048625152E9	2625.693603515625	0.0	2.5731072E7	0.0	2.0	7.8927872E8	64.91326904296875	0.0	0.0	1.062281216E9	1.050103808E9	0.0	0.0	0.07150000333786011	0.057750001549720764	0.048500001430511475	0.9915000200271606	0.7226089239120483	0.0	244.0	371.0	0.0	0.0	0.0	0.0	0.0	0.0	null	null	null	null	null	null	null	null	334.0	333.0	331.0	337.0	335.0	334.0	334.0	333.0	335.0	334.0	333.0	
Sat Jun 03 06:49:00 UTC 2017	0.0	1.049636864E9	2625.693603515625	0.0	2.5731072E7	0.0	2.0	7.89188608E8	64.91326904296875	0.0	0.0	1.061269504E9	1.050103808E9	0.0	0.0	0.07900000363588333	0.04749999940395355	0.04774999991059303	0.9912499785423279	0.7225912809371948	0.0	244.0	371.0	0.0	0.0	0.0	0.0	0.0	0.0	null	null	null	null	null	null	null	null	336.0	334.0	335.0	333.0	333.0	332.0	336.0	338.0	332.0	335.0	334.0	
Sat Jun 03 06:48:00 UTC 2017	0.0	1.049636864E9	2352.953125	0.0	2.5731072E7	0.0	4.0	7.89188608E8	64.91326904296875	0.0	0.0	1.062281216E9	1.050103808E9	0.0	0.0	0.0689999982714653	0.04774999991059303	0.045499999076128006	0.9890000224113464	0.7225732207298279	0.0	244.0	371.0	0.0	0.0	0.0	0.0	0.0	0.0	null	null	null	null	null	null	null	null	329.0	332.0	333.0	332.0	331.0	332.0	328.0	328.0	333.0	332.0	330.0	
Sat Jun 03 06:47:00 UTC 2017	1.0	1.048625152E9	2352.953125	0.0	2.5731072E7	0.0	3.0	7.89188608E8	46.20130157470703	0.0	0.0	1.062281216E9	1.050103808E9	0.0	0.0	0.07349999994039536	0.05375000089406967	0.04500000178813934	0.9882500171661377	0.7225697636604309	0.0	244.0	371.0	0.0	0.0	0.0	0.0	0.0	0.0	null	null	null	null	null	null	null	null	334.0	334.0	334.0	334.0	331.0	336.0	337.0	337.0	331.0	332.0	334.0	
Sat Jun 03 06:46:00 UTC 2017	0.0	1.049636864E9	2352.953125	0.0	2.5731072E7	0.0	5.0	7.8952448E8	46.20130157470703	0.0	0.0	1.062281216E9	1.050103808E9	0.0	0.0	0.0794999971985817	0.05025000125169754	0.0507499985396862	0.9912499785423279	0.7226563692092896	0.0	244.0	371.0	0.0	0.0	0.0	0.0	0.0	0.0	null	null	null	null	null	null	null	null	334.0	329.0	335.0	332.0	335.0	334.0	330.0	333.0	333.0	333.0	336.0	
Sat Jun 03 06:45:00 UTC 2017	1.0	1.048625152E9	2352.953125	0.0	2.5731072E7	0.0	4.0	7.8884864E8	46.20130157470703	0.0	0.0	1.061269504E9	1.050103808E9	0.0	0.0	0.07400000095367432	0.05274999886751175	0.0494999997317791	0.9902499914169312	0.7226426601409912	0.0	244.0	371.0	0.0	0.0	0.0	0.0	0.0	0.0	null	null	null	null	null	null	null	null	333.0	337.0	334.0	331.0	331.0	331.0	337.0	333.0	333.0	330.0	329.0	
Sat Jun 03 06:44:00 UTC 2017	0.0	1.049636864E9	2352.953125	0.0	2.5731072E7	0.0	2.0	7.88758528E8	46.20130157470703	0.0	0.0	1.061269504E9	1.050103808E9	0.0	0.0	0.07100000232458115	0.05249999836087227	0.04675000160932541	0.9915000200271606	0.7226333618164062	0.0	244.0	371.0	0.0	0.0	0.0	0.0	0.0	0.0	null	null	null	null	null	null	null	null	334.0	334.0	331.0	336.0	335.0	335.0	330.0	331.0	331.0	337.0	333.0	
Sat Jun 03 06:43:00 UTC 2017	1.0	1.049636864E9	2516.52587890625	0.0	2.5731072E7	0.0	2.0	7.88758528E8	46.20130157470703	0.0	0.0	1.062281216E9	1.050103808E9	0.0	0.0	0.07500000298023224	0.0494999997317791	0.04399999976158142	0.9909999966621399	0.7241564989089966	0.0	244.0	371.0	0.0	0.0	0.0	0.0	0.0	0.0	null	null	null	null	null	null	null	null	333.0	329.0	332.0	334.0	331.0	330.0	334.0	336.0	337.0	334.0	334.0	
Sat Jun 03 06:42:00 UTC 2017	0.0	1.049636864E9	3521.48486328125	0.0	2.5731072E7	0.0	3.0	7.88758528E8	44.19268035888672	0.0	0.0	1.061269504E9	1.050103808E9	0.0	0.0	0.07400000095367432	0.04924999922513962	0.05225000157952309	0.9917500019073486	0.7226133346557617	0.0	244.0	371.0	0.0	0.0	0.0	0.0	0.0	0.0	null	null	null	null	null	null	null	null	334.0	337.0	334.0	335.0	338.0	338.0	334.0	330.0	331.0	335.0	337.0	
Sat Jun 03 06:41:00 UTC 2017	0.0	1.049636864E9	2595.552490234375	0.0	2.5731072E7	0.0	3.0	7.88758528E8	53.07294845581055	0.0	0.0	1.061269504E9	1.050103808E9	0.0	0.0	0.09875000268220901	0.05025000125169754	0.04374999925494194	0.9915000200271606	0.722497820854187	0.0	244.0	371.0	0.0	0.0	0.0	0.0	0.0	0.0	null	null	null	null	null	null	null	null	332.0	338.0	336.0	331.0	336.0	331.0	337.0	337.0	334.0	334.0	331.0	
Sat Jun 03 06:40:00 UTC 2017	0.0	1.048625152E9	2595.552490234375	0.0	2.5731072E7	0.0	3.0	7.88639744E8	43.331077575683594	0.0	0.0	1.061269504E9	1.050103808E9	0.0	0.0	0.07074999809265137	0.054749999195337296	0.04749999940395355	0.9917500019073486	0.7224822044372559	0.0	244.0	371.0	0.0	0.0	0.0	0.0	0.0	0.0	null	null	null	null	null	null	null	null	329.0	335.0	333.0	338.0	334.0	330.0	333.0	334.0	334.0	333.0	337.0	
Sat Jun 03 06:39:00 UTC 2017	1.0	1.049636864E9	2595.552490234375	0.0	2.5731072E7	0.0	2.0	7.88549632E8	39.989532470703125	0.0	0.0	1.062281216E9	1.050103808E9	0.0	0.0	0.0742499977350235	0.04450000077486038	0.045499999076128006	0.9912499785423279	0.7224743366241455	0.0	244.0	371.0	0.0	0.0	0.0	0.0	0.0	0.0	null	null	null	null	null	null	null	null	332.0	334.0	337.0	335.0	334.0	337.0	334.0	332.0	337.0	334.0	333.0	
Sat Jun 03 06:38:00 UTC 2017	0.0	1.048625152E9	2595.552490234375	0.0	2.5731072E7	0.0	2.0	7.88549632E8	39.989532470703125	0.0	0.0	1.061269504E9	1.050103808E9	0.0	0.0	0.08049999922513962	0.05674999952316284	0.05025000125169754	0.9912499785423279	0.7224582433700562	0.0	244.0	371.0	0.0	0.0	0.0	0.0	0.0	0.0	null	null	null	null	null	null	null	null	333.0	333.0	332.0	334.0	333.0	333.0	330.0	333.0	331.0	334.0	334.0	
Sat Jun 03 06:37:00 UTC 2017	1.0	1.049636864E9	2595.552490234375	0.0	2.5731072E7	0.0	2.0	7.88549632E8	54.80661392211914	0.0	0.0	1.062281216E9	1.050103808E9	0.0	0.0	0.07400000095367432	0.04625000059604645	0.04749999940395355	0.984000027179718	0.7224401235580444	0.0	244.0	371.0	0.0	0.0	0.0	0.0	0.0	0.0	null	null	null	null	null	null	null	null	338.0	331.0	333.0	331.0	329.0	328.0	331.0	329.0	334.0	331.0	329.0	
Sat Jun 03 06:36:00 UTC 2017	0.0	1.049636864E9	2745.65478515625	0.0	2.5731072E7	0.0	2.0	7.88549632E8	39.50761032104492	0.0	0.0	1.062281216E9	1.050103808E9	0.0	0.0	0.07199999690055847	0.054249998182058334	0.04699999839067459	0.9915000200271606	0.7224851250648499	0.0	244.0	371.0	0.0	0.0	0.0	0.0	0.0	0.0	null	null	null	null	null	null	null	null	333.0	331.0	329.0	331.0	337.0	333.0	333.0	336.0	332.0	330.0	334.0	
Sat Jun 03 06:35:00 UTC 2017	0.0	1.048625152E9	2745.65478515625	0.0	2.5731072E7	0.0	2.0	7.88426752E8	39.50761032104492	0.0	0.0	1.062281216E9	1.050103808E9	0.0	0.0	0.08025000244379044	0.04975000023841858	0.0442500002682209	0.9912499785423279	0.7223750352859497	0.0	244.0	371.0	0.0	0.0	0.0	0.0	0.0	0.0	null	null	null	null	null	null	null	null	330.0	336.0	334.0	336.0	330.0	336.0	333.0	328.0	333.0	337.0	335.0	
Sat Jun 03 06:34:00 UTC 2017	1.0	1.049636864E9	2745.65478515625	0.0	2.5731072E7	0.0	2.0	7.8833664E8	39.50761032104492	0.0	0.0	1.061269504E9	1.050103808E9	0.0	0.0	0.06975000351667404	0.0494999997317791	0.052000001072883606	0.9912499785423279	0.7223329544067383	0.0	244.0	371.0	0.0	0.0	0.0	0.0	0.0	0.0	null	null	null	null	null	null	null	null	334.0	332.0	337.0	338.0	334.0	332.0	336.0	333.0	333.0	332.0	333.0	
Sat Jun 03 06:33:00 UTC 2017	1.0	1.049636864E9	2800.086669921875	0.0	2.5731072E7	0.0	3.0	7.8833664E8	38.27572250366211	0.0	0.0	1.062281216E9	1.050103808E9	0.0	0.0	0.07400000095367432	0.04450000077486038	0.04500000178813934	0.9877499938011169	0.722309947013855	0.0	244.0	371.0	0.0	0.0	0.0	0.0	0.0	0.0	null	null	null	null	null	null	null	null	333.0	333.0	331.0	330.0	333.0	328.0	336.0	333.0	334.0	332.0	334.0	
Sat Jun 03 06:32:00 UTC 2017	1.0	1.049636864E9	2821.362548828125	0.0	2.5731072E7	0.0	3.0	7.8833664E8	42.177284240722656	0.0	0.0	1.062281216E9	1.050103808E9	0.0	0.0	0.07699999958276749	0.05624999850988388	0.0494999997317791	0.9915000200271606	0.7222899198532104	0.0	244.0	371.0	0.0	0.0	0.0	0.0	0.0	0.0	null	null	null	null	null	null	null	null	334.0	333.0	333.0	337.0	338.0	333.0	332.0	335.0	331.0	334.0	336.0	
Sat Jun 03 06:31:00 UTC 2017	0.0	1.048625152E9	2821.362548828125	0.0	2.5731072E7	0.0	2.0	7.88672512E8	42.177284240722656	0.0	0.0	1.061269504E9	1.050103808E9	0.0	0.0	0.09600000083446503	0.04749999940395355	0.04500000178813934	0.9912499785423279	0.7222727537155151	0.0	244.0	371.0	0.0	0.0	0.0	0.0	0.0	0.0	null	null	null	null	null	null	null	null	329.0	334.0	331.0	334.0	332.0	331.0	335.0	331.0	331.0	336.0	332.0	
Sat Jun 03 06:30:00 UTC 2017	1.0	1.049636864E9	2821.362548828125	0.0	2.5731072E7	0.0	2.0	7.8821376E8	42.177284240722656	0.0	0.0	1.062281216E9	1.050103808E9	0.0	0.0	0.07050000131130219	0.05925000086426735	0.04574999958276749	0.9912499785423279	0.722163200378418	0.0	244.0	371.0	0.0	0.0	0.0	0.0	0.0	0.0	null	null	null	null	null	null	null	null	332.0	333.0	331.0	334.0	334.0	336.0	332.0	332.0	335.0	334.0	334.0	
Sat Jun 03 06:29:00 UTC 2017	1.0	1.048625152E9	2821.362548828125	0.0	2.5731072E7	0.0	2.0	7.8813184E8	42.177284240722656	0.0	0.0	1.062281216E9	1.050103808E9	0.0	0.0	0.0702499970793724	0.10000000149011612	0.048250000923871994	0.9867500066757202	0.722159743309021	0.0	244.0	371.0	0.0	0.0	0.0	0.0	0.0	0.0	null	null	null	null	null	null	null	null	331.0	331.0	332.0	331.0	330.0	330.0	329.0	333.0	330.0	331.0	332.0	
Sat Jun 03 06:28:00 UTC 2017	1.0	1.048625152E9	2608.13818359375	0.0	2.5731072E7	0.0	2.0	7.8813184E8	44.89378356933594	0.0	0.0	1.061269504E9	1.050103808E9	0.0	0.0	0.07850000262260437	0.04650000110268593	0.04899999871850014	0.9917500019073486	0.7244431972503662	0.0	244.0	371.0	0.0	0.0	0.0	0.0	0.0	0.0	null	null	null	null	null	null	null	null	332.0	335.0	335.0	335.0	334.0	335.0	334.0	332.0	335.0	333.0	332.0	
Sat Jun 03 06:27:00 UTC 2017	0.0	1.048625152E9	3051.80419921875	0.0	2.5731072E7	0.0	2.0	7.8813184E8	56.31678771972656	0.0	0.0	1.061269504E9	1.050103808E9	0.0	0.0	0.07100000232458115	0.052000001072883606	0.04600000008940697	0.9817500114440918	0.7221406698226929	0.0	244.0	371.0	0.0	0.0	0.0	0.0	0.0	0.0	null	null	null	null	null	null	null	null	330.0	330.0	329.0	331.0	333.0	331.0	333.0	334.0	330.0	331.0	333.0	
Sat Jun 03 06:26:00 UTC 2017	1.0	1.049636864E9	3051.80419921875	0.0	2.5731072E7	0.0	5.0	7.8813184E8	56.31678771972656	0.0	0.0	1.061269504E9	1.050103808E9	0.0	0.0	0.07824999839067459	0.0507499985396862	0.04874999821186066	0.9912499785423279	0.722122073173523	0.0	244.0	371.0	0.0	0.0	0.0	0.0	0.0	0.0	null	null	null	null	null	null	null	null	332.0	333.0	331.0	334.0	333.0	330.0	332.0	331.0	332.0	331.0	332.0	
Sat Jun 03 06:25:00 UTC 2017	1.0	1.049636864E9	2486.79638671875	0.0	2.5731072E7	0.0	2.0	7.88013056E8	28.070234298706055	0.0	0.0	1.062281216E9	1.050103808E9	0.0	0.0	0.07150000333786011	0.048500001430511475	0.04650000110268593	0.9912499785423279	0.7233384251594543	0.0	244.0	371.0	0.0	0.0	0.0	0.0	0.0	0.0	null	null	null	null	null	null	null	null	329.0	333.0	333.0	333.0	332.0	333.0	336.0	333.0	333.0	333.0	333.0	
Sat Jun 03 06:24:00 UTC 2017	1.0	1.049636864E9	2569.89794921875	0.0	2.5731072E7	0.0	2.0	7.87922944E8	60.849159240722656	0.0	0.0	1.061269504E9	1.050103808E9	0.0	0.0	0.06849999725818634	0.05550000071525574	0.04924999922513962	0.9919999837875366	0.7220892906188965	0.0	244.0	371.0	0.0	0.0	0.0	0.0	0.0	0.0	null	null	null	null	null	null	null	null	335.0	334.0	336.0	334.0	336.0	336.0	332.0	336.0	336.0	337.0	335.0	
Sat Jun 03 06:23:00 UTC 2017	0.0	1.049636864E9	2705.76220703125	0.0	2.5731072E7	0.0	2.0	7.87922944E8	42.416934967041016	0.0	0.0	1.062281216E9	1.050103808E9	0.0	0.0	0.07275000214576721	0.04125000163912773	0.04774999991059303	0.9915000200271606	0.7229827046394348	0.0	244.0	371.0	0.0	0.0	0.0	0.0	0.0	0.0	null	null	null	null	null	null	null	null	336.0	335.0	334.0	336.0	333.0	333.0	336.0	330.0	332.0	332.0	335.0	
Sat Jun 03 06:22:00 UTC 2017	1.0	1.048625152E9	2705.76220703125	0.0	2.5731072E7	0.0	2.0	7.87922944E8	42.416934967041016	0.0	0.0	1.062281216E9	1.050103808E9	0.0	0.0	0.07874999940395355	0.05249999836087227	0.045499999076128006	0.9912499785423279	0.7220712304115295	0.0	244.0	371.0	0.0	0.0	0.0	0.0	0.0	0.0	null	null	null	null	null	null	null	null	332.0	333.0	330.0	330.0	334.0	332.0	330.0	336.0	335.0	335.0	333.0	
Sat Jun 03 06:21:00 UTC 2017	0.0	1.049636864E9	2705.76220703125	0.0	2.5731072E7	0.0	5.0	7.87922944E8	38.03694152832031	1.0	0.0	1.062281216E9	1.050103808E9	0.0	0.0	0.09875000268220901	0.05025000125169754	0.04975000023841858	0.9915000200271606	0.7220604419708252	0.0	244.0	371.0	0.0	0.0	0.0	0.0	0.0	0.0	null	null	null	null	null	null	null	null	334.0	331.0	338.0	333.0	334.0	336.0	336.0	333.0	336.0	332.0	334.0	
Sat Jun 03 06:20:00 UTC 2017	0.0	1.048625152E9	2705.76220703125	0.0	2.5731072E7	0.0	3.0	7.87800064E8	38.03694152832031	0.0	0.0	1.062281216E9	1.050103808E9	0.0	0.0	0.07999999821186066	0.051750000566244125	0.04475000128149986	0.9915000200271606	0.7242381572723389	0.0	244.0	371.0	0.0	0.0	0.0	0.0	0.0	0.0	null	null	null	null	null	null	null	null	337.0	334.0	333.0	332.0	336.0	332.0	335.0	331.0	333.0	335.0	330.0	
Sat Jun 03 06:19:00 UTC 2017	0.0	1.048625152E9	2678.57421875	0.0	2.5731072E7	0.0	2.0	7.87709952E8	36.56623458862305	0.0	0.0	1.062281216E9	1.050103808E9	0.0	null	0.07175000011920929	0.0507499985396862	0.04975000023841858	0.9917500019073486	0.7244182229042053	0.0	244.0	371.0	0.0	0.0	0.0	0.0	0.0	0.0	null	null	null	null	null	null	null	null	333.0	329.0	334.0	338.0	332.0	337.0	336.0	334.0	335.0	334.0	335.0	
Sat Jun 03 06:18:00 UTC 2017	0.0	1.048625152E9	2802.760986328125	0.0	2.5731072E7	0.0	4.0	7.87709952E8	40.03158187866211	0.0	0.0	1.062281216E9	1.050103808E9	0.0	null	0.0689999982714653	0.05525000020861626	0.04475000128149986	0.9917500019073486	0.7244104146957397	0.0	244.0	371.0	0.0	0.0	0.0	0.0	0.0	0.0	null	null	null	null	null	null	null	null	336.0	333.0	333.0	336.0	334.0	331.0	333.0	335.0	334.0	337.0	334.0	
Sat Jun 03 06:17:00 UTC 2017	0.0	1.048625152E9	2814.9912109375	0.0	2.5731072E7	0.0	2.0	7.85608704E8	40.03158187866211	0.0	0.0	1.061269504E9	1.050103808E9	0.0	null	0.08174999803304672	0.04600000008940697	0.045499999076128006	0.9890000224113464	0.7221078872680664	0.0	244.0	371.0	0.0	0.0	0.0	0.0	0.0	0.0	null	null	null	null	null	null	null	null	332.0	329.0	332.0	329.0	330.0	335.0	331.0	332.0	332.0	329.0	334.0	
Sat Jun 03 06:16:00 UTC 2017	1.0	1.049636864E9	2814.9912109375	0.0	2.5731072E7	0.0	3.0	7.85608704E8	40.03158187866211	1.0	0.0	1.062281216E9	1.050103808E9	0.0	null	0.07349999994039536	0.05400000140070915	0.04899999871850014	0.9890000224113464	0.7220927476882935	0.0	244.0	371.0	0.0	0.0	0.0	0.0	0.0	0.0	null	null	null	null	null	null	null	null	329.0	334.0	332.0	335.0	336.0	334.0	334.0	332.0	331.0	335.0	332.0	
Sat Jun 03 06:15:00 UTC 2017	1.0	1.048625152E9	2814.9912109375	0.0	2.5731072E7	0.0	2.0	7.85481728E8	40.03158187866211	0.0	0.0	1.062268928E9	1.050103808E9	0.0	0.0	0.06825000047683716	0.05274999886751175	0.04500000178813934	0.9912499785423279	0.7220912575721741	0.0	244.0	371.0	0.0	0.0	0.0	0.0	0.0	0.0	null	null	null	null	null	null	null	null	334.0	331.0	334.0	332.0	333.0	333.0	333.0	331.0	334.0	336.0	333.0	
Sat Jun 03 06:14:00 UTC 2017	1.0	1.049636864E9	2814.9912109375	0.0	2.5731072E7	0.0	4.0	7.85391616E8	40.03158187866211	0.0	0.0	1.061257216E9	1.050103808E9	0.0	0.0	0.07500000298023224	0.04749999940395355	0.04924999922513962	0.9915000200271606	0.7220765948295593	0.0	244.0	371.0	0.0	0.0	0.0	0.0	0.0	0.0	null	null	null	null	null	null	null	null	332.0	333.0	335.0	334.0	330.0	332.0	331.0	333.0	333.0	333.0	335.0	
Sat Jun 03 06:13:00 UTC 2017	0.0	1.048625152E9	2814.9912109375	0.0	2.5731072E7	0.0	3.0	7.85391616E8	40.85362243652344	0.0	0.0	1.062268928E9	1.050103808E9	0.0	0.0	0.07750000059604645	0.05225000157952309	0.04600000008940697	0.9917500019073486	0.7220736742019653	0.0	244.0	371.0	0.0	0.0	0.0	0.0	0.0	0.0	null	null	null	null	null	null	null	null	334.0	336.0	336.0	335.0	334.0	333.0	334.0	334.0	334.0	336.0	333.0	
Sat Jun 03 06:12:00 UTC 2017	0.0	1.049636864E9	2814.9912109375	0.0	2.5731072E7	0.0	2.0	7.85391616E8	48.784236907958984	0.0	0.0	1.062268928E9	1.050103808E9	0.0	0.0	0.06975000351667404	0.05000000074505806	0.051249999552965164	0.9915000200271606	0.7220545411109924	0.0	244.0	371.0	0.0	0.0	0.0	0.0	0.0	0.0	null	null	null	null	null	null	null	null	334.0	331.0	332.0	331.0	332.0	338.0	333.0	330.0	335.0	333.0	339.0	
Sat Jun 03 06:11:00 UTC 2017	0.0	1.048625152E9	2814.9912109375	0.0	2.5731072E7	0.0	3.0	7.85391616E8	48.784236907958984	0.0	0.0	1.062268928E9	1.050103808E9	0.0	0.0	0.09324999898672104	0.05400000140070915	0.04475000128149986	0.9915000200271606	0.7219895124435425	0.0	244.0	371.0	0.0	0.0	0.0	0.0	0.0	0.0	null	null	null	null	null	null	null	null	334.0	337.0	332.0	335.0	336.0	332.0	334.0	335.0	332.0	333.0	332.0	
Sat Jun 03 06:10:00 UTC 2017	1.0	1.049636864E9	2814.9912109375	0.0	2.5731072E7	0.0	4.0	7.85534976E8	48.93349838256836	0.0	0.0	1.061257216E9	1.050103808E9	0.0	0.0	0.08100000023841858	0.04500000178813934	0.04899999871850014	0.9915000200271606	0.7219704389572144	0.0	244.0	371.0	0.0	0.0	0.0	0.0	0.0	0.0	null	null	null	null	null	null	null	null	334.0	334.0	334.0	335.0	333.0	331.0	335.0	334.0	332.0	333.0	333.0	
Sat Jun 03 06:09:00 UTC 2017	0.0	1.049636864E9	2458.668701171875	0.0	2.5731072E7	0.0	2.0	7.84990208E8	48.93349838256836	0.0	0.0	1.061257216E9	1.050103808E9	0.0	0.0	0.07275000214576721	0.054749999195337296	0.045499999076128006	0.9882500171661377	0.7219679355621338	0.0	244.0	371.0	0.0	0.0	0.0	0.0	0.0	0.0	null	null	null	null	null	null	null	null	334.0	332.0	334.0	335.0	330.0	332.0	333.0	331.0	331.0	335.0	330.0	
Sat Jun 03 06:08:00 UTC 2017	0.0	1.048625152E9	2458.668701171875	0.0	2.5731072E7	0.0	2.0	7.84990208E8	48.93349838256836	0.0	0.0	1.061257216E9	1.050103808E9	0.0	0.0	0.07374999672174454	0.051249999552965164	0.05000000074505806	0.9909999966621399	0.7242425680160522	0.0	244.0	371.0	0.0	0.0	0.0	0.0	0.0	0.0	null	null	null	null	null	null	null	null	334.0	331.0	334.0	336.0	332.0	337.0	333.0	336.0	336.0	334.0	333.0	
Sat Jun 03 06:07:00 UTC 2017	1.0	1.049636864E9	2458.668701171875	0.0	2.5731072E7	0.0	2.0	7.84990208E8	49.749046325683594	0.0	0.0	1.061257216E9	1.050103808E9	0.0	0.0	0.07450000196695328	0.04500000178813934	0.04625000059604645	0.9904999732971191	0.7237136960029602	0.0	244.0	371.0	0.0	0.0	0.0	0.0	0.0	0.0	null	null	null	null	null	null	null	null	333.0	334.0	332.0	332.0	336.0	334.0	333.0	332.0	333.0	332.0	330.0	
Sat Jun 03 06:06:00 UTC 2017	1.0	1.049636864E9	2895.448486328125	0.0	2.5731072E7	0.0	4.0	7.84990208E8	49.749046325683594	0.0	0.0	1.062268928E9	1.050103808E9	0.0	0.0	0.07000000029802322	0.05624999850988388	0.04975000023841858	0.9909999966621399	0.7231104373931885	0.0	244.0	371.0	0.0	0.0	0.0	0.0	0.0	0.0	null	null	null	null	null	null	null	null	326.0	325.0	334.0	325.0	317.0	319.0	320.0	328.0	324.0	320.0	326.0	
Sat Jun 03 06:05:00 UTC 2017	1.0	1.049636864E9	2757.621826171875	0.0	2.5731072E7	0.0	4.0	7.84867328E8	33.941986083984375	0.0	0.0	1.062268928E9	1.050103808E9	0.0	0.0	0.08224999904632568	0.04749999940395355	0.04625000059604645	0.9887499809265137	0.7285765409469604	0.0	244.0	371.0	0.0	0.0	0.0	0.0	0.0	0.0	null	null	null	null	null	null	null	null	322.0	323.0	319.0	325.0	336.0	328.0	329.0	319.0	325.0	331.0	324.0	
Sat Jun 03 06:04:00 UTC 2017	0.0	1.049636864E9	2986.7607421875	0.0	2.5731072E7	0.0	2.0	7.8372864E8	33.941986083984375	0.0	0.0	1.061257216E9	1.050103808E9	0.0	0.0	0.06975000351667404	0.05050000175833702	0.050999999046325684	0.9904999732971191	0.7218901515007019	0.0	244.0	371.0	0.0	0.0	0.0	0.0	0.0	0.0	null	null	null	null	null	null	null	null	332.0	336.0	332.0	331.0	331.0	332.0	334.0	336.0	331.0	331.0	331.0	
Sat Jun 03 06:03:00 UTC 2017	1.0	1.048625152E9	2986.7607421875	0.0	2.5731072E7	0.0	2.0	7.8372864E8	33.941986083984375	0.0	0.0	1.062268928E9	1.050103808E9	0.0	0.0	0.07874999940395355	0.048250000923871994	0.042750000953674316	0.9894999861717224	0.7218911647796631	0.0	244.0	371.0	0.0	0.0	0.0	0.0	0.0	0.0	null	null	null	null	null	null	null	null	330.0	328.0	331.0	329.0	333.0	333.0	332.0	330.0	337.0	334.0	332.0	
Sat Jun 03 06:02:00 UTC 2017	1.0	1.049636864E9	2986.7607421875	0.0	2.5731072E7	0.0	2.0	7.8372864E8	33.941986083984375	0.0	0.0	1.061257216E9	1.050103808E9	0.0	0.0	0.07100000232458115	0.05274999886751175	0.04625000059604645	0.9909999966621399	0.7218730449676514	0.0	244.0	371.0	0.0	0.0	0.0	0.0	0.0	0.0	null	null	null	null	null	null	null	null	336.0	337.0	336.0	338.0	333.0	332.0	331.0	334.0	333.0	333.0	335.0	
Sat Jun 03 06:01:00 UTC 2017	1.0	1.049636864E9	3274.96337890625	0.0	2.5731072E7	0.0	2.0	7.8372864E8	49.2106819152832	0.0	0.0	1.062268928E9	1.050103808E9	0.0	0.0	0.09950000047683716	0.05050000175833702	0.05249999836087227	0.9915000200271606	0.7218598127365112	0.0	244.0	371.0	0.0	0.0	0.0	0.0	0.0	0.0	null	null	null	null	null	null	null	null	332.0	333.0	331.0	332.0	337.0	338.0	333.0	336.0	336.0	334.0	335.0	
Sat Jun 03 06:00:00 UTC 2017	0.0	1.048625152E9	3274.96337890625	0.0	2.5731072E7	0.0	3.0	7.8360576E8	41.84274673461914	0.0	0.0	1.062268928E9	1.050103808E9	0.0	0.0	0.07824999839067459	0.04774999991059303	0.04600000008940697	0.9915000200271606	0.7218505144119263	0.0	244.0	371.0	0.0	0.0	0.0	0.0	0.0	0.0	null	null	null	null	null	null	null	null	337.0	334.0	334.0	335.0	329.0	333.0	334.0	336.0	331.0	337.0	331.0	
Sat Jun 03 05:59:00 UTC 2017	0.0	1.048625152E9	3221.73828125	0.0	2.5731072E7	0.0	2.0	7.83515648E8	41.84274673461914	0.0	0.0	1.062268928E9	1.050103808E9	0.0	0.0	0.07225000113248825	0.051750000566244125	0.04324999824166298	0.9912499785423279	0.7241212725639343	0.0	244.0	371.0	0.0	0.0	0.0	0.0	0.0	0.0	null	null	null	null	null	null	null	null	333.0	331.0	339.0	333.0	335.0	332.0	335.0	334.0	334.0	333.0	337.0	
Sat Jun 03 05:58:00 UTC 2017	1.0	1.049636864E9	3221.73828125	0.0	2.5731072E7	0.0	2.0	7.83515648E8	37.46601104736328	0.0	0.0	1.061257216E9	1.050103808E9	0.0	0.0	0.07124999910593033	0.05400000140070915	0.04749999940395355	0.9915000200271606	0.7218324542045593	0.0	244.0	371.0	0.0	0.0	0.0	0.0	0.0	0.0	null	null	null	null	null	null	null	null	333.0	338.0	331.0	331.0	334.0	332.0	332.0	332.0	337.0	334.0	330.0	
Sat Jun 03 05:57:00 UTC 2017	0.0	1.048625152E9	3221.73828125	0.0	2.5731072E7	0.0	2.0	7.83515648E8	55.21923828125	0.0	0.0	1.062268928E9	1.050103808E9	0.0	0.0	0.07374999672174454	0.050999999046325684	0.05050000175833702	0.9915000200271606	0.7241187691688538	0.0	244.0	371.0	0.0	0.0	0.0	0.0	0.0	0.0	null	null	null	null	null	null	null	null	335.0	331.0	334.0	334.0	331.0	335.0	339.0	332.0	333.0	332.0	337.0	
Sat Jun 03 05:56:00 UTC 2017	1.0	1.049636864E9	3221.73828125	0.0	2.5731072E7	0.0	3.0	7.83515648E8	55.21923828125	0.0	0.0	1.062268928E9	1.050103808E9	0.0	null	0.07325000315904617	0.04650000110268593	0.04699999839067459	0.9909999966621399	0.7217972278594971	0.0	244.0	371.0	0.0	0.0	0.0	0.0	0.0	0.0	null	null	null	null	null	null	null	null	333.0	332.0	337.0	333.0	333.0	333.0	330.0	334.0	334.0	333.0	334.0	
Sat Jun 03 05:55:00 UTC 2017	0.0	1.049636864E9	2429.254150390625	0.0	2.5731072E7	0.0	3.0	7.83392768E8	55.21923828125	1.0	0.0	1.061257216E9	1.050103808E9	0.0	null	0.07450000196695328	0.05225000157952309	0.04500000178813934	0.9912499785423279	0.7240879535675049	0.0	244.0	371.0	0.0	0.0	0.0	0.0	0.0	0.0	null	null	null	null	null	null	null	null	336.0	335.0	333.0	332.0	337.0	333.0	333.0	333.0	337.0	334.0	334.0	
Sat Jun 03 05:54:00 UTC 2017	0.0	1.049636864E9	2930.931884765625	0.0	2.5731072E7	0.0	2.0	7.83302656E8	55.21923828125	0.0	0.0	1.061257216E9	1.050095616E9	0.0	0.0	0.07625000178813934	0.05025000125169754	0.04774999991059303	0.9912499785423279	0.7217800617218018	0.0	244.0	371.0	0.0	0.0	0.0	0.0	0.0	0.0	null	null	null	null	null	null	null	null	334.0	332.0	333.0	332.0	331.0	335.0	334.0	337.0	335.0	336.0	331.0	
Sat Jun 03 05:53:00 UTC 2017	1.0	1.048625152E9	2930.931884765625	0.0	2.5731072E7	0.0	2.0	7.83302656E8	55.21923828125	0.0	0.0	1.061257216E9	1.050095616E9	0.0	0.0	0.07150000333786011	0.05299999937415123	0.04699999839067459	0.9894999861717224	0.7216939926147461	0.0	244.0	371.0	0.0	0.0	0.0	0.0	0.0	0.0	null	null	null	null	null	null	null	null	329.0	332.0	331.0	335.0	335.0	333.0	335.0	335.0	332.0	330.0	333.0	
Sat Jun 03 05:52:00 UTC 2017	1.0	1.049636864E9	2930.931884765625	0.0	2.5731072E7	0.0	2.0	7.83302656E8	49.24140930175781	0.0	0.0	1.062268928E9	1.050095616E9	0.0	0.0	0.07199999690055847	0.04650000110268593	0.0494999997317791	0.9890000224113464	0.7216753959655762	0.0	244.0	371.0	0.0	0.0	0.0	0.0	0.0	0.0	null	null	null	null	null	null	null	null	334.0	332.0	334.0	333.0	332.0	332.0	330.0	332.0	329.0	332.0	331.0	
Sat Jun 03 05:51:00 UTC 2017	1.0	1.048625152E9	2930.931884765625	0.0	2.5731072E7	0.0	3.0	7.83552512E8	49.24140930175781	0.0	0.0	1.062268928E9	1.050095616E9	0.0	0.0	0.09849999845027924	0.05274999886751175	0.041999999433755875	0.9915000200271606	0.7227649688720703	0.0	244.0	371.0	0.0	0.0	0.0	0.0	0.0	0.0	null	null	null	null	null	null	null	null	333.0	335.0	333.0	334.0	334.0	330.0	333.0	330.0	334.0	335.0	336.0	
Sat Jun 03 05:50:00 UTC 2017	0.0	1.048625152E9	2587.480224609375	0.0	2.5731072E7	0.0	2.0	7.83183872E8	46.8499870300293	0.0	0.0	1.061257216E9	1.050095616E9	0.0	0.0	0.07575000077486038	0.0507499985396862	0.04724999889731407	0.9907500147819519	0.7217115759849548	0.0	244.0	371.0	0.0	0.0	0.0	0.0	0.0	0.0	null	null	null	null	null	null	null	null	335.0	335.0	332.0	330.0	333.0	330.0	336.0	334.0	332.0	336.0	331.0	
Sat Jun 03 05:49:00 UTC 2017	0.0	1.049636864E9	2587.480224609375	0.0	2.5731072E7	0.0	2.0	7.8309376E8	44.43357467651367	0.0	0.0	1.061257216E9	1.050095616E9	0.0	0.0	0.06825000047683716	0.0494999997317791	0.04924999922513962	0.9917500019073486	0.7216866612434387	0.0	244.0	371.0	0.0	0.0	0.0	0.0	0.0	0.0	null	null	null	null	null	null	null	null	334.0	332.0	336.0	334.0	334.0	340.0	331.0	333.0	333.0	332.0	333.0	
Sat Jun 03 05:48:00 UTC 2017	0.0	1.048625152E9	2587.480224609375	0.0	2.5731072E7	0.0	2.0	7.8309376E8	57.87739944458008	0.0	1.0	1.061257216E9	1.050095616E9	0.0	0.0	0.07474999874830246	0.0507499985396862	0.051249999552965164	0.9912499785423279	0.7216024994850159	0.0	244.0	371.0	0.0	0.0	0.0	0.0	0.0	0.0	null	null	null	null	null	null	null	null	336.0	336.0	337.0	336.0	334.0	330.0	333.0	336.0	335.0	338.0	333.0	
Sat Jun 03 05:47:00 UTC 2017	0.0	1.048625152E9	3023.339599609375	0.0	2.5731072E7	0.0	2.0	7.8309376E8	57.87739944458008	0.0	0.0	1.062268928E9	1.050095616E9	0.0	0.0	0.07649999856948853	0.05375000089406967	0.04600000008940697	0.9897500276565552	0.7231965065002441	0.0	244.0	371.0	0.0	0.0	0.0	0.0	0.0	0.0	null	null	null	null	null	null	null	null	333.0	333.0	332.0	333.0	332.0	335.0	334.0	331.0	334.0	330.0	335.0	
Sat Jun 03 05:46:00 UTC 2017	1.0	1.048625152E9	2906.475341796875	0.0	2.5731072E7	0.0	4.0	7.83429632E8	48.41278076171875	0.0	0.0	1.061257216E9	1.050095616E9	0.0	0.0	0.07400000095367432	0.05000000074505806	0.04574999958276749	0.9912499785423279	0.7215853333473206	0.0	244.0	371.0	0.0	0.0	0.0	0.0	0.0	0.0	null	null	null	null	null	null	null	null	334.0	331.0	329.0	333.0	333.0	333.0	332.0	333.0	333.0	332.0	330.0	
Sat Jun 03 05:45:00 UTC 2017	1.0	1.048625152E9	2781.381591796875	0.0	2.5731072E7	0.0	2.0	7.8297088E8	43.61639404296875	0.0	0.0	1.061257216E9	1.050095616E9	0.0	null	0.07750000059604645	0.045499999076128006	0.0494999997317791	0.9752500057220459	0.7215173244476318	0.0	244.0	371.0	0.0	0.0	0.0	0.0	0.0	0.0	null	null	null	null	null	null	null	null	324.0	327.0	328.0	329.0	329.0	325.0	330.0	327.0	323.0	330.0	328.0	
Sat Jun 03 05:44:00 UTC 2017	1.0	1.048625152E9	2618.79296875	0.0	2.5731072E7	0.0	3.0	7.82880768E8	43.61639404296875	0.0	0.0	1.061257216E9	1.050095616E9	0.0	0.0	0.0677499994635582	0.05375000089406967	0.04724999889731407	0.9882500171661377	0.7215222120285034	0.0	244.0	371.0	0.0	0.0	0.0	0.0	0.0	0.0	null	null	null	null	null	null	null	null	332.0	330.0	332.0	331.0	331.0	333.0	333.0	333.0	335.0	334.0	333.0	
Sat Jun 03 05:43:00 UTC 2017	1.0	1.049636864E9	2618.79296875	0.0	2.5731072E7	0.0	3.0	7.82880768E8	43.61639404296875	0.0	0.0	1.062268928E9	1.050095616E9	0.0	0.0	0.07400000095367432	0.051500000059604645	0.04500000178813934	0.9897500276565552	0.7237738370895386	0.0	244.0	371.0	0.0	0.0	0.0	0.0	0.0	0.0	null	null	null	null	null	null	null	null	332.0	332.0	337.0	330.0	334.0	332.0	332.0	333.0	332.0	330.0	331.0	
Sat Jun 03 05:42:00 UTC 2017	1.0	1.049636864E9	2713.90673828125	0.0	2.5731072E7	0.0	2.0	7.82880768E8	43.61639404296875	0.0	0.0	1.061257216E9	1.050095616E9	0.0	0.0	0.0767500028014183	0.05350000038743019	0.048250000923871994	0.9904999732971191	0.7214879989624023	0.0	244.0	371.0	0.0	0.0	0.0	0.0	0.0	0.0	null	null	null	null	null	null	null	null	335.0	336.0	333.0	336.0	329.0	336.0	332.0	336.0	333.0	333.0	334.0	
Sat Jun 03 05:41:00 UTC 2017	1.0	1.048625152E9	2713.90673828125	0.0	2.5731072E7	0.0	2.0	7.82880768E8	47.16194152832031	0.0	0.0	1.062268928E9	1.050095616E9	0.0	0.0	0.08824999630451202	0.04675000160932541	0.04899999871850014	0.9879999756813049	0.7214703559875488	0.0	244.0	371.0	0.0	0.0	0.0	0.0	0.0	0.0	null	null	null	null	null	null	null	null	331.0	327.0	326.0	331.0	333.0	331.0	328.0	326.0	331.0	332.0	335.0	
Sat Jun 03 05:40:00 UTC 2017	1.0	1.048625152E9	2442.41552734375	0.0	2.5731072E7	0.0	2.0	7.82757888E8	44.38652801513672	0.0	0.0	1.061257216E9	1.050361856E9	0.0	0.0	0.07074999809265137	0.05350000038743019	0.051500000059604645	0.9917500019073486	0.7214537262916565	0.0	244.0	371.0	0.0	0.0	0.0	0.0	0.0	0.0	null	null	null	null	null	null	null	null	334.0	332.0	333.0	330.0	335.0	336.0	336.0	332.0	336.0	333.0	335.0	
Sat Jun 03 05:39:00 UTC 2017	0.0	1.049636864E9	2442.41552734375	0.0	2.5731072E7	0.0	2.0	7.82667776E8	38.05290985107422	0.0	0.0	1.061380096E9	1.050361856E9	0.0	null	0.0832500010728836	0.051750000566244125	0.04374999925494194	0.9915000200271606	0.7214522957801819	0.0	244.0	371.0	0.0	0.0	0.0	0.0	0.0	0.0	null	null	null	null	null	null	null	null	336.0	335.0	334.0	335.0	332.0	332.0	334.0	333.0	333.0	336.0	331.0	
Sat Jun 03 05:38:00 UTC 2017	0.0	1.049636864E9	3109.0068359375	0.0	2.5731072E7	0.0	2.0	7.82667776E8	34.379756927490234	0.0	0.0	1.061380096E9	1.050361856E9	0.0	0.0	0.0702499970793724	0.04675000160932541	0.04625000059604645	0.9912499785423279	0.7214351296424866	0.0	244.0	371.0	0.0	0.0	0.0	0.0	0.0	0.0	null	null	null	null	null	null	null	null	331.0	335.0	334.0	330.0	335.0	334.0	333.0	335.0	330.0	329.0	337.0	
Sat Jun 03 05:37:00 UTC 2017	1.0	1.049636864E9	3181.292236328125	0.0	2.5731072E7	0.0	2.0	7.82667776E8	37.31978988647461	1.0	1.0	1.062805504E9	1.050509312E9	0.0	0.0	0.07175000011920929	0.057999998331069946	0.04924999922513962	0.9912499785423279	0.7214155793190002	0.0	244.0	371.0	0.0	0.0	0.0	0.0	0.0	0.0	null	null	null	null	null	null	null	null	335.0	334.0	335.0	333.0	330.0	331.0	332.0	331.0	332.0	334.0	334.0	
Sat Jun 03 05:36:00 UTC 2017	1.0	1.048625152E9	3181.292236328125	0.0	2.5731072E7	0.0	3.0	7.82667776E8	48.22578811645508	2.0	2.0	1.062805504E9	1.05066496E9	0.0	null	0.07074999809265137	0.0494999997317791	0.048500001430511475	0.9915000200271606	0.721483588218689	0.0	244.0	371.0	0.0	0.0	0.0	0.0	0.0	0.0	null	null	null	null	null	null	null	null	331.0	334.0	330.0	335.0	335.0	335.0	335.0	336.0	333.0	334.0	334.0	
Sat Jun 03 05:35:00 UTC 2017	1.0	1.048625152E9	2402.8876953125	0.0	2.5731072E7	0.0	3.0	7.82548992E8	35.25541305541992	2.0	2.0	1.061945344E9	1.05080832E9	0.0	null	0.08224999904632568	0.0560000017285347	0.04800000041723251	0.9917500019073486	0.7214581370353699	0.0	244.0	371.0	0.0	0.0	0.0	0.0	0.0	0.0	null	null	null	null	null	null	null	null	336.0	332.0	336.0	332.0	337.0	331.0	335.0	330.0	333.0	330.0	333.0	
Sat Jun 03 05:34:00 UTC 2017	0.0	1.049636864E9	2402.8876953125	0.0	2.5731072E7	0.0	2.0	7.8245888E8	35.25541305541992	0.0	0.0	1.063165952E9	1.050963968E9	0.0	null	0.07199999690055847	0.054749999195337296	0.04874999821186066	0.9917500019073486	0.7214454412460327	0.0	244.0	371.0	0.0	0.0	0.0	0.0	0.0	0.0	null	null	null	null	null	null	null	null	333.0	335.0	333.0	334.0	330.0	336.0	334.0	337.0	335.0	335.0	337.0	
Sat Jun 03 05:33:00 UTC 2017	1.0	1.049636864E9	2567.77392578125	0.0	2.5731072E7	0.0	2.0	7.8245888E8	35.25541305541992	0.0	0.0	1.06215424E9	1.050963968E9	0.0	null	0.06975000351667404	0.0507499985396862	0.04800000041723251	0.9915000200271606	0.7214400172233582	0.0	244.0	371.0	0.0	0.0	0.0	0.0	0.0	0.0	null	null	null	null	null	null	null	null	337.0	335.0	334.0	332.0	337.0	332.0	333.0	334.0	334.0	332.0	334.0	
Sat Jun 03 05:32:00 UTC 2017	1.0	1.048625152E9	2567.77392578125	0.0	2.5731072E7	0.0	4.0	7.8245888E8	35.25541305541992	0.0	0.0	1.063501824E9	1.051111424E9	0.0	null	0.07150000333786011	0.04675000160932541	0.04975000023841858	0.9912499785423279	0.721424400806427	0.0	244.0	371.0	0.0	0.0	0.0	0.0	0.0	0.0	null	null	null	null	null	null	null	null	329.0	333.0	334.0	333.0	335.0	333.0	334.0	333.0	336.0	335.0	334.0	
Sat Jun 03 05:31:00 UTC 2017	0.0	1.048625152E9	2585.26904296875	0.0	2.5731072E7	0.0	3.0	7.8245888E8	43.22822189331055	0.0	0.0	1.062490112E9	1.051111424E9	0.0	null	0.1054999977350235	0.051750000566244125	0.04749999940395355	0.9887499809265137	0.7214062809944153	0.0	244.0	371.0	0.0	0.0	0.0	0.0	0.0	0.0	null	null	null	null	null	null	null	null	336.0	332.0	333.0	333.0	331.0	330.0	333.0	334.0	333.0	333.0	329.0	
Sat Jun 03 05:30:00 UTC 2017	1.0	1.049636864E9	2585.26904296875	0.0	2.5731072E7	0.0	2.0	7.82336E8	46.22906494140625	0.0	1.0	1.062490112E9	1.05125888E9	0.0	0.0	0.06825000047683716	0.054749999195337296	0.04324999824166298	0.9912499785423279	0.7213431596755981	0.0	244.0	371.0	0.0	0.0	0.0	0.0	0.0	0.0	null	null	null	null	null	null	null	null	335.0	335.0	329.0	334.0	333.0	336.0	337.0	330.0	335.0	330.0	334.0	
Sat Jun 03 05:29:00 UTC 2017	1.0	1.048625152E9	2585.26904296875	0.0	2.5731072E7	0.0	3.0	7.82245888E8	30.8171329498291	0.0	0.0	1.0627072E9	1.05125888E9	0.0	0.0	0.07925000041723251	0.05050000175833702	0.04899999871850014	0.9869999885559082	0.721336305141449	0.0	244.0	371.0	0.0	0.0	0.0	0.0	0.0	0.0	null	null	null	null	null	null	null	null	330.0	331.0	333.0	332.0	335.0	332.0	329.0	333.0	329.0	325.0	330.0	
Sat Jun 03 05:28:00 UTC 2017	1.0	1.048625152E9	2954.2158203125	0.0	2.5731072E7	0.0	3.0	7.82245888E8	30.8171329498291	0.0	0.0	1.063837696E9	1.051467776E9	0.0	0.0	0.0689999982714653	0.054249998182058334	0.04699999839067459	0.9912499785423279	0.7213187217712402	0.0	244.0	371.0	0.0	0.0	0.0	0.0	0.0	0.0	null	null	null	null	null	null	null	null	332.0	332.0	333.0	330.0	332.0	331.0	334.0	331.0	336.0	334.0	330.0	
Sat Jun 03 05:27:00 UTC 2017	1.0	1.048625152E9	2587.242431640625	0.0	2.5731072E7	0.0	2.0	7.82245888E8	30.8171329498291	0.0	0.0	1.063149568E9	1.051467776E9	0.0	0.0	0.08124999701976776	0.04650000110268593	0.051249999552965164	0.9912499785423279	0.7235791087150574	0.0	244.0	371.0	0.0	0.0	0.0	0.0	0.0	0.0	null	null	null	null	null	null	null	null	333.0	335.0	335.0	336.0	332.0	334.0	334.0	333.0	331.0	334.0	333.0	
Sat Jun 03 05:26:00 UTC 2017	1.0	1.049636864E9	2587.242431640625	0.0	2.5731072E7	0.0	3.0	7.82245888E8	56.77492141723633	0.0	0.0	1.06416128E9	1.05158656E9	0.0	0.0	0.061000000685453415	0.057500001043081284	0.045249998569488525	0.9912499785423279	0.7212839722633362	0.0	244.0	371.0	0.0	0.0	0.0	0.0	0.0	0.0	null	null	null	null	null	null	null	null	335.0	332.0	335.0	334.0	332.0	333.0	334.0	332.0	333.0	335.0	331.0	
Sat Jun 03 05:25:00 UTC 2017	1.0	1.049636864E9	2997.39990234375	0.0	2.5731072E7	0.0	2.0	7.8106624E8	56.77492141723633	0.0	0.0	1.06416128E9	1.051738112E9	0.0	0.0	0.08299999684095383	0.04475000128149986	0.04699999839067459	0.9879999756813049	0.7235600352287292	0.0	244.0	371.0	0.0	0.0	0.0	0.0	0.0	0.0	null	null	null	null	null	null	null	null	333.0	335.0	332.0	331.0	330.0	332.0	332.0	333.0	335.0	332.0	330.0	
Sat Jun 03 05:24:00 UTC 2017	1.0	1.048625152E9	2997.39990234375	0.0	2.5731072E7	0.0	2.0	7.80976128E8	56.77492141723633	0.0	0.0	1.064370176E9	1.051881472E9	0.0	0.0	0.0677499994635582	0.0507499985396862	0.04975000023841858	0.9915000200271606	0.7212120294570923	0.0	244.0	371.0	0.0	0.0	0.0	0.0	0.0	0.0	null	null	null	null	null	null	null	null	331.0	330.0	336.0	333.0	334.0	334.0	333.0	331.0	330.0	334.0	339.0	
Sat Jun 03 05:23:00 UTC 2017	1.0	1.048625152E9	2839.671142578125	0.0	2.5731072E7	0.0	2.0	7.80976128E8	46.724002838134766	0.0	0.0	1.064726528E9	1.051881472E9	0.0	0.0	0.0807500034570694	0.05225000157952309	0.04475000128149986	0.9915000200271606	0.7211557626724243	0.0	244.0	371.0	0.0	0.0	0.0	0.0	0.0	0.0	null	null	null	null	null	null	null	null	334.0	336.0	334.0	333.0	335.0	333.0	335.0	335.0	335.0	335.0	333.0	
Sat Jun 03 05:22:00 UTC 2017	0.0	1.049636864E9	2839.671142578125	0.0	2.5731072E7	0.0	2.0	7.80976128E8	46.724002838134766	0.0	0.0	1.064726528E9	1.052033024E9	0.0	0.0	0.06800000369548798	0.04924999922513962	0.04899999871850014	0.9912499785423279	0.7220242023468018	0.0	244.0	371.0	0.0	0.0	0.0	0.0	0.0	0.0	null	null	null	null	null	null	null	null	331.0	335.0	331.0	335.0	332.0	332.0	334.0	333.0	334.0	334.0	334.0	
Sat Jun 03 05:21:00 UTC 2017	1.0	1.049636864E9	2335.569091796875	0.0	2.5731072E7	0.0	3.0	7.80976128E8	46.724002838134766	0.0	0.0	1.064841216E9	1.052184576E9	0.0	0.0	0.09925000369548798	0.054249998182058334	0.04475000128149986	0.9912499785423279	0.7211934328079224	0.0	244.0	371.0	0.0	0.0	0.0	0.0	0.0	0.0	null	null	null	null	null	null	null	null	331.0	334.0	334.0	335.0	333.0	335.0	332.0	334.0	333.0	331.0	332.0	
Sat Jun 03 05:20:00 UTC 2017	0.0	1.048625152E9	2335.569091796875	0.0	2.5731072E7	0.0	2.0	7.80857344E8	43.748416900634766	0.0	0.0	1.063829504E9	1.052393472E9	0.0	0.0	0.06875000149011612	0.05050000175833702	0.05025000125169754	0.9912499785423279	0.7211792469024658	0.0	244.0	371.0	0.0	0.0	0.0	0.0	0.0	0.0	null	null	null	null	null	null	null	null	333.0	336.0	330.0	334.0	336.0	337.0	335.0	332.0	335.0	338.0	335.0	
Sat Jun 03 05:19:00 UTC 2017	0.0	1.049636864E9	2335.569091796875	0.0	2.5731072E7	0.0	2.0	7.80767232E8	43.748416900634766	0.0	0.0	1.064988672E9	1.052393472E9	0.0	0.0	0.07325000315904617	0.04899999871850014	0.04724999889731407	0.9915000200271606	0.7211782932281494	0.0	244.0	371.0	0.0	0.0	0.0	0.0	0.0	0.0	null	null	null	null	null	null	null	null	337.0	335.0	337.0	335.0	335.0	334.0	338.0	334.0	335.0	335.0	334.0	
Sat Jun 03 05:18:00 UTC 2017	0.0	1.048625152E9	2335.569091796875	0.0	2.5731072E7	0.0	2.0	7.80767232E8	43.748416900634766	0.0	0.0	1.064132608E9	1.052545024E9	0.0	0.0	0.07150000333786011	0.05249999836087227	0.04574999958276749	0.9890000224113464	0.722694993019104	0.0	244.0	371.0	0.0	0.0	0.0	0.0	0.0	0.0	null	null	null	null	null	null	null	null	332.0	334.0	331.0	331.0	331.0	331.0	332.0	333.0	329.0	332.0	334.0	
Sat Jun 03 05:17:00 UTC 2017	1.0	1.048625152E9	3138.71630859375	0.0	2.5731072E7	0.0	2.0	7.80767232E8	37.24818420410156	0.0	0.0	1.065291776E9	1.052655616E9	0.0	0.0	0.07975000143051147	0.05000000074505806	0.04924999922513962	0.9890000224113464	0.723481297492981	0.0	244.0	371.0	0.0	0.0	0.0	0.0	0.0	0.0	null	null	null	null	null	null	null	null	333.0	330.0	333.0	337.0	332.0	334.0	334.0	333.0	335.0	334.0	330.0	
Sat Jun 03 05:16:00 UTC 2017	1.0	1.048625152E9	2292.26318359375	0.0	2.5731072E7	0.0	3.0	7.80767232E8	51.85176086425781	0.0	0.0	1.064452096E9	1.052950528E9	0.0	0.0	0.0702499970793724	0.04650000110268593	0.04699999839067459	0.9912499785423279	0.7211836576461792	0.0	244.0	371.0	0.0	0.0	0.0	0.0	0.0	0.0	null	null	null	null	null	null	null	null	334.0	335.0	331.0	333.0	332.0	331.0	333.0	331.0	333.0	333.0	337.0	
Sat Jun 03 05:15:00 UTC 2017	1.0	1.048625152E9	3714.2587890625	0.0	2.5731072E7	0.0	3.0	7.80644352E8	46.8848991394043	0.0	0.0	1.064452096E9	1.052950528E9	0.0	0.0	0.08375000208616257	0.054749999195337296	0.042500000447034836	0.9915000200271606	0.7231583595275879	0.0	244.0	371.0	0.0	0.0	0.0	0.0	0.0	0.0	null	null	null	null	null	null	null	null	332.0	331.0	336.0	338.0	333.0	332.0	332.0	333.0	331.0	335.0	334.0	
Sat Jun 03 05:14:00 UTC 2017	1.0	1.049636864E9	3714.2587890625	0.0	2.5731072E7	0.0	2.0	7.8055424E8	61.08262634277344	0.0	0.0	1.064869888E9	1.053106176E9	0.0	null	0.07100000232458115	0.04800000041723251	0.04975000023841858	0.9897500276565552	0.7211679816246033	0.0	244.0	371.0	0.0	0.0	0.0	0.0	0.0	0.0	null	null	null	null	null	null	null	null	334.0	332.0	333.0	332.0	331.0	336.0	334.0	336.0	330.0	331.0	329.0	
Sat Jun 03 05:13:00 UTC 2017	0.0	1.048625152E9	3714.2587890625	0.0	2.5731072E7	0.0	3.0	7.8055424E8	61.08262634277344	0.0	0.0	1.066033152E9	1.053425664E9	0.0	null	0.07124999910593033	0.0507499985396862	0.0507499985396862	0.9887499809265137	0.7212433815002441	0.0	244.0	371.0	0.0	0.0	0.0	0.0	0.0	0.0	null	null	null	null	null	null	null	null	332.0	334.0	331.0	332.0	333.0	330.0	332.0	330.0	335.0	333.0	332.0	
Sat Jun 03 05:12:00 UTC 2017	1.0	1.048625152E9	2538.37744140625	0.0	2.5731072E7	0.0	4.0	7.8055424E8	61.08262634277344	0.0	0.0	1.065168896E9	1.053425664E9	0.0	null	0.07225000113248825	0.0494999997317791	0.04800000041723251	0.9912499785423279	0.7234534025192261	0.0	244.0	371.0	0.0	0.0	0.0	0.0	0.0	0.0	null	null	null	null	null	null	null	null	333.0	332.0	332.0	332.0	337.0	330.0	330.0	331.0	330.0	334.0	334.0	
Sat Jun 03 05:11:00 UTC 2017	1.0	1.049636864E9	2538.37744140625	0.0	2.5731072E7	0.0	6.0	7.8055424E8	61.08262634277344	0.0	0.0	1.065381888E9	1.053536256E9	0.0	0.0	0.09674999862909317	0.05050000175833702	0.04650000110268593	0.9915000200271606	0.7234318852424622	0.0	244.0	371.0	0.0	0.0	0.0	0.0	0.0	0.0	null	null	null	null	null	null	null	null	336.0	334.0	337.0	335.0	331.0	334.0	338.0	335.0	337.0	335.0	335.0	
Sat Jun 03 05:10:00 UTC 2017	0.0	1.048625152E9	2538.37744140625	0.0	2.5731072E7	0.0	4.0	7.78592256E8	39.828128814697266	0.0	0.0	1.065381888E9	1.053536256E9	0.0	0.0	0.07474999874830246	0.0507499985396862	0.04500000178813934	0.9915000200271606	0.7211396098136902	0.0	244.0	371.0	0.0	0.0	0.0	0.0	0.0	0.0	null	null	null	null	null	null	null	null	334.0	337.0	331.0	334.0	336.0	334.0	334.0	332.0	332.0	336.0	332.0	
Sat Jun 03 05:09:00 UTC 2017	0.0	1.049636864E9	2538.37744140625	0.0	2.5731072E7	0.0	4.0	7.78297344E8	39.62805938720703	0.0	0.0	1.06549248E9	1.053806592E9	0.0	null	0.07750000059604645	0.050999999046325684	0.05025000125169754	0.9915000200271606	0.7211053967475891	0.0	244.0	371.0	0.0	0.0	0.0	0.0	0.0	0.0	null	null	null	null	null	null	null	null	337.0	333.0	336.0	336.0	338.0	335.0	332.0	338.0	335.0	332.0	338.0	
Sat Jun 03 05:08:00 UTC 2017	0.0	1.048625152E9	2538.37744140625	0.0	2.5731072E7	0.0	4.0	7.78297344E8	39.62805938720703	0.0	0.0	1.067012096E9	1.053806592E9	0.0	null	0.0767500028014183	0.051750000566244125	0.04475000128149986	0.9915000200271606	0.7210868000984192	0.0	244.0	371.0	0.0	0.0	0.0	0.0	0.0	0.0	null	null	null	null	null	null	null	null	330.0	333.0	332.0	338.0	330.0	334.0	331.0	332.0	338.0	334.0	332.0	
Sat Jun 03 05:07:00 UTC 2017	1.0	1.048625152E9	2780.720947265625	0.0	2.5731072E7	0.0	2.0	7.78297344E8	41.06698989868164	0.0	0.0	1.067220992E9	1.053929472E9	0.0	0.0	0.07225000113248825	0.04899999871850014	0.04600000008940697	0.9915000200271606	0.7210711240768433	0.0	244.0	371.0	0.0	0.0	0.0	0.0	0.0	0.0	null	null	null	null	null	null	null	null	333.0	334.0	333.0	332.0	336.0	337.0	338.0	332.0	331.0	332.0	332.0	
Sat Jun 03 05:06:00 UTC 2017	1.0	1.048625152E9	2555.302978515625	0.0	2.5731072E7	0.0	2.0	7.78297344E8	44.187259674072266	0.0	0.0	1.066360832E9	1.054081024E9	0.0	0.0	0.07074999809265137	0.05249999836087227	0.05050000175833702	0.9915000200271606	0.7209948301315308	0.0	244.0	371.0	0.0	0.0	0.0	0.0	0.0	0.0	null	null	null	null	null	null	null	null	334.0	333.0	334.0	334.0	336.0	334.0	333.0	335.0	333.0	334.0	334.0	
Sat Jun 03 05:05:00 UTC 2017	1.0	1.048625152E9	2580.637939453125	0.0	2.5731072E7	0.0	2.0	7.78174464E8	44.187259674072266	0.0	0.0	1.066360832E9	1.054195712E9	0.0	0.0	0.0820000022649765	0.05350000038743019	0.04125000163912773	0.9912499785423279	0.7209155559539795	0.0	244.0	371.0	0.0	0.0	0.0	0.0	0.0	0.0	null	null	null	null	null	null	null	null	334.0	333.0	330.0	330.0	330.0	333.0	329.0	332.0	333.0	331.0	332.0	
Sat Jun 03 05:04:00 UTC 2017	1.0	1.048625152E9	2939.949951171875	0.0	2.5731072E7	0.0	2.0	7.78084352E8	47.465267181396484	0.0	0.0	1.06758144E9	1.05449472E9	0.0	0.0	0.07124999910593033	0.051500000059604645	0.051249999552965164	0.9869999885559082	0.7231833338737488	0.0	244.0	371.0	0.0	0.0	0.0	0.0	0.0	0.0	null	null	null	null	null	null	null	null	335.0	331.0	332.0	332.0	334.0	328.0	334.0	332.0	335.0	334.0	334.0	
Sat Jun 03 05:03:00 UTC 2017	1.0	1.049636864E9	2939.949951171875	0.0	2.5731072E7	0.0	4.0	7.78084352E8	42.70237731933594	0.0	0.0	1.066827776E9	1.05449472E9	0.0	0.0	0.07625000178813934	0.05050000175833702	0.04800000041723251	0.9894999861717224	0.7208940386772156	0.0	244.0	371.0	0.0	0.0	0.0	0.0	0.0	0.0	null	null	null	null	null	null	null	null	332.0	336.0	333.0	332.0	334.0	334.0	332.0	333.0	331.0	331.0	332.0	
Sat Jun 03 05:02:00 UTC 2017	1.0	1.049636864E9	2393.19873046875	0.0	2.5731072E7	0.0	3.0	7.78084352E8	42.70237731933594	0.0	0.0	1.067839488E9	1.054609408E9	0.0	0.0	0.07649999856948853	0.05249999836087227	0.0430000014603138	0.9865000247955322	0.7208822965621948	0.0	244.0	371.0	0.0	0.0	0.0	0.0	0.0	0.0	null	null	null	null	null	null	null	null	331.0	330.0	332.0	331.0	328.0	332.0	331.0	331.0	330.0	331.0	330.0	
Sat Jun 03 05:01:00 UTC 2017	1.0	1.049636864E9	2292.5224609375	0.0	2.5731072E7	0.0	2.0	7.7842432E8	42.70237731933594	0.0	0.0	1.066971136E9	1.054756864E9	0.0	0.0	0.09049999713897705	0.04500000178813934	0.04724999889731407	0.9915000200271606	0.7208651304244995	0.0	244.0	371.0	0.0	0.0	0.0	0.0	0.0	0.0	null	null	null	null	null	null	null	null	334.0	336.0	334.0	333.0	334.0	334.0	333.0	336.0	335.0	335.0	335.0	
Sat Jun 03 05:00:00 UTC 2017	1.0	1.048625152E9	2292.5224609375	0.0	2.5731072E7	0.0	2.0	7.77965568E8	42.70237731933594	0.0	1.0	1.067081728E9	1.054908416E9	0.0	0.0	0.07625000178813934	0.0560000017285347	0.048250000923871994	0.9912499785423279	0.7208465337753296	0.0	244.0	371.0	0.0	0.0	0.0	0.0	0.0	0.0	null	null	null	null	null	null	null	null	333.0	333.0	333.0	335.0	333.0	333.0	328.0	332.0	333.0	332.0	333.0	
Sat Jun 03 04:59:00 UTC 2017	0.0	1.049636864E9	2292.5224609375	0.0	2.5731072E7	0.0	2.0	7.77875456E8	42.70237731933594	0.0	1.0	1.067200512E9	1.055084544E9	0.0	0.0	0.07225000113248825	0.05000000074505806	0.04899999871850014	0.9912499785423279	0.7208426594734192	0.0	244.0	371.0	0.0	0.0	0.0	0.0	0.0	0.0	null	null	null	null	null	null	null	null	334.0	331.0	333.0	335.0	333.0	335.0	335.0	332.0	336.0	332.0	335.0	
Sat Jun 03 04:58:00 UTC 2017	0.0	1.048625152E9	2292.5224609375	0.0	2.5731072E7	0.0	2.0	7.77875456E8	42.70237731933594	1.0	2.0	1.067200512E9	1.055199232E9	0.0	0.0	0.0742499977350235	0.05400000140070915	0.04800000041723251	0.9912499785423279	0.7208260297775269	0.0	244.0	371.0	0.0	0.0	0.0	0.0	0.0	0.0	null	null	null	null	null	null	null	null	334.0	332.0	333.0	335.0	335.0	330.0	332.0	335.0	335.0	332.0	332.0	
Sat Jun 03 04:57:00 UTC 2017	1.0	1.048625152E9	2648.7177734375	0.0	2.5731072E7	0.0	4.0	7.77875456E8	42.70237731933594	0.0	0.0	1.068331008E9	1.055199232E9	0.0	0.0	0.07225000113248825	0.04975000023841858	0.04475000128149986	0.9867500066757202	0.7208142876625061	0.0	244.0	371.0	0.0	0.0	0.0	0.0	0.0	0.0	null	null	null	null	null	null	null	null	331.0	334.0	330.0	330.0	333.0	332.0	330.0	332.0	330.0	331.0	330.0	
Sat Jun 03 04:56:00 UTC 2017	1.0	1.049636864E9	2648.7177734375	0.0	2.5731072E7	0.0	2.0	7.7682688E8	42.70237731933594	0.0	0.0	1.067470848E9	1.055408128E9	0.0	0.0	0.07349999994039536	0.04675000160932541	0.04749999940395355	0.9857500195503235	0.7207834124565125	0.0	244.0	371.0	0.0	0.0	0.0	0.0	0.0	0.0	null	null	null	null	null	null	null	null	330.0	334.0	335.0	334.0	331.0	333.0	332.0	331.0	332.0	330.0	330.0	
Sat Jun 03 04:55:00 UTC 2017	0.0	1.048625152E9	2648.7177734375	0.0	2.5731072E7	0.0	2.0	7.76687616E8	34.71715545654297	0.0	0.0	1.067732992E9	1.05558016E9	0.0	0.0	0.08624999970197678	0.051249999552965164	0.04450000077486038	0.9857500195503235	0.7232792377471924	0.0	244.0	371.0	0.0	0.0	0.0	0.0	0.0	0.0	null	null	null	null	null	null	null	null	331.0	329.0	329.0	333.0	332.0	330.0	331.0	333.0	332.0	332.0	334.0	
Sat Jun 03 04:54:00 UTC 2017	0.0	1.048625152E9	2934.336669921875	0.0	2.5731072E7	0.0	3.0	7.76597504E8	34.71715545654297	0.0	0.0	1.068744704E9	1.055694848E9	0.0	0.0	0.07349999994039536	0.05000000074505806	0.048250000923871994	0.9915000200271606	0.7209209203720093	0.0	244.0	371.0	0.0	0.0	0.0	0.0	0.0	0.0	null	null	null	null	null	null	null	null	334.0	333.0	333.0	336.0	333.0	333.0	335.0	336.0	333.0	336.0	334.0	
Sat Jun 03 04:53:00 UTC 2017	0.0	1.048625152E9	2873.713623046875	0.0	2.5731072E7	0.0	2.0	7.76597504E8	34.71715545654297	0.0	0.0	1.068896256E9	1.0558464E9	0.0	null	0.06674999743700027	0.052000001072883606	0.0494999997317791	0.9915000200271606	0.7209038138389587	0.0	244.0	371.0	0.0	0.0	0.0	0.0	0.0	0.0	null	null	null	null	null	null	null	null	334.0	335.0	337.0	334.0	337.0	335.0	331.0	331.0	334.0	331.0	333.0	
Sat Jun 03 04:52:00 UTC 2017	0.0	1.048625152E9	2986.640869140625	0.0	2.5731072E7	0.0	2.0	7.76597504E8	34.71715545654297	0.0	0.0	1.069043712E9	1.056055296E9	0.0	0.0	0.0807500034570694	0.054499998688697815	0.045499999076128006	0.9900000095367432	0.7208915948867798	0.0	244.0	371.0	0.0	0.0	0.0	0.0	0.0	0.0	null	null	null	null	null	null	null	null	335.0	330.0	331.0	335.0	333.0	333.0	336.0	331.0	333.0	333.0	333.0	
Sat Jun 03 04:51:00 UTC 2017	0.0	1.048625152E9	2425.8232421875	0.0	2.5731072E7	0.0	3.0	7.76597504E8	103.8043212890625	0.0	1.0	1.06817536E9	1.056202752E9	0.0	0.0	0.10100000351667404	0.050999999046325684	0.04450000077486038	0.9904999732971191	0.720885694026947	0.0	244.0	371.0	0.0	0.0	0.0	0.0	0.0	0.0	null	null	null	null	null	null	null	null	333.0	335.0	334.0	333.0	333.0	334.0	336.0	336.0	333.0	334.0	333.0	
Sat Jun 03 04:50:00 UTC 2017	0.0	1.048625152E9	2838.589599609375	0.0	2.5731072E7	0.0	3.0	7.76474624E8	103.8043212890625	0.0	0.0	1.0693632E9	1.056518144E9	0.0	0.0	0.06825000047683716	0.04724999889731407	0.0494999997317791	0.9837499856948853	0.7208161950111389	0.0	244.0	371.0	0.0	0.0	0.0	0.0	0.0	0.0	null	null	null	null	null	null	null	null	333.0	333.0	333.0	328.0	332.0	328.0	328.0	329.0	331.0	325.0	333.0	
Sat Jun 03 04:49:00 UTC 2017	1.0	1.049636864E9	2838.589599609375	0.0	2.5731072E7	0.0	2.0	7.76384512E8	103.8043212890625	0.0	0.0	1.068527616E9	1.056518144E9	0.0	0.0	0.07124999910593033	0.05700000002980232	0.04650000110268593	0.9915000200271606	0.7208152413368225	0.0	244.0	371.0	0.0	0.0	0.0	0.0	0.0	0.0	null	null	null	null	null	null	null	null	331.0	333.0	335.0	332.0	333.0	337.0	338.0	338.0	336.0	335.0	334.0	
Sat Jun 03 04:48:00 UTC 2017	1.0	1.048625152E9	2838.589599609375	0.0	2.5731072E7	0.0	3.0	7.76384512E8	103.8043212890625	0.0	0.0	1.068642304E9	1.056755712E9	0.0	0.0	0.07750000059604645	0.04450000077486038	0.04800000041723251	0.9915000200271606	0.72308349609375	0.0	244.0	371.0	0.0	0.0	0.0	0.0	0.0	0.0	null	null	null	null	null	null	null	null	334.0	333.0	333.0	336.0	330.0	331.0	336.0	332.0	331.0	332.0	333.0	
Sat Jun 03 04:47:00 UTC 2017	1.0	1.048625152E9	3057.802734375	0.0	2.5731072E7	0.0	4.0	7.76384512E8	36.032649993896484	0.0	0.0	1.069801472E9	1.056755712E9	0.0	0.0	0.0767500028014183	0.05525000020861626	0.0507499985396862	0.9857500195503235	0.7207986116409302	0.0	244.0	371.0	0.0	0.0	0.0	0.0	0.0	0.0	null	null	null	null	null	null	null	null	330.0	332.0	333.0	331.0	332.0	330.0	329.0	330.0	329.0	332.0	332.0	
Sat Jun 03 04:46:00 UTC 2017	1.0	1.049636864E9	3057.802734375	0.0	2.5731072E7	0.0	3.0	7.7672448E8	36.032649993896484	0.0	0.0	1.06991616E9	1.056874496E9	0.0	0.0	0.07400000095367432	0.048250000923871994	0.04625000059604645	0.9912499785423279	0.7207496762275696	0.0	244.0	371.0	0.0	0.0	0.0	0.0	0.0	0.0	null	null	null	null	null	null	null	null	335.0	332.0	333.0	335.0	335.0	335.0	335.0	334.0	333.0	332.0	332.0	
Sat Jun 03 04:45:00 UTC 2017	1.0	1.049636864E9	2877.119140625	0.0	2.5731072E7	0.0	2.0	7.76265728E8	36.032649993896484	0.0	0.0	1.070063616E9	1.057021952E9	0.0	0.0	0.06925000250339508	0.048250000923871994	0.04975000023841858	0.9912499785423279	0.7207550406455994	0.0	244.0	371.0	0.0	0.0	0.0	0.0	0.0	0.0	null	null	null	null	null	null	null	null	333.0	332.0	334.0	334.0	337.0	334.0	335.0	331.0	329.0	332.0	333.0	
Sat Jun 03 04:44:00 UTC 2017	0.0	1.048625152E9	2877.119140625	0.0	2.5731072E7	0.0	3.0	7.76175616E8	36.032649993896484	0.0	0.0	1.070174208E9	1.057140736E9	0.0	0.0	0.07975000143051147	0.05324999988079071	0.04650000110268593	0.9915000200271606	0.7207472324371338	0.0	244.0	371.0	0.0	0.0	0.0	0.0	0.0	0.0	null	null	null	null	null	null	null	null	333.0	333.0	331.0	332.0	331.0	333.0	335.0	335.0	333.0	336.0	335.0	
Sat Jun 03 04:43:00 UTC 2017	0.0	1.048625152E9	2469.757080078125	0.0	2.5731072E7	0.0	4.0	7.76175616E8	36.26240921020508	0.0	0.0	1.070465024E9	1.057345536E9	0.0	0.0	0.07975000143051147	0.05400000140070915	0.04699999839067459	0.9915000200271606	0.7207335233688354	0.0	244.0	371.0	0.0	0.0	0.0	0.0	0.0	0.0	null	null	null	null	null	null	null	null	330.0	333.0	333.0	334.0	334.0	335.0	334.0	336.0	333.0	333.0	333.0	
Sat Jun 03 04:42:00 UTC 2017	0.0	1.048625152E9	2500.826904296875	0.0	2.5731072E7	0.0	4.0	7.76175616E8	36.26240921020508	0.0	0.0	1.070465024E9	1.057517568E9	0.0	null	0.07050000131130219	0.04675000160932541	0.04600000008940697	0.9915000200271606	0.7207266688346863	0.0	244.0	371.0	0.0	0.0	0.0	0.0	0.0	0.0	null	null	null	null	null	null	null	null	333.0	333.0	335.0	335.0	332.0	334.0	332.0	336.0	332.0	333.0	334.0	
Sat Jun 03 04:41:00 UTC 2017	0.0	1.049636864E9	2500.826904296875	0.0	2.5731072E7	0.0	2.0	7.76175616E8	36.26240921020508	0.0	0.0	1.069568E9	1.057660928E9	0.0	null	0.09350000321865082	0.05324999988079071	0.04600000008940697	0.9907500147819519	0.7207183837890625	0.0	244.0	371.0	0.0	0.0	0.0	0.0	0.0	0.0	null	null	null	null	null	null	null	null	334.0	336.0	333.0	335.0	332.0	332.0	333.0	335.0	331.0	335.0	334.0	
Sat Jun 03 04:40:00 UTC 2017	1.0	1.049636864E9	2841.83642578125	0.0	2.5731072E7	0.0	3.0	7.76052736E8	36.26240921020508	0.0	0.0	1.070690304E9	1.057775616E9	0.0	null	0.07225000113248825	0.04475000128149986	0.04724999889731407	0.9915000200271606	0.7227204442024231	0.0	244.0	371.0	0.0	0.0	0.0	0.0	0.0	0.0	null	null	null	null	null	null	null	null	335.0	334.0	334.0	331.0	331.0	336.0	334.0	334.0	335.0	332.0	330.0	
Sat Jun 03 04:39:00 UTC 2017	0.0	1.049636864E9	2406.53369140625	0.0	2.5731072E7	0.0	2.0	7.75962624E8	43.97283935546875	0.0	0.0	1.070690304E9	1.057931264E9	0.0	0.0	0.07374999672174454	0.05525000020861626	0.0494999997317791	0.9915000200271606	0.72068852186203	0.0	244.0	371.0	0.0	0.0	0.0	0.0	0.0	0.0	null	null	null	null	null	null	null	null	334.0	336.0	334.0	336.0	337.0	333.0	334.0	331.0	334.0	334.0	335.0	
Sat Jun 03 04:38:00 UTC 2017	0.0	1.049636864E9	2950.6689453125	0.0	2.5731072E7	0.0	2.0	7.75962624E8	45.02973556518555	0.0	0.0	1.070862336E9	1.057931264E9	0.0	0.0	0.0729999989271164	0.048500001430511475	0.04699999839067459	0.9915000200271606	0.7206723690032959	0.0	244.0	371.0	0.0	0.0	0.0	0.0	0.0	0.0	null	null	null	null	null	null	null	null	332.0	334.0	333.0	335.0	334.0	337.0	337.0	333.0	333.0	339.0	334.0	
Sat Jun 03 04:37:00 UTC 2017	0.0	1.048625152E9	2950.6689453125	0.0	2.5731072E7	0.0	3.0	7.75962624E8	48.37106704711914	0.0	0.0	1.070972928E9	1.058045952E9	0.0	0.0	0.07400000095367432	0.05249999836087227	0.04374999925494194	0.9867500066757202	0.7229440808296204	0.0	244.0	371.0	0.0	0.0	0.0	0.0	0.0	0.0	null	null	null	null	null	null	null	null	333.0	332.0	334.0	331.0	331.0	331.0	332.0	331.0	331.0	332.0	330.0	
Sat Jun 03 04:36:00 UTC 2017	1.0	1.049636864E9	2950.6689453125	0.0	2.5731072E7	0.0	4.0	7.75962624E8	42.13530349731445	0.0	0.0	1.070137344E9	1.058254848E9	0.0	0.0	0.0767500028014183	0.05050000175833702	0.05000000074505806	0.9915000200271606	0.7229479551315308	0.0	244.0	371.0	0.0	0.0	0.0	0.0	0.0	0.0	null	null	null	null	null	null	null	null	334.0	336.0	331.0	334.0	335.0	335.0	333.0	332.0	332.0	335.0	333.0	
Sat Jun 03 04:35:00 UTC 2017	0.0	1.049636864E9	2837.033203125	0.0	2.5731072E7	0.0	3.0	7.75835648E8	42.13530349731445	0.0	0.0	1.071259648E9	1.058635776E9	0.0	0.0	0.0702499970793724	0.04675000160932541	0.04475000128149986	0.9912499785423279	0.7229288816452026	0.0	244.0	371.0	0.0	0.0	0.0	0.0	0.0	0.0	null	null	null	null	null	null	null	null	331.0	330.0	330.0	332.0	334.0	330.0	333.0	333.0	331.0	333.0	332.0	
Sat Jun 03 04:34:00 UTC 2017	1.0	1.048625152E9	2837.033203125	0.0	2.5731072E7	0.0	2.0	7.75745536E8	47.93720245361328	0.0	0.0	1.071435776E9	1.058635776E9	0.0	0.0	0.07625000178813934	0.05350000038743019	0.05025000125169754	0.9882500171661377	0.722883403301239	0.0	244.0	371.0	0.0	0.0	0.0	0.0	0.0	0.0	null	null	null	null	null	null	null	null	332.0	332.0	335.0	332.0	331.0	331.0	335.0	331.0	334.0	331.0	331.0	
Sat Jun 03 04:33:00 UTC 2017	1.0	1.049636864E9	2837.033203125	0.0	2.5731072E7	0.0	2.0	7.75745536E8	68.28682708740234	0.0	0.0	1.071550464E9	1.058861056E9	0.0	0.0	0.06750000268220901	0.04899999871850014	0.04574999958276749	0.9892500042915344	0.7205603122711182	0.0	244.0	371.0	0.0	0.0	0.0	0.0	0.0	0.0	null	null	null	null	null	null	null	null	335.0	331.0	330.0	329.0	333.0	336.0	331.0	333.0	333.0	333.0	332.0	
Sat Jun 03 04:32:00 UTC 2017	1.0	1.049636864E9	2862.70263671875	0.0	2.5731072E7	0.0	2.0	7.75745536E8	45.04660415649414	0.0	0.0	1.07065344E9	1.0590208E9	0.0	0.0	0.07649999856948853	0.05000000074505806	0.04724999889731407	0.9917500019073486	0.7205451726913452	0.0	244.0	371.0	0.0	0.0	0.0	0.0	0.0	0.0	null	null	null	null	null	null	null	null	332.0	335.0	334.0	338.0	334.0	335.0	335.0	335.0	330.0	332.0	335.0	
Sat Jun 03 04:31:00 UTC 2017	0.0	1.048625152E9	2862.70263671875	0.0	2.5731072E7	0.0	2.0	7.75745536E8	50.42652130126953	0.0	0.0	1.070952448E9	1.059196928E9	0.0	0.0	0.09724999964237213	0.045249998569488525	0.048500001430511475	0.9917500019073486	0.7228305339813232	0.0	244.0	371.0	0.0	0.0	0.0	0.0	0.0	0.0	null	null	null	null	null	null	null	null	334.0	337.0	336.0	334.0	331.0	334.0	330.0	335.0	337.0	338.0	335.0	
Sat Jun 03 04:30:00 UTC 2017	0.0	1.049636864E9	2862.70263671875	0.0	2.5731072E7	0.0	2.0	7.75622656E8	50.42652130126953	0.0	0.0	1.07196416E9	1.059344384E9	0.0	0.0	0.0729999989271164	0.0560000017285347	0.05050000175833702	0.9917500019073486	0.7227336764335632	0.0	244.0	371.0	0.0	0.0	0.0	0.0	0.0	0.0	null	null	null	null	null	null	null	null	335.0	330.0	336.0	336.0	334.0	334.0	334.0	332.0	329.0	334.0	334.0	
Sat Jun 03 04:29:00 UTC 2017	0.0	1.049636864E9	2357.88037109375	0.0	2.5731072E7	0.0	3.0	7.75532544E8	52.97940444946289	0.0	0.0	1.072082944E9	1.059495936E9	0.0	0.0	0.07625000178813934	0.04774999991059303	0.0442500002682209	0.9915000200271606	0.720488429069519	0.0	244.0	371.0	0.0	0.0	0.0	0.0	0.0	0.0	null	null	null	null	null	null	null	null	332.0	337.0	332.0	331.0	335.0	337.0	333.0	333.0	331.0	331.0	335.0	
Sat Jun 03 04:28:00 UTC 2017	0.0	1.049636864E9	2611.64208984375	0.0	2.5731072E7	0.0	2.0	7.75532544E8	52.97940444946289	0.0	0.0	1.072340992E9	1.059725312E9	0.0	null	0.06674999743700027	0.054999999701976776	0.04924999922513962	0.9907500147819519	0.7204869389533997	0.0	244.0	371.0	0.0	0.0	0.0	0.0	0.0	0.0	null	null	null	null	null	null	null	null	333.0	332.0	335.0	333.0	331.0	337.0	335.0	335.0	336.0	337.0	332.0	
Sat Jun 03 04:27:00 UTC 2017	1.0	1.048625152E9	2611.64208984375	0.0	2.5731072E7	0.0	2.0	7.75532544E8	52.97940444946289	0.0	0.0	1.07132928E9	1.059725312E9	0.0	null	0.07824999839067459	0.048500001430511475	0.050999999046325684	0.9915000200271606	0.7204673886299133	0.0	244.0	371.0	0.0	0.0	0.0	0.0	0.0	0.0	null	null	null	null	null	null	null	null	334.0	335.0	331.0	335.0	335.0	330.0	333.0	329.0	336.0	330.0	332.0	
Sat Jun 03 04:26:00 UTC 2017	1.0	1.048625152E9	2631.690185546875	0.0	2.5731072E7	0.0	3.0	7.75622656E8	52.97940444946289	0.0	0.0	1.071439872E9	1.059897344E9	0.0	0.0	0.07575000077486038	0.04724999889731407	0.0494999997317791	0.9907500147819519	0.720453679561615	0.0	244.0	371.0	0.0	0.0	0.0	0.0	0.0	0.0	null	null	null	null	null	null	null	null	333.0	331.0	333.0	334.0	334.0	335.0	333.0	333.0	331.0	335.0	333.0	
Sat Jun 03 04:25:00 UTC 2017	1.0	1.049636864E9	2631.690185546875	0.0	2.5731072E7	0.0	2.0	7.7541376E8	52.97940444946289	0.0	0.0	1.071644672E9	1.060040704E9	0.0	0.0	0.07750000059604645	0.051249999552965164	0.042249999940395355	0.9915000200271606	0.7204390168190002	0.0	244.0	371.0	0.0	0.0	0.0	0.0	0.0	0.0	null	null	null	null	null	null	null	null	338.0	335.0	330.0	333.0	334.0	332.0	337.0	334.0	332.0	333.0	335.0	
Sat Jun 03 04:24:00 UTC 2017	0.0	1.048625152E9	2631.690185546875	0.0	2.5731072E7	0.0	2.0	7.75323648E8	44.96377182006836	0.0	0.0	1.07288576E9	1.060216832E9	0.0	0.0	0.06624999642372131	0.05525000020861626	0.05324999988079071	0.9915000200271606	0.7227234244346619	0.0	244.0	371.0	0.0	0.0	0.0	0.0	0.0	0.0	null	null	null	null	null	null	null	null	331.0	330.0	337.0	336.0	333.0	334.0	333.0	336.0	336.0	334.0	329.0	
Sat Jun 03 04:23:00 UTC 2017	1.0	1.048625152E9	2607.37646484375	0.0	2.5731072E7	0.0	2.0	7.75323648E8	44.96377182006836	0.0	0.0	1.071874048E9	1.060438016E9	0.0	0.0	0.07124999910593033	0.04475000128149986	0.04050000011920929	0.9912499785423279	0.7204184532165527	0.0	244.0	371.0	0.0	0.0	0.0	0.0	0.0	0.0	null	null	null	null	null	null	null	null	331.0	332.0	332.0	334.0	333.0	331.0	331.0	332.0	333.0	335.0	333.0	
Sat Jun 03 04:22:00 UTC 2017	1.0	1.049636864E9	2607.37646484375	0.0	2.5731072E7	0.0	3.0	7.75323648E8	36.55384063720703	0.0	1.0	1.072017408E9	1.060438016E9	0.0	null	0.08349999785423279	0.0572500005364418	0.05050000175833702	0.9850000143051147	0.7204424142837524	0.0	244.0	371.0	0.0	0.0	0.0	0.0	0.0	0.0	null	null	null	null	null	null	null	null	331.0	334.0	331.0	330.0	334.0	332.0	335.0	328.0	332.0	333.0	332.0	
Sat Jun 03 04:21:00 UTC 2017	1.0	1.048625152E9	2607.37646484375	0.0	2.5731072E7	0.0	3.0	7.75323648E8	40.88425827026367	0.0	0.0	1.073201152E9	1.060786176E9	0.0	null	0.09775000065565109	0.04774999991059303	0.0442500002682209	0.9890000224113464	0.7204253077507019	0.0	244.0	371.0	0.0	0.0	0.0	0.0	0.0	0.0	null	null	null	null	null	null	null	null	334.0	333.0	331.0	333.0	330.0	331.0	331.0	333.0	334.0	333.0	332.0	
Sat Jun 03 04:20:00 UTC 2017	0.0	1.048625152E9	2665.5517578125	0.0	2.5731072E7	0.0	2.0	7.75200768E8	40.88425827026367	1.0	1.0	1.072369664E9	1.060786176E9	0.0	null	0.07325000315904617	0.057750001549720764	0.050999999046325684	0.9890000224113464	0.7217634320259094	0.0	244.0	371.0	0.0	0.0	0.0	0.0	0.0	0.0	null	null	null	null	null	null	null	null	334.0	334.0	331.0	331.0	333.0	331.0	330.0	332.0	334.0	333.0	332.0	
Sat Jun 03 04:19:00 UTC 2017	1.0	1.048625152E9	2433.031005859375	0.0	2.5731072E7	0.0	3.0	7.75110656E8	40.88425827026367	1.0	1.0	1.07257856E9	1.060900864E9	0.0	null	0.06875000149011612	0.051249999552965164	0.042500000447034836	0.9912499785423279	0.7204433679580688	0.0	244.0	371.0	0.0	0.0	0.0	0.0	0.0	0.0	null	null	null	null	null	null	null	null	331.0	336.0	334.0	333.0	335.0	333.0	333.0	335.0	335.0	332.0	333.0	
Sat Jun 03 04:18:00 UTC 2017	0.0	1.048625152E9	3732.1796875	0.0	2.5731072E7	0.0	2.0	7.75110656E8	61.19731903076172	0.0	0.0	1.073709056E9	1.061044224E9	0.0	null	0.06975000351667404	0.04699999839067459	0.05299999937415123	0.9915000200271606	0.7203934788703918	0.0	244.0	371.0	0.0	0.0	0.0	0.0	0.0	0.0	null	null	null	null	null	null	null	null	333.0	334.0	333.0	334.0	330.0	333.0	332.0	329.0	331.0	333.0	334.0	
Sat Jun 03 04:17:00 UTC 2017	1.0	1.049636864E9	3732.1796875	0.0	2.5731072E7	0.0	2.0	7.75110656E8	61.19731903076172	0.0	0.0	1.073881088E9	1.061044224E9	0.0	null	0.0807500034570694	0.05274999886751175	0.039000000804662704	0.9782500267028809	0.720300555229187	0.0	244.0	371.0	0.0	0.0	0.0	0.0	0.0	0.0	null	null	null	null	null	null	null	null	332.0	330.0	330.0	331.0	326.0	329.0	328.0	331.0	327.0	332.0	331.0	
Sat Jun 03 04:16:00 UTC 2017	1.0	1.049636864E9	2752.775146484375	0.0	2.5731072E7	0.0	3.0	7.75110656E8	61.19731903076172	0.0	0.0	1.074024448E9	1.061158912E9	0.0	0.0	0.06849999725818634	0.0494999997317791	0.05025000125169754	0.9882500171661377	0.7210339307785034	0.0	244.0	371.0	0.0	0.0	0.0	0.0	0.0	0.0	null	null	null	null	null	null	null	null	329.0	330.0	332.0	333.0	335.0	333.0	334.0	332.0	334.0	331.0	333.0	
Sat Jun 03 04:15:00 UTC 2017	0.0	1.048625152E9	2752.775146484375	0.0	2.5731072E7	0.0	5.0	7.71833856E8	61.19731903076172	0.0	0.0	1.07413504E9	1.061515264E9	0.0	0.0	0.07124999910593033	0.05050000175833702	0.0442500002682209	0.9912499785423279	0.7204062342643738	0.0	244.0	371.0	0.0	0.0	0.0	0.0	0.0	0.0	null	null	null	null	null	null	null	null	332.0	336.0	336.0	334.0	334.0	333.0	333.0	331.0	331.0	336.0	332.0	
Sat Jun 03 04:14:00 UTC 2017	0.0	1.049636864E9	2752.775146484375	0.0	2.5731072E7	0.0	4.0	7.71743744E8	41.75082778930664	0.0	0.0	1.07433984E9	1.061515264E9	0.0	null	0.07724999636411667	0.05350000038743019	0.04975000023841858	0.9909999966621399	0.7210965752601624	0.0	244.0	371.0	0.0	0.0	0.0	0.0	0.0	0.0	null	null	null	null	null	null	null	null	335.0	332.0	329.0	332.0	332.0	334.0	334.0	332.0	334.0	332.0	333.0	
Sat Jun 03 04:13:00 UTC 2017	0.0	1.049636864E9	2736.066162109375	0.0	2.5731072E7	0.0	2.0	7.71743744E8	41.75082778930664	0.0	0.0	1.073471488E9	1.061801984E9	0.0	null	0.07774999737739563	0.05050000175833702	0.048250000923871994	0.9894999861717224	0.7203318476676941	0.0	244.0	371.0	0.0	0.0	0.0	0.0	0.0	0.0	null	null	null	null	null	null	null	null	334.0	327.0	335.0	332.0	334.0	334.0	331.0	336.0	329.0	331.0	334.0	
Sat Jun 03 04:12:00 UTC 2017	1.0	1.049636864E9	2764.087890625	0.0	2.5731072E7	0.0	2.0	7.71743744E8	41.75082778930664	0.0	0.0	1.073614848E9	1.061978112E9	0.0	0.0	0.0702499970793724	0.04324999824166298	0.04500000178813934	0.9829999804496765	0.7202511429786682	0.0	244.0	371.0	0.0	0.0	0.0	0.0	0.0	0.0	null	null	null	null	null	null	null	null	334.0	334.0	332.0	328.0	330.0	330.0	331.0	328.0	331.0	332.0	331.0	
Sat Jun 03 04:11:00 UTC 2017	1.0	1.048625152E9	2764.087890625	0.0	2.5731072E7	0.0	3.0	7.72096E8	41.75082778930664	0.0	0.0	1.073614848E9	1.061978112E9	0.0	0.0	0.09399999678134918	0.0560000017285347	0.04975000023841858	0.9915000200271606	0.7202281355857849	0.0	244.0	371.0	0.0	0.0	0.0	0.0	0.0	0.0	null	null	null	null	null	null	null	null	330.0	330.0	335.0	335.0	332.0	334.0	334.0	333.0	333.0	333.0	335.0	
Sat Jun 03 04:10:00 UTC 2017	1.0	1.048625152E9	2879.3564453125	0.0	2.5731072E7	0.0	3.0	7.71887104E8	41.75082778930664	0.0	0.0	1.073844224E9	1.062096896E9	0.0	0.0	0.07374999672174454	0.048500001430511475	0.048250000923871994	0.9912499785423279	0.720206081867218	0.0	244.0	371.0	0.0	0.0	0.0	0.0	0.0	0.0	null	null	null	null	null	null	null	null	334.0	335.0	331.0	333.0	333.0	334.0	333.0	334.0	335.0	334.0	333.0	
Sat Jun 03 04:09:00 UTC 2017	0.0	1.048625152E9	2848.709716796875	0.0	2.5731072E7	0.0	2.0	7.71510272E8	41.75082778930664	0.0	0.0	1.073958912E9	1.06221568E9	0.0	0.0	0.07000000029802322	0.04975000023841858	0.04650000110268593	0.9912499785423279	0.7202149033546448	0.0	244.0	371.0	0.0	0.0	0.0	0.0	0.0	0.0	null	null	null	null	null	null	null	null	335.0	335.0	337.0	334.0	335.0	333.0	332.0	333.0	333.0	334.0	334.0	
Sat Jun 03 04:08:00 UTC 2017	1.0	1.049636864E9	2848.709716796875	0.0	2.5731072E7	0.0	3.0	7.71510272E8	45.5654182434082	0.0	0.0	1.074970624E9	1.062330368E9	0.0	0.0	0.07575000077486038	0.048500001430511475	0.04899999871850014	0.9912499785423279	0.7201963067054749	0.0	244.0	371.0	0.0	0.0	0.0	0.0	0.0	0.0	null	null	null	null	null	null	null	null	331.0	332.0	334.0	331.0	331.0	331.0	336.0	336.0	331.0	329.0	331.0	
Sat Jun 03 04:07:00 UTC 2017	1.0	1.049636864E9	2402.946044921875	0.0	2.5731072E7	0.0	4.0	7.71510272E8	45.5654182434082	0.0	0.0	1.074311168E9	1.062592512E9	0.0	0.0	0.07275000214576721	0.051500000059604645	0.04924999922513962	0.9915000200271606	0.7224636077880859	0.0	244.0	371.0	0.0	0.0	0.0	0.0	0.0	0.0	null	null	null	null	null	null	null	null	333.0	336.0	336.0	337.0	335.0	336.0	333.0	335.0	335.0	333.0	333.0	
Sat Jun 03 04:06:00 UTC 2017	1.0	1.049636864E9	3329.65185546875	0.0	2.5731072E7	0.0	2.0	7.71510272E8	45.5654182434082	0.0	0.0	1.07532288E9	1.062801408E9	0.0	0.0	0.07474999874830246	0.05525000020861626	0.04975000023841858	0.9915000200271606	0.7200343608856201	0.0	244.0	371.0	0.0	0.0	0.0	0.0	0.0	0.0	null	null	null	null	null	null	null	null	336.0	332.0	333.0	333.0	333.0	333.0	331.0	331.0	331.0	338.0	337.0	
Sat Jun 03 04:05:00 UTC 2017	1.0	1.049636864E9	2433.86474609375	0.0	2.5731072E7	0.0	2.0	7.71391488E8	49.9415397644043	0.0	0.0	1.074540544E9	1.062801408E9	0.0	0.0	0.07349999994039536	0.04874999821186066	0.042750000953674316	0.9892500042915344	0.7215873003005981	0.0	244.0	371.0	0.0	0.0	0.0	0.0	0.0	0.0	null	null	null	null	null	null	null	null	329.0	333.0	334.0	334.0	332.0	330.0	331.0	333.0	338.0	332.0	334.0	
Sat Jun 03 04:04:00 UTC 2017	0.0	1.048625152E9	2433.86474609375	0.0	2.5731072E7	0.0	2.0	7.71301376E8	49.9415397644043	0.0	0.0	1.074716672E9	1.062912E9	0.0	null	0.07750000059604645	0.051750000566244125	0.048500001430511475	0.9894999861717224	0.7200074791908264	0.0	244.0	371.0	0.0	0.0	0.0	0.0	0.0	0.0	null	null	null	null	null	null	null	null	331.0	331.0	333.0	332.0	335.0	333.0	334.0	330.0	332.0	330.0	332.0	
Sat Jun 03 04:03:00 UTC 2017	1.0	1.049636864E9	2433.86474609375	0.0	2.5731072E7	0.0	2.0	7.71301376E8	44.36762619018555	0.0	0.0	1.074716672E9	1.063030784E9	0.0	null	0.07150000333786011	0.048250000923871994	0.04975000023841858	0.9892500042915344	0.7215873003005981	0.0	244.0	371.0	0.0	0.0	0.0	0.0	0.0	0.0	null	null	null	null	null	null	null	null	334.0	336.0	334.0	334.0	335.0	336.0	333.0	337.0	333.0	335.0	335.0	
Sat Jun 03 04:02:00 UTC 2017	1.0	1.048625152E9	2433.86474609375	0.0	2.5731072E7	0.0	2.0	7.71301376E8	44.36762619018555	0.0	0.0	1.074868224E9	1.063202816E9	0.0	0.0	0.07850000262260437	0.0507499985396862	0.04650000110268593	0.9907500147819519	0.7222678661346436	0.0	244.0	371.0	0.0	0.0	0.0	0.0	0.0	0.0	null	null	null	null	null	null	null	null	335.0	332.0	335.0	333.0	335.0	333.0	334.0	335.0	333.0	332.0	332.0	
Sat Jun 03 04:01:00 UTC 2017	0.0	1.048625152E9	3268.298583984375	0.0	2.5731072E7	0.0	5.0	7.71301376E8	64.47100067138672	0.0	0.0	1.076056064E9	1.063313408E9	0.0	0.0	0.09724999964237213	0.0507499985396862	0.04399999976158142	0.9907500147819519	0.72225421667099	0.0	244.0	371.0	0.0	0.0	0.0	0.0	0.0	0.0	null	null	null	null	null	null	null	null	334.0	334.0	335.0	334.0	332.0	338.0	333.0	336.0	337.0	335.0	334.0	
Sat Jun 03 04:00:00 UTC 2017	0.0	1.048625152E9	2443.052490234375	0.0	2.5731072E7	0.0	2.0	7.71178496E8	63.086936950683594	0.0	0.0	1.076170752E9	1.063579648E9	0.0	0.0	0.0689999982714653	0.051500000059604645	0.04899999871850014	0.9877499938011169	0.7199829816818237	0.0	244.0	371.0	0.0	0.0	0.0	0.0	0.0	0.0	null	null	null	null	null	null	null	null	332.0	333.0	330.0	331.0	331.0	330.0	330.0	331.0	332.0	333.0	332.0	
Sat Jun 03 03:59:00 UTC 2017	0.0	1.048625152E9	2739.8017578125	0.0	2.5731072E7	0.0	3.0	7.71088384E8	63.086936950683594	0.0	0.0	1.075392512E9	1.063579648E9	0.0	0.0	0.07225000113248825	0.05274999886751175	0.042500000447034836	0.9892500042915344	0.7200294733047485	0.0	244.0	371.0	0.0	0.0	0.0	0.0	0.0	0.0	null	null	null	null	null	null	null	null	331.0	332.0	336.0	332.0	335.0	332.0	333.0	333.0	332.0	332.0	334.0	
Sat Jun 03 03:58:00 UTC 2017	0.0	1.049636864E9	2739.8017578125	0.0	2.5731072E7	0.0	4.0	7.70039808E8	45.22085952758789	0.0	0.0	1.076404224E9	1.06375168E9	0.0	0.0	0.07374999672174454	0.048250000923871994	0.04924999922513962	0.9907500147819519	0.7200206518173218	0.0	244.0	371.0	0.0	0.0	0.0	0.0	0.0	0.0	null	null	null	null	null	null	null	null	336.0	335.0	334.0	333.0	329.0	335.0	335.0	337.0	333.0	334.0	330.0	
Sat Jun 03 03:57:00 UTC 2017	1.0	null	2739.8017578125	null	null	0.0	null	null	61.982666015625	null	null	null	null	0.0	0.0	0.07349999994039536	0.05025000125169754	0.04749999940395355	0.9915000200271606	0.7200015783309937	0.0	244.0	371.0	0.0	0.0	0.0	0.0	0.0	0.0	null	null	null	null	null	null	null	null	null	null	null	null	null	null	null	null	null	null	null	
Sat Jun 03 03:56:00 UTC 2017	1.0	null	2739.8017578125	null	null	0.0	null	null	33.762535095214844	null	null	null	null	0.0	0.0	0.07824999839067459	0.0560000017285347	0.04724999889731407	0.9912499785423279	0.7221871614456177	0.0	244.0	371.0	0.0	0.0	0.0	0.0	0.0	0.0	null	null	null	null	null	null	null	null	null	null	null	null	null	null	null	null	null	null	null	
Sat Jun 03 03:55:00 UTC 2017	1.0	null	2739.8017578125	null	null	0.0	null	null	33.762535095214844	null	null	null	null	0.0	0.0	0.0689999982714653	0.04574999958276749	0.048500001430511475	0.9915000200271606	0.7199717164039612	0.0	244.0	371.0	0.0	0.0	0.0	0.0	0.0	0.0	null	null	null	null	null	null	null	null	null	null	null	null	null	null	null	null	null	null	null	
Sat Jun 03 03:54:00 UTC 2017	2.0	null	2739.8017578125	null	null	0.0	null	null	33.762535095214844	null	null	null	null	0.0	0.0	0.07900000363588333	0.05375000089406967	0.04500000178813934	0.9917500019073486	0.719902753829956	0.0	244.0	371.0	0.0	0.0	0.0	0.0	0.0	0.0	null	null	null	null	null	null	null	null	null	null	null	null	null	null	null	null	null	null	null	
Sat Jun 03 03:53:00 UTC 2017	1.0	null	2442.616455078125	null	null	0.0	null	null	35.3568115234375	null	null	null	null	0.0	0.0	0.06724999845027924	0.04774999991059303	0.04749999940395355	0.9912499785423279	0.7198866009712219	0.0	244.0	371.0	0.0	0.0	0.0	0.0	0.0	0.0	null	null	null	null	null	null	null	null	null	null	null	null	null	null	null	null	null	null	null	
Sat Jun 03 03:52:00 UTC 2017	1.0	null	2895.663330078125	null	null	0.0	null	null	35.3568115234375	null	null	null	null	0.0	0.0	0.07900000363588333	0.05274999886751175	0.04625000059604645	0.9912499785423279	0.7198704481124878	0.0	244.0	371.0	0.0	0.0	0.0	0.0	0.0	0.0	null	null	null	null	null	null	null	null	null	null	null	null	null	null	null	null	null	null	null	
Sat Jun 03 03:51:00 UTC 2017	1.0	null	3227.75732421875	null	null	0.0	null	null	35.3568115234375	null	null	null	null	0.0	0.0	0.09025000035762787	0.04774999991059303	0.04600000008940697	0.9865000247955322	0.7198044061660767	0.0	244.0	371.0	0.0	0.0	0.0	0.0	0.0	0.0	null	null	null	null	null	null	null	null	null	null	null	null	null	null	null	null	null	null	null	
Sat Jun 03 03:50:00 UTC 2017	1.0	null	3227.75732421875	null	null	0.0	null	null	35.3568115234375	null	null	null	null	0.0	0.0	0.07524999976158142	0.054749999195337296	0.05050000175833702	0.9915000200271606	0.7197872996330261	0.0	244.0	371.0	0.0	0.0	0.0	0.0	0.0	0.0	null	null	null	null	null	null	null	null	null	null	null	null	null	null	null	null	null	null	null	
Sat Jun 03 03:49:00 UTC 2017	1.0	null	2698.906982421875	null	null	0.0	null	null	50.99645233154297	null	null	null	null	0.0	0.0	0.0767500028014183	0.04924999922513962	0.04975000023841858	0.9915000200271606	0.7198498845100403	0.0	244.0	371.0	0.0	0.0	0.0	0.0	0.0	0.0	null	null	null	null	null	null	null	null	null	null	null	null	null	null	null	null	null	null	null	
Sat Jun 03 03:48:00 UTC 2017	0.0	null	2698.906982421875	null	null	0.0	null	null	52.561737060546875	null	null	null	null	0.0	0.0	0.07975000143051147	0.05324999988079071	0.04625000059604645	0.9915000200271606	0.7198323011398315	0.0	244.0	371.0	0.0	0.0	0.0	0.0	0.0	0.0	null	null	null	null	null	null	null	null	null	null	null	null	null	null	null	null	null	null	null	
Sat Jun 03 03:47:00 UTC 2017	1.0	null	2698.906982421875	null	null	0.0	null	null	52.561737060546875	null	null	null	null	0.0	0.0	0.0702499970793724	0.050999999046325684	0.04749999940395355	0.9915000200271606	0.7197975516319275	0.0	244.0	371.0	0.0	0.0	0.0	0.0	0.0	0.0	null	null	null	null	null	null	null	null	null	null	null	null	null	null	null	null	null	null	null	
Sat Jun 03 03:46:00 UTC 2017	1.0	null	2450.704833984375	null	null	0.0	null	null	52.561737060546875	null	null	null	null	0.0	0.0	0.06975000351667404	0.0430000014603138	0.045499999076128006	0.9915000200271606	0.7197853326797485	0.0	244.0	371.0	0.0	0.0	0.0	0.0	0.0	0.0	null	null	null	null	null	null	null	null	null	null	null	null	null	null	null	null	null	null	null	
Sat Jun 03 03:45:00 UTC 2017	1.0	null	2706.78857421875	null	null	0.0	null	null	52.561737060546875	null	null	null	null	0.0	0.0	0.07325000315904617	0.05324999988079071	0.04800000041723251	0.9915000200271606	0.7197672128677368	0.0	244.0	371.0	0.0	0.0	0.0	0.0	0.0	0.0	null	null	null	null	null	null	null	null	null	null	null	null	null	null	null	null	null	null	null	
Sat Jun 03 03:44:00 UTC 2017	1.0	null	3054.687744140625	null	null	0.0	null	null	37.56037902832031	null	null	null	null	0.0	null	0.08124999701976776	0.05324999988079071	0.04749999940395355	0.9915000200271606	0.7197672128677368	0.0	244.0	371.0	0.0	0.0	0.0	0.0	0.0	0.0	null	null	null	null	null	null	null	null	null	null	null	null	null	null	null	null	null	null	null	
Sat Jun 03 03:43:00 UTC 2017	1.0	null	2992.053466796875	null	null	0.0	null	null	53.948211669921875	null	null	null	null	0.0	0.0	0.06925000250339508	0.04500000178813934	0.04749999940395355	0.9912499785423279	0.7197510600090027	0.0	244.0	371.0	0.0	0.0	0.0	0.0	0.0	0.0	null	null	null	null	null	null	null	null	null	null	null	null	null	null	null	null	null	null	null	
Sat Jun 03 03:42:00 UTC 2017	1.0	null	2992.053466796875	null	null	0.0	null	null	36.13712692260742	null	null	null	null	0.0	0.0	0.07199999690055847	0.05299999937415123	0.04625000059604645	0.9897500276565552	0.7216523885726929	0.0	244.0	371.0	0.0	0.0	0.0	0.0	0.0	0.0	null	null	null	null	null	null	null	null	null	null	null	null	null	null	null	null	null	null	null	
Sat Jun 03 03:41:00 UTC 2017	1.0	null	2992.053466796875	null	null	0.0	null	null	36.13712692260742	null	null	null	null	0.0	null	0.09274999797344208	0.04924999922513962	0.05000000074505806	0.9909999966621399	0.7197246551513672	0.0	244.0	371.0	0.0	0.0	0.0	0.0	0.0	0.0	null	null	null	null	null	null	null	null	null	null	null	null	null	null	null	null	null	null	null	
Sat Jun 03 03:40:00 UTC 2017	1.0	null	2992.053466796875	null	null	0.0	null	null	50.5488395690918	null	null	null	null	0.0	0.0	0.07975000143051147	0.05000000074505806	0.04374999925494194	0.9894999861717224	0.7196444272994995	0.0	244.0	371.0	0.0	0.0	0.0	0.0	0.0	0.0	null	null	null	null	null	null	null	null	null	null	null	null	null	null	null	null	null	null	null	
Sat Jun 03 03:39:00 UTC 2017	0.0	null	2992.053466796875	null	null	0.0	null	null	39.24895095825195	null	null	null	null	0.0	0.0	0.07374999672174454	0.052000001072883606	0.04749999940395355	0.9915000200271606	0.7196992039680481	0.0	244.0	371.0	0.0	0.0	0.0	0.0	0.0	0.0	null	null	null	null	null	null	null	null	null	null	null	null	null	null	null	null	null	null	null	
Sat Jun 03 03:38:00 UTC 2017	0.0	null	2992.053466796875	null	null	0.0	null	null	39.24895095825195	null	null	null	null	0.0	0.0	0.0689999982714653	0.05400000140070915	0.04800000041723251	0.9915000200271606	0.7196977734565735	0.0	244.0	371.0	0.0	0.0	0.0	0.0	0.0	0.0	null	null	null	null	null	null	null	null	null	null	null	null	null	null	null	null	null	null	null	
Sat Jun 03 03:37:00 UTC 2017	0.0	null	1912.4959716796875	null	null	0.0	null	null	39.24895095825195	null	null	null	null	0.0	0.0	0.07900000363588333	0.045499999076128006	0.04800000041723251	0.9909999966621399	0.7197045683860779	0.0	244.0	371.0	0.0	0.0	0.0	0.0	0.0	0.0	null	null	null	null	null	null	null	null	null	null	null	null	null	null	null	null	null	null	null	
Sat Jun 03 03:36:00 UTC 2017	1.0	null	2379.056396484375	null	null	0.0	null	null	39.24895095825195	null	null	null	null	0.0	0.0	0.07074999809265137	0.05025000125169754	0.0430000014603138	0.9917500019073486	0.7219572067260742	0.0	244.0	371.0	0.0	0.0	0.0	0.0	0.0	0.0	null	null	null	null	null	null	null	null	null	null	null	null	null	null	null	null	null	null	null	
Sat Jun 03 03:35:00 UTC 2017	0.0	null	3469.301513671875	null	null	0.0	null	null	39.24895095825195	null	null	null	null	0.0	0.0	0.0754999965429306	0.051500000059604645	0.04625000059604645	0.9912499785423279	0.7197217345237732	0.0	244.0	371.0	0.0	0.0	0.0	0.0	0.0	0.0	null	null	null	null	null	null	null	null	null	null	null	null	null	null	null	null	null	null	null	
Sat Jun 03 03:34:00 UTC 2017	0.0	null	2623.552978515625	null	null	0.0	null	null	39.24895095825195	null	null	null	null	0.0	null	0.06650000065565109	0.054499998688697815	0.04874999821186066	0.9909999966621399	0.7196502685546875	0.0	244.0	371.0	0.0	0.0	0.0	0.0	0.0	0.0	null	null	null	null	null	null	null	null	null	null	null	null	null	null	null	null	null	null	null	
Sat Jun 03 03:33:00 UTC 2017	0.0	null	2623.552978515625	null	null	0.0	null	null	39.24895095825195	null	null	null	null	0.0	null	0.07524999976158142	0.0507499985396862	0.04975000023841858	0.9912499785423279	0.7196483612060547	0.0	244.0	371.0	0.0	0.0	0.0	0.0	0.0	0.0	null	null	null	null	null	null	null	null	null	null	null	null	null	null	null	null	null	null	null	
Sat Jun 03 03:32:00 UTC 2017	0.0	null	2627.102783203125	null	null	0.0	null	null	39.24895095825195	null	null	null	null	0.0	null	0.07325000315904617	0.0494999997317791	0.045249998569488525	0.9915000200271606	0.721919059753418	0.0	244.0	371.0	0.0	0.0	0.0	0.0	0.0	0.0	null	null	null	null	null	null	null	null	null	null	null	null	null	null	null	null	null	null	null	
Sat Jun 03 03:31:00 UTC 2017	0.0	null	2627.102783203125	null	null	0.0	null	null	39.24895095825195	null	null	null	null	0.0	null	0.10225000232458115	0.05274999886751175	0.04699999839067459	0.9915000200271606	0.7196311950683594	0.0	244.0	371.0	0.0	0.0	0.0	0.0	0.0	0.0	null	null	null	null	null	null	null	null	null	null	null	null	null	null	null	null	null	null	null	
Sat Jun 03 03:30:00 UTC 2017	0.0	null	2627.102783203125	null	null	0.0	null	null	51.43624496459961	null	null	null	null	0.0	null	0.06624999642372131	0.048500001430511475	0.048250000923871994	0.9915000200271606	0.7196140885353088	0.0	244.0	371.0	0.0	0.0	0.0	0.0	0.0	0.0	null	null	null	null	null	null	null	null	null	null	null	null	null	null	null	null	null	null	null	
Sat Jun 03 03:29:00 UTC 2017	1.0	null	2867.7880859375	null	null	0.0	null	null	43.576908111572266	null	null	null	null	0.0	null	0.08100000023841858	0.05025000125169754	0.050999999046325684	0.9912499785423279	0.7196263074874878	0.0	244.0	371.0	0.0	0.0	0.0	0.0	0.0	0.0	null	null	null	null	null	null	null	null	null	null	null	null	null	null	null	null	null	null	null	
Sat Jun 03 03:28:00 UTC 2017	0.0	null	2867.7880859375	null	null	0.0	null	null	65.0157470703125	null	null	null	null	0.0	null	0.06875000149011612	0.05225000157952309	0.045499999076128006	0.9912499785423279	0.7201674580574036	0.0	244.0	371.0	0.0	0.0	0.0	0.0	0.0	0.0	null	null	null	null	null	null	null	null	null	null	null	null	null	null	null	null	null	null	null	
Sat Jun 03 03:27:00 UTC 2017	0.0	null	2659.723876953125	null	null	0.0	null	null	39.27783966064453	null	null	null	null	0.0	null	0.07800000160932541	0.052000001072883606	0.04475000128149986	0.9912499785423279	0.7196013331413269	0.0	244.0	371.0	0.0	0.0	0.0	0.0	0.0	0.0	null	null	null	null	null	null	null	null	null	null	null	null	null	null	null	null	null	null	null	
Sat Jun 03 03:26:00 UTC 2017	1.0	null	2659.723876953125	null	null	0.0	null	null	39.27783966064453	null	null	null	null	0.0	0.0	0.0729999989271164	0.05575000122189522	0.05249999836087227	0.9912499785423279	0.721868634223938	0.0	244.0	371.0	0.0	0.0	0.0	0.0	0.0	0.0	null	null	null	null	null	null	null	null	null	null	null	null	null	null	null	null	null	null	null	
Sat Jun 03 03:25:00 UTC 2017	0.0	null	2659.723876953125	null	null	0.0	null	null	39.27783966064453	null	null	null	null	0.0	0.0	0.07225000113248825	0.04600000008940697	0.04399999976158142	0.9912499785423279	0.7195456027984619	0.0	244.0	371.0	0.0	0.0	0.0	0.0	0.0	0.0	null	null	null	null	null	null	null	null	null	null	null	null	null	null	null	null	null	null	null	
Sat Jun 03 03:24:00 UTC 2017	1.0	null	2659.723876953125	null	null	0.0	null	null	46.84476852416992	null	null	null	null	0.0	0.0	0.0767500028014183	0.05375000089406967	0.05274999886751175	0.9912499785423279	0.7204654216766357	0.0	244.0	371.0	0.0	0.0	0.0	0.0	0.0	0.0	null	null	null	null	null	null	null	null	null	null	null	null	null	null	null	null	null	null	null	
Sat Jun 03 03:23:00 UTC 2017	0.0	null	2659.723876953125	null	null	0.0	null	null	31.906652450561523	null	null	null	null	0.0	null	0.06549999862909317	0.051249999552965164	0.04349999874830246	0.9909999966621399	0.720879852771759	0.0	244.0	371.0	0.0	0.0	0.0	0.0	0.0	0.0	null	null	null	null	null	null	null	null	null	null	null	null	null	null	null	null	null	null	null	
Sat Jun 03 03:22:00 UTC 2017	1.0	null	2720.934814453125	null	null	0.0	null	null	31.906652450561523	null	null	null	null	0.0	null	0.07599999755620956	0.04724999889731407	0.0494999997317791	0.9912499785423279	0.7215741276741028	0.0	244.0	371.0	0.0	0.0	0.0	0.0	0.0	0.0	null	null	null	null	null	null	null	null	null	null	null	null	null	null	null	null	null	null	null	
Sat Jun 03 03:21:00 UTC 2017	1.0	null	2720.934814453125	null	null	0.0	null	null	60.08374786376953	null	null	null	null	0.0	null	0.10575000196695328	0.05849999934434891	0.04574999958276749	0.9915000200271606	0.719438910484314	0.0	244.0	371.0	0.0	0.0	0.0	0.0	0.0	0.0	null	null	null	null	null	null	null	null	null	null	null	null	null	null	null	null	null	null	null	
Sat Jun 03 03:20:00 UTC 2017	0.0	null	2747.38818359375	null	null	0.0	null	null	60.08374786376953	null	null	null	null	0.0	null	0.06674999743700027	0.045249998569488525	0.04800000041723251	0.9912499785423279	0.7217267751693726	0.0	244.0	371.0	0.0	0.0	0.0	0.0	0.0	0.0	null	null	null	null	null	null	null	null	null	null	null	null	null	null	null	null	null	null	null	
Sat Jun 03 03:19:00 UTC 2017	1.0	null	2412.559814453125	null	null	0.0	null	null	41.16692352294922	null	null	null	null	0.0	null	0.0754999965429306	0.054999999701976776	0.04574999958276749	0.9909999966621399	0.7194139957427979	0.0	244.0	371.0	0.0	0.0	0.0	0.0	0.0	0.0	null	null	null	null	null	null	null	null	null	null	null	null	null	null	null	null	null	null	null	
Sat Jun 03 03:18:00 UTC 2017	0.0	null	2412.559814453125	null	null	0.0	null	null	41.16692352294922	null	null	null	null	0.0	null	0.07699999958276749	0.052000001072883606	0.05324999988079071	0.9915000200271606	0.7193968296051025	0.0	244.0	371.0	0.0	0.0	0.0	0.0	0.0	0.0	null	null	null	null	null	null	null	null	null	null	null	null	null	null	null	null	null	null	null	
Sat Jun 03 03:17:00 UTC 2017	0.0	null	2412.559814453125	null	null	0.0	null	null	41.16692352294922	null	null	null	null	0.0	null	0.07225000113248825	0.050999999046325684	0.04125000163912773	0.9897500276565552	0.719386100769043	0.0	244.0	371.0	0.0	0.0	0.0	0.0	0.0	0.0	null	null	null	null	null	null	null	null	null	null	null	null	null	null	null	null	null	null	null	
Sat Jun 03 03:16:00 UTC 2017	1.0	null	2502.908203125	null	null	0.0	null	null	58.156639099121094	null	null	null	null	0.0	0.0	0.06975000351667404	0.04899999871850014	0.051500000059604645	0.9869999885559082	0.7193591594696045	0.0	244.0	371.0	0.0	0.0	0.0	0.0	0.0	0.0	null	null	null	null	null	null	null	null	null	null	null	null	null	null	null	null	null	null	null	
Sat Jun 03 03:15:00 UTC 2017	1.0	null	2502.908203125	null	null	0.0	null	null	62.52395248413086	null	null	null	null	0.0	0.0	0.07325000315904617	0.05274999886751175	0.042750000953674316	0.9904999732971191	0.7202672362327576	0.0	244.0	371.0	0.0	0.0	0.0	0.0	0.0	0.0	null	null	null	null	null	null	null	null	null	null	null	null	null	null	null	null	null	null	null	
Sat Jun 03 03:14:00 UTC 2017	1.0	null	2728.06494140625	null	null	0.0	null	null	62.52395248413086	null	null	null	null	0.0	0.0	0.07900000363588333	0.04574999958276749	0.04924999922513962	0.9912499785423279	0.7193004488945007	0.0	244.0	371.0	0.0	0.0	0.0	0.0	0.0	0.0	null	null	null	null	null	null	null	null	null	null	null	null	null	null	null	null	null	null	null	
Sat Jun 03 03:13:00 UTC 2017	1.0	null	2728.06494140625	null	null	0.0	null	null	62.52395248413086	null	null	null	null	0.0	0.0	0.06825000047683716	0.05225000157952309	0.04774999991059303	0.9915000200271606	0.7193024158477783	0.0	244.0	371.0	0.0	0.0	0.0	0.0	0.0	0.0	null	null	null	null	null	null	null	null	null	null	null	null	null	null	null	null	null	null	null	
Sat Jun 03 03:12:00 UTC 2017	1.0	null	2687.066162109375	null	null	0.0	null	null	62.52395248413086	null	null	null	null	0.0	0.0	0.07774999737739563	0.0507499985396862	0.04800000041723251	0.9887499809265137	0.719295084476471	0.0	244.0	371.0	0.0	0.0	0.0	0.0	0.0	0.0	null	null	null	null	null	null	null	null	null	null	null	null	null	null	null	null	null	null	null	
Sat Jun 03 03:11:00 UTC 2017	1.0	null	2687.066162109375	null	null	0.0	null	null	62.52395248413086	null	null	null	null	0.0	0.0	0.09724999964237213	0.05050000175833702	0.04500000178813934	0.9909999966621399	0.7210070490837097	0.0	244.0	371.0	0.0	0.0	0.0	0.0	0.0	0.0	null	null	null	null	null	null	null	null	null	null	null	null	null	null	null	null	null	null	null	
Sat Jun 03 03:10:00 UTC 2017	1.0	null	2359.728759765625	null	null	0.0	null	null	62.52395248413086	null	null	null	null	0.0	0.0	0.06875000149011612	0.054999999701976776	0.04625000059604645	0.9887499809265137	0.7192652225494385	0.0	244.0	371.0	0.0	0.0	0.0	0.0	0.0	0.0	null	null	null	null	null	null	null	null	null	null	null	null	null	null	null	null	null	null	null	
Sat Jun 03 03:09:00 UTC 2017	1.0	null	2359.728759765625	null	null	0.0	null	null	48.67094421386719	null	null	null	null	0.0	0.0	0.07649999856948853	0.04675000160932541	0.05000000074505806	0.9915000200271606	0.7204297184944153	0.0	244.0	371.0	0.0	0.0	0.0	0.0	0.0	0.0	null	null	null	null	null	null	null	null	null	null	null	null	null	null	null	null	null	null	null	
Sat Jun 03 03:08:00 UTC 2017	1.0	null	3000.693115234375	null	null	0.0	null	null	48.67094421386719	null	null	null	null	0.0	0.0	0.06650000065565109	0.054499998688697815	0.04650000110268593	0.9915000200271606	0.7192530035972595	0.0	244.0	371.0	0.0	0.0	0.0	0.0	0.0	0.0	null	null	null	null	null	null	null	null	null	null	null	null	null	null	null	null	null	null	null	
Sat Jun 03 03:07:00 UTC 2017	1.0	null	1973.984619140625	null	null	0.0	null	null	57.3775634765625	null	null	null	null	0.0	0.0	0.08150000125169754	0.04675000160932541	0.04899999871850014	0.9909999966621399	0.719902753829956	0.0	244.0	371.0	0.0	0.0	0.0	0.0	0.0	0.0	null	null	null	null	null	null	null	null	null	null	null	null	null	null	null	null	null	null	null	
Sat Jun 03 03:06:00 UTC 2017	0.0	null	1973.984619140625	null	null	0.0	null	null	40.07964324951172	null	null	null	null	0.0	0.0	0.07050000131130219	0.05525000020861626	0.04650000110268593	0.9882500171661377	0.7192162871360779	0.0	244.0	371.0	0.0	0.0	0.0	0.0	0.0	0.0	null	null	null	null	null	null	null	null	null	null	null	null	null	null	null	null	null	null	null	
Sat Jun 03 03:05:00 UTC 2017	1.0	null	1973.984619140625	null	null	0.0	null	null	35.42008590698242	null	null	null	null	0.0	0.0	0.07524999976158142	0.045499999076128006	0.04724999889731407	0.9897500276565552	0.7192701101303101	0.0	244.0	371.0	0.0	0.0	0.0	0.0	0.0	0.0	null	null	null	null	null	null	null	null	null	null	null	null	null	null	null	null	null	null	null	
Sat Jun 03 03:04:00 UTC 2017	1.0	null	2730.7568359375	null	null	0.0	null	null	35.42008590698242	null	null	null	null	0.0	0.0	0.07400000095367432	0.051249999552965164	0.05050000175833702	0.9904999732971191	0.7214009165763855	0.0	244.0	371.0	0.0	0.0	0.0	0.0	0.0	0.0	null	null	null	null	null	null	null	null	null	null	null	null	null	null	null	null	null	null	null	
Sat Jun 03 03:03:00 UTC 2017	1.0	null	2780.551025390625	null	null	0.0	null	null	35.42008590698242	null	null	null	null	0.0	0.0	0.07349999994039536	0.054249998182058334	0.04324999824166298	0.9835000038146973	0.7191585898399353	0.0	244.0	371.0	0.0	0.0	0.0	0.0	0.0	0.0	null	null	null	null	null	null	null	null	null	null	null	null	null	null	null	null	null	null	null	
Sat Jun 03 03:02:00 UTC 2017	1.0	null	2780.551025390625	null	null	0.0	null	null	35.42008590698242	null	null	null	null	0.0	0.0	0.07599999755620956	0.04975000023841858	0.050999999046325684	0.9915000200271606	0.7209855318069458	0.0	244.0	371.0	0.0	0.0	0.0	0.0	0.0	0.0	null	null	null	null	null	null	null	null	null	null	null	null	null	null	null	null	null	null	null	
Sat Jun 03 03:01:00 UTC 2017	0.0	null	2780.551025390625	null	null	0.0	null	null	45.82523727416992	null	null	null	null	0.0	0.0	0.09324999898672104	0.048500001430511475	0.04399999976158142	0.9915000200271606	0.7190910577774048	0.0	244.0	371.0	0.0	0.0	0.0	0.0	0.0	0.0	null	null	null	null	null	null	null	null	null	null	null	null	null	null	null	null	null	null	null	
Sat Jun 03 03:00:00 UTC 2017	1.0	null	2780.551025390625	null	null	0.0	null	null	45.82523727416992	null	null	null	null	0.0	0.0	0.0702499970793724	0.051500000059604645	0.0494999997317791	0.9909999966621399	0.7190802693367004	0.0	244.0	371.0	0.0	0.0	0.0	0.0	0.0	0.0	null	null	null	null	null	null	null	null	null	null	null	null	null	null	null	null	null	null	null	
Sat Jun 03 02:59:00 UTC 2017	1.0	null	2780.551025390625	null	null	0.0	null	null	37.43199920654297	null	null	null	null	0.0	0.0	0.07325000315904617	0.05274999886751175	0.04724999889731407	0.9869999885559082	0.7190641164779663	0.0	244.0	371.0	0.0	0.0	0.0	0.0	0.0	0.0	null	null	null	null	null	null	null	null	null	null	null	null	null	null	null	null	null	null	null	
Sat Jun 03 02:58:00 UTC 2017	1.0	null	2780.551025390625	null	null	0.0	null	null	53.2547721862793	null	null	null	null	0.0	0.0	0.07000000029802322	0.04874999821186066	0.04800000041723251	0.9915000200271606	0.7190636396408081	0.0	244.0	371.0	0.0	0.0	0.0	0.0	0.0	0.0	null	null	null	null	null	null	null	null	null	null	null	null	null	null	null	null	null	null	null	
Sat Jun 03 02:57:00 UTC 2017	0.0	null	2780.551025390625	null	null	0.0	null	null	53.2547721862793	null	null	null	null	0.0	0.0	0.08275000005960464	0.057999998331069946	0.04699999839067459	0.9915000200271606	0.7185973525047302	0.0	244.0	371.0	0.0	0.0	0.0	0.0	0.0	0.0	null	null	null	null	null	null	null	null	null	null	null	null	null	null	null	null	null	null	null	
Sat Jun 03 02:56:00 UTC 2017	1.0	null	2921.824462890625	null	null	0.0	null	null	36.82697677612305	null	null	null	null	0.0	0.0	0.07150000333786011	0.04800000041723251	0.048250000923871994	0.9912499785423279	0.7185744047164917	0.0	244.0	371.0	0.0	0.0	0.0	0.0	0.0	0.0	null	null	null	null	null	null	null	null	null	null	null	null	null	null	null	null	null	null	null	
Sat Jun 03 02:55:00 UTC 2017	1.0	null	2516.722412109375	null	null	0.0	null	null	44.739051818847656	null	null	null	null	0.0	0.0	0.06875000149011612	0.054499998688697815	0.04374999925494194	0.9915000200271606	0.7185582518577576	0.0	244.0	371.0	0.0	0.0	0.0	0.0	0.0	0.0	null	null	null	null	null	null	null	null	null	null	null	null	null	null	null	null	null	null	null	
Sat Jun 03 02:54:00 UTC 2017	0.0	null	2516.722412109375	null	null	0.0	null	null	44.739051818847656	null	null	null	null	0.0	0.0	0.08124999701976776	0.048250000923871994	0.04774999991059303	0.9915000200271606	0.7184838652610779	0.0	244.0	371.0	0.0	0.0	0.0	0.0	0.0	0.0	null	null	null	null	null	null	null	null	null	null	null	null	null	null	null	null	null	null	null	
Sat Jun 03 02:53:00 UTC 2017	0.0	null	2516.722412109375	null	null	0.0	null	null	44.739051818847656	null	null	null	null	0.0	0.0	0.06800000369548798	0.04675000160932541	0.04975000023841858	0.9917500019073486	0.7184687256813049	0.0	244.0	371.0	0.0	0.0	0.0	0.0	0.0	0.0	null	null	null	null	null	null	null	null	null	null	null	null	null	null	null	null	null	null	null	
Sat Jun 03 02:52:00 UTC 2017	1.0	null	2516.722412109375	null	null	0.0	null	null	63.484703063964844	null	null	null	null	0.0	0.0	0.07325000315904617	0.05025000125169754	0.04699999839067459	0.9912499785423279	0.7184657454490662	0.0	244.0	371.0	0.0	0.0	0.0	0.0	0.0	0.0	null	null	null	null	null	null	null	null	null	null	null	null	null	null	null	null	null	null	null	
Sat Jun 03 02:51:00 UTC 2017	1.0	null	2516.722412109375	null	null	0.0	null	null	63.484703063964844	null	null	null	null	0.0	0.0	0.09025000035762787	0.05249999836087227	0.04724999889731407	0.9915000200271606	0.718449592590332	0.0	244.0	371.0	0.0	0.0	0.0	0.0	0.0	0.0	null	null	null	null	null	null	null	null	null	null	null	null	null	null	null	null	null	null	null	
Sat Jun 03 02:50:00 UTC 2017	0.0	null	2516.722412109375	null	null	0.0	null	null	39.99372863769531	null	null	null	null	0.0	0.0	0.07575000077486038	0.048250000923871994	0.04774999991059303	0.9915000200271606	0.7198919653892517	0.0	244.0	371.0	0.0	0.0	0.0	0.0	0.0	0.0	null	null	null	null	null	null	null	null	null	null	null	null	null	null	null	null	null	null	null	
Sat Jun 03 02:49:00 UTC 2017	1.0	null	2516.722412109375	null	null	0.0	null	null	39.99372863769531	null	null	null	null	0.0	0.0	0.07900000363588333	0.05274999886751175	0.04899999871850014	0.9897500276565552	0.7184897661209106	0.0	244.0	371.0	0.0	0.0	0.0	0.0	0.0	0.0	null	null	null	null	null	null	null	null	null	null	null	null	null	null	null	null	null	null	null	
Sat Jun 03 02:48:00 UTC 2017	1.0	null	2635.231201171875	null	null	0.0	null	null	39.99372863769531	null	null	null	null	0.0	0.0	0.06525000184774399	0.05025000125169754	0.04749999940395355	0.9912499785423279	0.7184863090515137	0.0	244.0	371.0	0.0	0.0	0.0	0.0	0.0	0.0	null	null	null	null	null	null	null	null	null	null	null	null	null	null	null	null	null	null	null	
Sat Jun 03 02:47:00 UTC 2017	1.0	null	2525.13525390625	null	null	0.0	null	null	39.99372863769531	null	null	null	null	0.0	0.0	0.07750000059604645	0.054999999701976776	0.04724999889731407	0.9897500276565552	0.718468189239502	0.0	244.0	371.0	0.0	0.0	0.0	0.0	0.0	0.0	null	null	null	null	null	null	null	null	null	null	null	null	null	null	null	null	null	null	null	
Sat Jun 03 02:46:00 UTC 2017	1.0	null	2525.13525390625	null	null	0.0	null	null	42.617366790771484	null	null	null	null	0.0	0.0	0.06949999928474426	0.04774999991059303	0.04724999889731407	0.9915000200271606	0.720741868019104	0.0	244.0	371.0	0.0	0.0	0.0	0.0	0.0	0.0	null	null	null	null	null	null	null	null	null	null	null	null	null	null	null	null	null	null	null	
Sat Jun 03 02:45:00 UTC 2017	1.0	null	2525.13525390625	null	null	0.0	null	null	42.617366790771484	null	null	null	null	0.0	0.0	0.07824999839067459	0.051249999552965164	0.04125000163912773	0.9917500019073486	0.7184452414512634	0.0	244.0	371.0	0.0	0.0	0.0	0.0	0.0	0.0	null	null	null	null	null	null	null	null	null	null	null	null	null	null	null	null	null	null	null	
Sat Jun 03 02:44:00 UTC 2017	1.0	null	2525.13525390625	null	null	0.0	null	null	44.761329650878906	null	null	null	null	0.0	0.0	0.07199999690055847	0.0494999997317791	0.052000001072883606	0.9915000200271606	0.718418300151825	0.0	244.0	371.0	0.0	0.0	0.0	0.0	0.0	0.0	null	null	null	null	null	null	null	null	null	null	null	null	null	null	null	null	null	null	null	
Sat Jun 03 02:43:00 UTC 2017	1.0	null	2525.13525390625	null	null	0.0	null	null	44.761329650878906	null	null	null	null	0.0	0.0	0.07150000333786011	0.05249999836087227	0.04724999889731407	0.9909999966621399	0.7184021472930908	0.0	244.0	371.0	0.0	0.0	0.0	0.0	0.0	0.0	null	null	null	null	null	null	null	null	null	null	null	null	null	null	null	null	null	null	null	
Sat Jun 03 02:42:00 UTC 2017	1.0	null	2525.13525390625	null	null	0.0	null	null	40.23633575439453	null	null	null	null	0.0	0.0	0.07349999994039536	0.051750000566244125	0.05025000125169754	0.9867500066757202	0.7183483242988586	0.0	244.0	371.0	0.0	0.0	0.0	0.0	0.0	0.0	null	null	null	null	null	null	null	null	null	null	null	null	null	null	null	null	null	null	null	
Sat Jun 03 02:41:00 UTC 2017	1.0	null	2525.13525390625	null	null	0.0	null	null	40.23633575439453	null	null	null	null	0.0	0.0	0.09399999678134918	0.0507499985396862	0.045249998569488525	0.9865000247955322	0.7200387716293335	0.0	244.0	371.0	0.0	0.0	0.0	0.0	0.0	0.0	null	null	null	null	null	null	null	null	null	null	null	null	null	null	null	null	null	null	null	
Sat Jun 03 02:40:00 UTC 2017	1.0	null	2513.129638671875	null	null	0.0	null	null	48.64912796020508	null	null	null	null	0.0	0.0	0.07524999976158142	0.05000000074505806	0.04399999976158142	0.9912499785423279	0.7183248400688171	0.0	244.0	371.0	0.0	0.0	0.0	0.0	0.0	0.0	null	null	null	null	null	null	null	null	null	null	null	null	null	null	null	null	null	null	null	
Sat Jun 03 02:39:00 UTC 2017	0.0	null	2513.129638671875	null	null	0.0	null	null	37.60000991821289	null	null	null	null	0.0	0.0	0.0807500034570694	0.05249999836087227	0.04874999821186066	0.9890000224113464	0.7183067798614502	0.0	244.0	371.0	0.0	0.0	0.0	0.0	0.0	0.0	null	null	null	null	null	null	null	null	null	null	null	null	null	null	null	null	null	null	null	
Sat Jun 03 02:38:00 UTC 2017	1.0	null	3205.6318359375	null	null	0.0	null	null	34.755287170410156	null	null	null	null	0.0	0.0	0.06674999743700027	0.04724999889731407	0.04574999958276749	0.9912499785423279	0.719855785369873	0.0	244.0	371.0	0.0	0.0	0.0	0.0	0.0	0.0	null	null	null	null	null	null	null	null	null	null	null	null	null	null	null	null	null	null	null	
Sat Jun 03 02:37:00 UTC 2017	1.0	null	3205.6318359375	null	null	0.0	null	null	34.755287170410156	null	null	null	null	0.0	0.0	0.07050000131130219	0.050999999046325684	0.045249998569488525	0.9912499785423279	0.7205789089202881	0.0	244.0	371.0	0.0	0.0	0.0	0.0	0.0	0.0	null	null	null	null	null	null	null	null	null	null	null	null	null	null	null	null	null	null	null	
Sat Jun 03 02:36:00 UTC 2017	1.0	null	2436.182373046875	null	null	0.0	null	null	34.755287170410156	null	null	null	null	0.0	0.0	0.08349999785423279	0.05674999952316284	0.05025000125169754	0.9825000166893005	0.7182729840278625	0.0	244.0	371.0	0.0	0.0	0.0	0.0	0.0	0.0	null	null	null	null	null	null	null	null	null	null	null	null	null	null	null	null	null	null	null	
Sat Jun 03 02:35:00 UTC 2017	0.0	null	2564.14501953125	null	null	0.0	null	null	33.64311599731445	null	null	null	null	0.0	0.0	0.07524999976158142	0.051750000566244125	0.04100000113248825	0.9917500019073486	0.7204982042312622	0.0	244.0	371.0	0.0	0.0	0.0	0.0	0.0	0.0	null	null	null	null	null	null	null	null	null	null	null	null	null	null	null	null	null	null	null	
Sat Jun 03 02:34:00 UTC 2017	0.0	null	2564.14501953125	null	null	0.0	null	null	37.57305908203125	null	null	null	null	0.0	0.0	0.07000000029802322	0.04874999821186066	0.04924999922513962	0.9915000200271606	0.7181991338729858	0.0	244.0	371.0	0.0	0.0	0.0	0.0	0.0	0.0	null	null	null	null	null	null	null	null	null	null	null	null	null	null	null	null	null	null	null	
Sat Jun 03 02:33:00 UTC 2017	1.0	null	2886.515625	null	null	0.0	null	null	37.57305908203125	null	null	null	null	0.0	0.0	0.07850000262260437	0.0494999997317791	0.0494999997317791	0.9892500042915344	0.7181805372238159	0.0	244.0	371.0	0.0	0.0	0.0	0.0	0.0	0.0	null	null	null	null	null	null	null	null	null	null	null	null	null	null	null	null	null	null	null	
Sat Jun 03 02:32:00 UTC 2017	1.0	null	2405.523681640625	null	null	0.0	null	null	62.90081787109375	null	null	null	null	0.0	0.0	0.06975000351667404	0.0507499985396862	0.04450000077486038	0.9917500019073486	0.718712329864502	0.0	244.0	371.0	0.0	0.0	0.0	0.0	0.0	0.0	null	null	null	null	null	null	null	null	null	null	null	null	null	null	null	null	null	null	null	
Sat Jun 03 02:31:00 UTC 2017	0.0	null	2738.325439453125	null	null	0.0	null	null	46.73784637451172	null	null	null	null	0.0	0.0	0.09375	0.051500000059604645	0.04874999821186066	0.9915000200271606	0.718161940574646	0.0	244.0	371.0	0.0	0.0	0.0	0.0	0.0	0.0	null	null	null	null	null	null	null	null	null	null	null	null	null	null	null	null	null	null	null	
Sat Jun 03 02:30:00 UTC 2017	1.0	null	2714.91748046875	null	null	0.0	null	null	39.04981231689453	null	null	null	null	0.0	0.0	0.07999999821186066	0.05000000074505806	0.04374999925494194	0.9894999861717224	0.7181355357170105	0.0	244.0	371.0	0.0	0.0	0.0	0.0	0.0	0.0	null	null	null	null	null	null	null	null	null	null	null	null	null	null	null	null	null	null	null	
Sat Jun 03 02:29:00 UTC 2017	1.0	null	2734.93994140625	null	null	0.0	null	null	44.077903747558594	null	null	null	null	0.0	0.0	0.06875000149011612	0.04650000110268593	0.05025000125169754	0.9915000200271606	0.7181271910667419	0.0	244.0	371.0	0.0	0.0	0.0	0.0	0.0	0.0	null	null	null	null	null	null	null	null	null	null	null	null	null	null	null	null	null	null	null	
Sat Jun 03 02:28:00 UTC 2017	0.0	null	2914.491943359375	null	null	0.0	null	null	49.847450256347656	null	null	null	null	0.0	0.0	0.0742499977350235	0.0572500005364418	0.048250000923871994	0.9915000200271606	0.7181237936019897	0.0	244.0	371.0	0.0	0.0	0.0	0.0	0.0	0.0	null	null	null	null	null	null	null	null	null	null	null	null	null	null	null	null	null	null	null	
Sat Jun 03 02:27:00 UTC 2017	1.0	null	2914.491943359375	null	null	0.0	null	null	49.847450256347656	null	null	null	null	0.0	0.0	0.07850000262260437	0.0507499985396862	0.045249998569488525	0.9915000200271606	0.7181139588356018	0.0	244.0	371.0	0.0	0.0	0.0	0.0	0.0	0.0	null	null	null	null	null	null	null	null	null	null	null	null	null	null	null	null	null	null	null	
Sat Jun 03 02:26:00 UTC 2017	1.0	null	2914.491943359375	null	null	0.0	null	null	42.565738677978516	null	null	null	null	0.0	0.0	0.0767500028014183	0.05274999886751175	0.04349999874830246	0.9912499785423279	0.7202075719833374	0.0	244.0	371.0	0.0	0.0	0.0	0.0	0.0	0.0	null	null	null	null	null	null	null	null	null	null	null	null	null	null	null	null	null	null	null	
Sat Jun 03 02:25:00 UTC 2017	1.0	null	2914.491943359375	null	null	0.0	null	null	37.70029067993164	null	null	null	null	0.0	0.0	0.06750000268220901	0.04650000110268593	0.04724999889731407	0.9909999966621399	0.7180939316749573	0.0	244.0	371.0	0.0	0.0	0.0	0.0	0.0	0.0	null	null	null	null	null	null	null	null	null	null	null	null	null	null	null	null	null	null	null	
Sat Jun 03 02:24:00 UTC 2017	1.0	null	2914.491943359375	null	null	0.0	null	null	37.70029067993164	null	null	null	null	0.0	0.0	0.0794999971985817	0.05324999988079071	0.04874999821186066	0.9892500042915344	0.7180762887001038	0.0	244.0	371.0	0.0	0.0	0.0	0.0	0.0	0.0	null	null	null	null	null	null	null	null	null	null	null	null	null	null	null	null	null	null	null	
Sat Jun 03 02:23:00 UTC 2017	1.0	null	2699.4326171875	null	null	0.0	null	null	43.53955841064453	null	null	null	null	0.0	0.0	0.0729999989271164	0.05249999836087227	0.04574999958276749	0.9915000200271606	0.7197281122207642	0.0	244.0	371.0	0.0	0.0	0.0	0.0	0.0	0.0	null	null	null	null	null	null	null	null	null	null	null	null	null	null	null	null	null	null	null	
Sat Jun 03 02:22:00 UTC 2017	1.0	null	2699.4326171875	null	null	0.0	null	null	39.175987243652344	null	null	null	null	0.0	0.0	0.06849999725818634	0.04675000160932541	0.04899999871850014	0.9915000200271606	0.7180576920509338	0.0	244.0	371.0	0.0	0.0	0.0	0.0	0.0	0.0	null	null	null	null	null	null	null	null	null	null	null	null	null	null	null	null	null	null	null	
Sat Jun 03 02:21:00 UTC 2017	1.0	null	2699.4326171875	null	null	0.0	null	null	39.175987243652344	null	null	null	null	0.0	0.0	0.10275000333786011	0.05550000071525574	0.04374999925494194	0.9912499785423279	0.7180440425872803	0.0	244.0	371.0	0.0	0.0	0.0	0.0	0.0	0.0	null	null	null	null	null	null	null	null	null	null	null	null	null	null	null	null	null	null	null	
Sat Jun 03 02:20:00 UTC 2017	0.0	null	2604.923095703125	null	null	0.0	null	null	53.58401870727539	null	null	null	null	0.0	0.0	0.07524999976158142	0.045499999076128006	0.05025000125169754	0.9917500019073486	0.7180151343345642	0.0	244.0	371.0	0.0	0.0	0.0	0.0	0.0	0.0	null	null	null	null	null	null	null	null	null	null	null	null	null	null	null	null	null	null	null	
Sat Jun 03 02:19:00 UTC 2017	0.0	null	2795.265625	null	null	0.0	null	null	53.58401870727539	null	null	null	null	0.0	null	0.06324999779462814	0.04899999871850014	0.04874999821186066	0.9915000200271606	0.7179980278015137	0.0	244.0	371.0	0.0	0.0	0.0	0.0	0.0	0.0	null	null	null	null	null	null	null	null	null	null	null	null	null	null	null	null	null	null	null	
Sat Jun 03 02:18:00 UTC 2017	0.0	null	2583.42578125	null	null	0.0	null	null	39.77741622924805	null	null	null	null	0.0	null	0.08174999803304672	0.05824999883770943	0.04500000178813934	0.9897500276565552	0.7202692031860352	0.0	244.0	371.0	0.0	0.0	0.0	0.0	0.0	0.0	null	null	null	null	null	null	null	null	null	null	null	null	null	null	null	null	null	null	null	
Sat Jun 03 02:17:00 UTC 2017	0.0	null	2925.776611328125	null	null	0.0	null	null	39.77741622924805	null	null	null	null	0.0	null	0.06700000166893005	0.04600000008940697	0.0442500002682209	0.9897500276565552	0.7179710865020752	0.0	244.0	371.0	0.0	0.0	0.0	0.0	0.0	0.0	null	null	null	null	null	null	null	null	null	null	null	null	null	null	null	null	null	null	null	
Sat Jun 03 02:16:00 UTC 2017	1.0	null	2925.776611328125	null	null	0.0	null	null	45.530696868896484	null	null	null	null	0.0	null	0.07450000196695328	0.05249999836087227	0.048250000923871994	0.9912499785423279	0.7180420756340027	0.0	244.0	371.0	0.0	0.0	0.0	0.0	0.0	0.0	null	null	null	null	null	null	null	null	null	null	null	null	null	null	null	null	null	null	null	
Sat Jun 03 02:15:00 UTC 2017	1.0	null	2925.776611328125	null	null	0.0	null	null	45.530696868896484	null	null	null	null	0.0	null	0.07874999940395355	0.054499998688697815	0.04574999958276749	0.9912499785423279	0.7179535031318665	0.0	244.0	371.0	0.0	0.0	0.0	0.0	0.0	0.0	null	null	null	null	null	null	null	null	null	null	null	null	null	null	null	null	null	null	null	
Sat Jun 03 02:14:00 UTC 2017	1.0	null	2925.776611328125	null	null	0.0	null	null	47.95051574707031	null	null	null	null	0.0	0.0	0.07225000113248825	0.052000001072883606	0.05274999886751175	0.9915000200271606	0.7179515361785889	0.0	244.0	371.0	0.0	0.0	0.0	0.0	0.0	0.0	null	null	null	null	null	null	null	null	null	null	null	null	null	null	null	null	null	null	null	
Sat Jun 03 02:13:00 UTC 2017	1.0	null	2925.776611328125	null	null	0.0	null	null	47.95051574707031	null	null	null	null	0.0	0.0	0.07450000196695328	0.048250000923871994	0.04774999991059303	0.9917500019073486	0.7179324626922607	0.0	244.0	371.0	0.0	0.0	0.0	0.0	0.0	0.0	null	null	null	null	null	null	null	null	null	null	null	null	null	null	null	null	null	null	null	
Sat Jun 03 02:12:00 UTC 2017	0.0	null	2925.776611328125	null	null	0.0	null	null	47.95051574707031	null	null	null	null	0.0	0.0	0.07199999690055847	0.05375000089406967	0.04774999991059303	0.9917500019073486	0.7179187536239624	0.0	244.0	371.0	0.0	0.0	0.0	0.0	0.0	0.0	null	null	null	null	null	null	null	null	null	null	null	null	null	null	null	null	null	null	null	
Sat Jun 03 02:11:00 UTC 2017	0.0	null	2925.776611328125	null	null	0.0	null	null	67.9033432006836	null	null	null	null	0.0	0.0	0.09324999898672104	0.0494999997317791	0.04749999940395355	0.9917500019073486	0.7178981900215149	0.0	244.0	371.0	0.0	0.0	0.0	0.0	0.0	0.0	null	null	null	null	null	null	null	null	null	null	null	null	null	null	null	null	null	null	null	
Sat Jun 03 02:10:00 UTC 2017	0.0	null	2897.79931640625	null	null	0.0	null	null	67.9033432006836	null	null	null	null	0.0	0.0	0.07900000363588333	0.04800000041723251	0.04774999991059303	0.9915000200271606	0.7178937792778015	0.0	244.0	371.0	0.0	0.0	0.0	0.0	0.0	0.0	null	null	null	null	null	null	null	null	null	null	null	null	null	null	null	null	null	null	null	
Sat Jun 03 02:09:00 UTC 2017	1.0	null	2897.79931640625	null	null	0.0	null	null	67.9033432006836	null	null	null	null	0.0	0.0	0.07249999791383743	0.054749999195337296	0.04399999976158142	0.9915000200271606	0.7201008796691895	0.0	244.0	371.0	0.0	0.0	0.0	0.0	0.0	0.0	null	null	null	null	null	null	null	null	null	null	null	null	null	null	null	null	null	null	null	
Sat Jun 03 02:08:00 UTC 2017	1.0	null	2354.0478515625	null	null	0.0	null	null	67.9033432006836	null	null	null	null	0.0	0.0	0.07100000232458115	0.04874999821186066	0.04899999871850014	0.9912499785423279	0.7177925109863281	0.0	244.0	371.0	0.0	0.0	0.0	0.0	0.0	0.0	null	null	null	null	null	null	null	null	null	null	null	null	null	null	null	null	null	null	null	
Sat Jun 03 02:07:00 UTC 2017	1.0	null	3333.73046875	null	null	0.0	null	null	36.51982879638672	null	null	null	null	0.0	null	0.07124999910593033	0.05249999836087227	0.0430000014603138	0.9915000200271606	0.7201067805290222	0.0	244.0	371.0	0.0	0.0	0.0	0.0	0.0	0.0	null	null	null	null	null	null	null	null	null	null	null	null	null	null	null	null	null	null	null	
Sat Jun 03 02:06:00 UTC 2017	1.0	null	2755.818359375	null	null	0.0	null	null	33.371517181396484	null	null	null	null	0.0	null	0.08275000005960464	0.04749999940395355	0.04450000077486038	0.9904999732971191	0.7178062200546265	0.0	244.0	371.0	0.0	0.0	0.0	0.0	0.0	0.0	null	null	null	null	null	null	null	null	null	null	null	null	null	null	null	null	null	null	null	
Sat Jun 03 02:05:00 UTC 2017	1.0	null	2477.384765625	null	null	0.0	null	null	45.02610778808594	null	null	null	null	0.0	0.0	0.06575000286102295	0.051249999552965164	0.048250000923871994	0.9917500019073486	0.72007155418396	0.0	244.0	371.0	0.0	0.0	0.0	0.0	0.0	0.0	null	null	null	null	null	null	null	null	null	null	null	null	null	null	null	null	null	null	null	
Sat Jun 03 02:04:00 UTC 2017	1.0	null	2741.15478515625	null	null	0.0	null	null	42.3028564453125	null	null	null	null	0.0	0.0	0.07999999821186066	0.052000001072883606	0.04724999889731407	0.9915000200271606	0.7177832126617432	0.0	244.0	371.0	0.0	0.0	0.0	0.0	0.0	0.0	null	null	null	null	null	null	null	null	null	null	null	null	null	null	null	null	null	null	null	
Sat Jun 03 02:03:00 UTC 2017	1.0	null	2690.524169921875	null	null	0.0	null	null	46.58921813964844	null	null	null	null	0.0	0.0	0.07199999690055847	0.048500001430511475	0.04450000077486038	0.9912499785423279	0.7177842259407043	0.0	244.0	371.0	0.0	0.0	0.0	0.0	0.0	0.0	null	null	null	null	null	null	null	null	null	null	null	null	null	null	null	null	null	null	null	
Sat Jun 03 02:02:00 UTC 2017	1.0	null	2612.2705078125	null	null	0.0	null	null	46.58921813964844	null	null	null	null	0.0	0.0	0.07000000029802322	0.04975000023841858	0.05025000125169754	0.9912499785423279	0.7177543640136719	0.0	244.0	371.0	0.0	0.0	0.0	0.0	0.0	0.0	null	null	null	null	null	null	null	null	null	null	null	null	null	null	null	null	null	null	null	
Sat Jun 03 02:01:00 UTC 2017	1.0	null	2705.269287109375	null	null	0.0	null	null	46.58921813964844	null	null	null	null	0.0	null	0.09549999982118607	0.04899999871850014	0.0430000014603138	0.9912499785423279	0.7190724611282349	0.0	244.0	371.0	0.0	0.0	0.0	0.0	0.0	0.0	null	null	null	null	null	null	null	null	null	null	null	null	null	null	null	null	null	null	null	
Sat Jun 03 02:00:00 UTC 2017	1.0	null	3110.031494140625	null	null	0.0	null	null	46.415016174316406	null	null	null	null	0.0	null	0.07374999672174454	0.052000001072883606	0.05225000157952309	0.9912499785423279	0.7177680730819702	0.0	244.0	371.0	0.0	0.0	0.0	0.0	0.0	0.0	null	null	null	null	null	null	null	null	null	null	null	null	null	null	null	null	null	null	null	
Sat Jun 03 01:59:00 UTC 2017	1.0	null	2580.7529296875	null	null	0.0	null	null	39.39631652832031	null	null	null	null	0.0	null	0.07175000011920929	0.05375000089406967	0.04349999874830246	0.9915000200271606	0.7193841338157654	0.0	244.0	371.0	0.0	0.0	0.0	0.0	0.0	0.0	null	null	null	null	null	null	null	null	null	null	null	null	null	null	null	null	null	null	null	
Sat Jun 03 01:58:00 UTC 2017	1.0	null	2256.8974609375	null	null	0.0	null	null	35.261837005615234	null	null	null	null	0.0	null	0.08174999803304672	0.04800000041723251	0.04774999991059303	0.9912499785423279	0.7176990509033203	0.0	244.0	371.0	0.0	0.0	0.0	0.0	0.0	0.0	null	null	null	null	null	null	null	null	null	null	null	null	null	null	null	null	null	null	null	
Sat Jun 03 01:57:00 UTC 2017	0.0	null	2256.8974609375	null	null	0.0	null	null	41.5385627746582	null	null	null	null	0.0	0.0	0.05999999865889549	0.04600000008940697	0.04574999958276749	0.9912499785423279	0.7186756730079651	0.0	244.0	371.0	0.0	0.0	0.0	0.0	0.0	0.0	null	null	null	null	null	null	null	null	null	null	null	null	null	null	null	null	null	null	null	
Sat Jun 03 01:56:00 UTC 2017	1.0	null	2256.8974609375	null	null	0.0	null	null	41.5385627746582	null	null	null	null	0.0	0.0	0.08174999803304672	0.05225000157952309	0.04625000059604645	0.9912499785423279	0.7195906043052673	0.0	244.0	371.0	0.0	0.0	0.0	0.0	0.0	0.0	null	null	null	null	null	null	null	null	null	null	null	null	null	null	null	null	null	null	null	
Sat Jun 03 01:55:00 UTC 2017	1.0	null	2256.8974609375	null	null	0.0	null	null	41.5385627746582	null	null	null	null	0.0	0.0	0.0742499977350235	0.04749999940395355	0.04774999991059303	0.9915000200271606	0.7186189293861389	0.0	244.0	371.0	0.0	0.0	0.0	0.0	0.0	0.0	null	null	null	null	null	null	null	null	null	null	null	null	null	null	null	null	null	null	null	
Sat Jun 03 01:54:00 UTC 2017	0.0	null	2585.337158203125	null	null	0.0	null	null	41.5385627746582	null	null	null	null	0.0	0.0	0.06925000250339508	0.05025000125169754	0.04625000059604645	0.9887499809265137	0.7185807228088379	0.0	244.0	371.0	0.0	0.0	0.0	0.0	0.0	0.0	null	null	null	null	null	null	null	null	null	null	null	null	null	null	null	null	null	null	null	
Sat Jun 03 01:53:00 UTC 2017	1.0	null	2585.337158203125	null	null	0.0	null	null	41.5385627746582	null	null	null	null	0.0	0.0	0.07724999636411667	0.052000001072883606	0.04625000059604645	0.9862499833106995	0.7186355590820312	0.0	244.0	371.0	0.0	0.0	0.0	0.0	0.0	0.0	null	null	null	null	null	null	null	null	null	null	null	null	null	null	null	null	null	null	null	
Sat Jun 03 01:52:00 UTC 2017	1.0	null	2725.612548828125	null	null	0.0	null	null	41.5385627746582	null	null	null	null	0.0	0.0	0.07450000196695328	0.05400000140070915	0.0430000014603138	0.9907500147819519	0.7185636162757874	0.0	244.0	371.0	0.0	0.0	0.0	0.0	0.0	0.0	null	null	null	null	null	null	null	null	null	null	null	null	null	null	null	null	null	null	null	
Sat Jun 03 01:51:00 UTC 2017	1.0	null	2691.14208984375	null	null	0.0	null	null	47.74172592163086	null	null	null	null	0.0	0.0	0.09200000017881393	0.04774999991059303	0.04500000178813934	0.9915000200271606	0.7185112833976746	0.0	244.0	371.0	0.0	0.0	0.0	0.0	0.0	0.0	null	null	null	null	null	null	null	null	null	null	null	null	null	null	null	null	null	null	null	
Sat Jun 03 01:50:00 UTC 2017	1.0	null	2367.4970703125	null	null	0.0	null	null	47.74172592163086	null	null	null	null	0.0	0.0	0.06925000250339508	0.057999998331069946	0.04800000041723251	0.9909999966621399	0.7185268998146057	0.0	244.0	371.0	0.0	0.0	0.0	0.0	0.0	0.0	null	null	null	null	null	null	null	null	null	null	null	null	null	null	null	null	null	null	null	
Sat Jun 03 01:49:00 UTC 2017	1.0	null	2367.4970703125	null	null	0.0	null	null	47.74172592163086	null	null	null	null	0.0	0.0	0.07050000131130219	0.048500001430511475	0.051500000059604645	0.9915000200271606	0.7194477319717407	0.0	244.0	371.0	0.0	0.0	0.0	0.0	0.0	0.0	null	null	null	null	null	null	null	null	null	null	null	null	null	null	null	null	null	null	null	
Sat Jun 03 01:48:00 UTC 2017	1.0	null	2367.4970703125	null	null	0.0	null	null	47.74172592163086	null	null	null	null	0.0	0.0	0.07750000059604645	0.05400000140070915	0.04399999976158142	0.9915000200271606	0.7207457423210144	0.0	244.0	371.0	0.0	0.0	0.0	0.0	0.0	0.0	null	null	null	null	null	null	null	null	null	null	null	null	null	null	null	null	null	null	null	
Sat Jun 03 01:47:00 UTC 2017	1.0	null	2367.4970703125	null	null	0.0	null	null	52.09745788574219	null	null	null	null	0.0	0.0	0.07575000077486038	0.04600000008940697	0.0494999997317791	0.9915000200271606	0.7185053825378418	0.0	244.0	371.0	0.0	0.0	0.0	0.0	0.0	0.0	null	null	null	null	null	null	null	null	null	null	null	null	null	null	null	null	null	null	null	
Sat Jun 03 01:46:00 UTC 2017	1.0	null	2367.4970703125	null	null	0.0	null	null	49.35255813598633	null	null	null	null	0.0	0.0	0.07599999755620956	0.051750000566244125	0.045249998569488525	0.9912499785423279	0.7184887528419495	0.0	244.0	371.0	0.0	0.0	0.0	0.0	0.0	0.0	null	null	null	null	null	null	null	null	null	null	null	null	null	null	null	null	null	null	null	
Sat Jun 03 01:45:00 UTC 2017	1.0	null	2367.4970703125	null	null	0.0	null	null	49.35255813598633	null	null	null	null	0.0	0.0	0.06499999761581421	0.05375000089406967	0.04800000041723251	0.9915000200271606	0.7184750437736511	0.0	244.0	371.0	0.0	0.0	0.0	0.0	0.0	0.0	null	null	null	null	null	null	null	null	null	null	null	null	null	null	null	null	null	null	null	
Sat Jun 03 01:44:00 UTC 2017	1.0	null	2800.91064453125	null	null	0.0	null	null	42.392784118652344	null	null	null	null	0.0	0.0	0.07750000059604645	0.0442500002682209	0.04574999958276749	0.9912499785423279	0.7206953763961792	0.0	244.0	371.0	0.0	0.0	0.0	0.0	0.0	0.0	null	null	null	null	null	null	null	null	null	null	null	null	null	null	null	null	null	null	null	
Sat Jun 03 01:43:00 UTC 2017	1.0	null	2607.16796875	null	null	0.0	null	null	42.392784118652344	null	null	null	null	0.0	0.0	0.07000000029802322	0.05700000002980232	0.04749999940395355	0.9890000224113464	0.7204282283782959	0.0	244.0	371.0	0.0	0.0	0.0	0.0	0.0	0.0	null	null	null	null	null	null	null	null	null	null	null	null	null	null	null	null	null	null	null	
Sat Jun 03 01:42:00 UTC 2017	1.0	null	2607.16796875	null	null	0.0	null	null	43.10211944580078	null	null	null	null	0.0	0.0	0.07050000131130219	0.05025000125169754	0.04600000008940697	0.9904999732971191	0.7207516431808472	0.0	244.0	371.0	0.0	0.0	0.0	0.0	0.0	0.0	null	null	null	null	null	null	null	null	null	null	null	null	null	null	null	null	null	null	null	
Sat Jun 03 01:41:00 UTC 2017	1.0	null	2607.16796875	null	null	0.0	null	null	43.10211944580078	null	null	null	null	0.0	0.0	0.1054999977350235	0.04975000023841858	0.04899999871850014	0.9915000200271606	0.7184579372406006	0.0	244.0	371.0	0.0	0.0	0.0	0.0	0.0	0.0	null	null	null	null	null	null	null	null	null	null	null	null	null	null	null	null	null	null	null	
Sat Jun 03 01:40:00 UTC 2017	0.0	null	2478.937744140625	null	null	0.0	null	null	43.10211944580078	null	null	null	null	0.0	0.0	0.07349999994039536	0.05375000089406967	0.04600000008940697	0.9912499785423279	0.7184334993362427	0.0	244.0	371.0	0.0	0.0	0.0	0.0	0.0	0.0	null	null	null	null	null	null	null	null	null	null	null	null	null	null	null	null	null	null	null	
Sat Jun 03 01:39:00 UTC 2017	1.0	null	2900.9580078125	null	null	0.0	null	null	39.86106491088867	null	null	null	null	0.0	0.0	0.0677499994635582	0.04500000178813934	0.04699999839067459	0.9894999861717224	0.7184324860572815	0.0	244.0	371.0	0.0	0.0	0.0	0.0	0.0	0.0	null	null	null	null	null	null	null	null	null	null	null	null	null	null	null	null	null	null	null	
Sat Jun 03 01:38:00 UTC 2017	1.0	null	2900.9580078125	null	null	0.0	null	null	39.35201644897461	null	null	null	null	0.0	null	0.07400000095367432	0.05849999934434891	0.04800000041723251	0.9912499785423279	0.7183850407600403	0.0	244.0	371.0	0.0	0.0	0.0	0.0	0.0	0.0	null	null	null	null	null	null	null	null	null	null	null	null	null	null	null	null	null	null	null	
Sat Jun 03 01:37:00 UTC 2017	1.0	null	2621.5556640625	null	null	0.0	null	null	45.59735870361328	null	null	null	null	0.0	0.0	0.07800000160932541	0.05050000175833702	0.04625000059604645	0.9904999732971191	0.7183483242988586	0.0	244.0	371.0	0.0	0.0	0.0	0.0	0.0	0.0	null	null	null	null	null	null	null	null	null	null	null	null	null	null	null	null	null	null	null	
Sat Jun 03 01:36:00 UTC 2017	1.0	null	2621.5556640625	null	null	0.0	null	null	45.59735870361328	null	null	null	null	0.0	0.0	0.07500000298023224	0.048250000923871994	0.04324999824166298	0.9915000200271606	0.7183067798614502	0.0	244.0	371.0	0.0	0.0	0.0	0.0	0.0	0.0	null	null	null	null	null	null	null	null	null	null	null	null	null	null	null	null	null	null	null	
Sat Jun 03 01:35:00 UTC 2017	0.0	null	2621.5556640625	null	null	0.0	null	null	38.245445251464844	null	null	null	null	0.0	0.0	0.07349999994039536	0.04800000041723251	0.04650000110268593	0.9915000200271606	0.7183023691177368	0.0	244.0	371.0	0.0	0.0	0.0	0.0	0.0	0.0	null	null	null	null	null	null	null	null	null	null	null	null	null	null	null	null	null	null	null	
Sat Jun 03 01:34:00 UTC 2017	1.0	null	2521.936767578125	null	null	0.0	null	null	38.245445251464844	null	null	null	null	0.0	0.0	0.06449999660253525	0.04774999991059303	0.051249999552965164	0.9902499914169312	0.7182646989822388	0.0	244.0	371.0	0.0	0.0	0.0	0.0	0.0	0.0	null	null	null	null	null	null	null	null	null	null	null	null	null	null	null	null	null	null	null	
Sat Jun 03 01:33:00 UTC 2017	1.0	null	2521.936767578125	null	null	0.0	null	null	34.45873260498047	null	null	null	null	0.0	0.0	0.07774999737739563	0.05249999836087227	0.04749999940395355	0.9902499914169312	0.7182416915893555	0.0	244.0	371.0	0.0	0.0	0.0	0.0	0.0	0.0	null	null	null	null	null	null	null	null	null	null	null	null	null	null	null	null	null	null	null	
Sat Jun 03 01:32:00 UTC 2017	0.0	null	2840.07958984375	null	null	0.0	null	null	44.752498626708984	null	null	null	null	0.0	0.0	0.07325000315904617	0.048250000923871994	0.04600000008940697	0.9915000200271606	0.7182382345199585	0.0	244.0	371.0	0.0	0.0	0.0	0.0	0.0	0.0	null	null	null	null	null	null	null	null	null	null	null	null	null	null	null	null	null	null	null	
Sat Jun 03 01:31:00 UTC 2017	1.0	null	2574.99072265625	null	null	0.0	null	null	44.752498626708984	null	null	null	null	0.0	0.0	0.09399999678134918	0.052000001072883606	0.0494999997317791	0.9917500019073486	0.7205060124397278	0.0	244.0	371.0	0.0	0.0	0.0	0.0	0.0	0.0	null	null	null	null	null	null	null	null	null	null	null	null	null	null	null	null	null	null	null	
Sat Jun 03 01:30:00 UTC 2017	0.0	null	2871.6416015625	null	null	0.0	null	null	48.83887481689453	null	null	null	null	0.0	0.0	0.08375000208616257	0.051750000566244125	0.04374999925494194	0.9915000200271606	0.7182275056838989	0.0	244.0	371.0	0.0	0.0	0.0	0.0	0.0	0.0	null	null	null	null	null	null	null	null	null	null	null	null	null	null	null	null	null	null	null	
Sat Jun 03 01:29:00 UTC 2017	0.0	null	2703.91455078125	null	null	0.0	null	null	48.83887481689453	null	null	null	null	0.0	0.0	0.061500001698732376	0.0494999997317791	0.04675000160932541	0.9912499785423279	0.7182284593582153	0.0	244.0	371.0	0.0	0.0	0.0	0.0	0.0	0.0	null	null	null	null	null	null	null	null	null	null	null	null	null	null	null	null	null	null	null	
Sat Jun 03 01:28:00 UTC 2017	1.0	null	2703.91455078125	null	null	0.0	null	null	48.83887481689453	null	null	null	null	0.0	0.0	0.07900000363588333	0.05849999934434891	0.05025000125169754	0.9912499785423279	0.7204957604408264	0.0	244.0	371.0	0.0	0.0	0.0	0.0	0.0	0.0	null	null	null	null	null	null	null	null	null	null	null	null	null	null	null	null	null	null	null	
Sat Jun 03 01:27:00 UTC 2017	1.0	null	2703.91455078125	null	null	0.0	null	null	48.83887481689453	null	null	null	null	0.0	0.0	0.06825000047683716	0.05050000175833702	0.04399999976158142	0.9912499785423279	0.7181903123855591	0.0	244.0	371.0	0.0	0.0	0.0	0.0	0.0	0.0	null	null	null	null	null	null	null	null	null	null	null	null	null	null	null	null	null	null	null	
Sat Jun 03 01:26:00 UTC 2017	1.0	null	2607.947021484375	null	null	0.0	null	null	52.516624450683594	null	null	null	null	0.0	0.0	0.07150000333786011	0.04749999940395355	0.04699999839067459	0.9912499785423279	0.7181732058525085	0.0	244.0	371.0	0.0	0.0	0.0	0.0	0.0	0.0	null	null	null	null	null	null	null	null	null	null	null	null	null	null	null	null	null	null	null	
Sat Jun 03 01:25:00 UTC 2017	0.0	null	2718.8603515625	null	null	0.0	null	null	52.516624450683594	null	null	null	null	0.0	0.0	0.07750000059604645	0.05375000089406967	0.04625000059604645	0.9915000200271606	0.7181565165519714	0.0	244.0	371.0	0.0	0.0	0.0	0.0	0.0	0.0	null	null	null	null	null	null	null	null	null	null	null	null	null	null	null	null	null	null	null	
Sat Jun 03 01:24:00 UTC 2017	0.0	null	2937.26708984375	null	null	0.0	null	null	52.516624450683594	null	null	null	null	0.0	0.0	0.0820000022649765	0.04574999958276749	0.048250000923871994	0.9912499785423279	0.7181404232978821	0.0	244.0	371.0	0.0	0.0	0.0	0.0	0.0	0.0	null	null	null	null	null	null	null	null	null	null	null	null	null	null	null	null	null	null	null	
Sat Jun 03 01:23:00 UTC 2017	0.0	null	2781.166015625	null	null	0.0	null	null	34.73023223876953	null	null	null	null	0.0	0.0	0.07349999994039536	0.05575000122189522	0.048250000923871994	0.9917500019073486	0.7203494310379028	0.0	244.0	371.0	0.0	0.0	0.0	0.0	0.0	0.0	null	null	null	null	null	null	null	null	null	null	null	null	null	null	null	null	null	null	null	
Sat Jun 03 01:22:00 UTC 2017	0.0	null	2872.577880859375	null	null	0.0	null	null	38.91348648071289	null	null	null	null	0.0	0.0	0.06525000184774399	0.05225000157952309	0.04774999991059303	0.9912499785423279	0.7180430293083191	0.0	244.0	371.0	0.0	0.0	0.0	0.0	0.0	0.0	null	null	null	null	null	null	null	null	null	null	null	null	null	null	null	null	null	null	null	
Sat Jun 03 01:21:00 UTC 2017	0.0	null	2527.58740234375	null	null	0.0	null	null	38.91348648071289	null	null	null	null	0.0	0.0	0.1054999977350235	0.04975000023841858	0.04050000011920929	0.9915000200271606	0.7180826663970947	0.0	244.0	371.0	0.0	0.0	0.0	0.0	0.0	0.0	null	null	null	null	null	null	null	null	null	null	null	null	null	null	null	null	null	null	null	
Sat Jun 03 01:20:00 UTC 2017	1.0	null	2750.113525390625	null	null	0.0	null	null	38.91348648071289	null	null	null	null	0.0	0.0	0.07050000131130219	0.048500001430511475	0.04924999922513962	0.9915000200271606	0.720350444316864	0.0	244.0	371.0	0.0	0.0	0.0	0.0	0.0	0.0	null	null	null	null	null	null	null	null	null	null	null	null	null	null	null	null	null	null	null	
Sat Jun 03 01:19:00 UTC 2017	1.0	null	2750.113525390625	null	null	0.0	null	null	33.972442626953125	null	null	null	null	0.0	null	0.07724999636411667	0.05025000125169754	0.04924999922513962	0.9912499785423279	0.718052327632904	0.0	244.0	371.0	0.0	0.0	0.0	0.0	0.0	0.0	null	null	null	null	null	null	null	null	null	null	null	null	null	null	null	null	null	null	null	
Sat Jun 03 01:18:00 UTC 2017	1.0	null	2879.926025390625	null	null	0.0	null	null	33.972442626953125	null	null	null	null	0.0	null	0.07275000214576721	0.05274999886751175	0.042750000953674316	0.9917500019073486	0.7180704474449158	0.0	244.0	371.0	0.0	0.0	0.0	0.0	0.0	0.0	null	null	null	null	null	null	null	null	null	null	null	null	null	null	null	null	null	null	null	
Sat Jun 03 01:17:00 UTC 2017	0.0	null	2879.926025390625	null	null	0.0	null	null	33.972442626953125	null	null	null	null	0.0	null	0.07249999791383743	0.05375000089406967	0.0494999997317791	0.9912499785423279	0.7180631160736084	0.0	244.0	371.0	0.0	0.0	0.0	0.0	0.0	0.0	null	null	null	null	null	null	null	null	null	null	null	null	null	null	null	null	null	null	null	
Sat Jun 03 01:16:00 UTC 2017	0.0	null	2564.970458984375	null	null	0.0	null	null	33.972442626953125	null	null	null	null	0.0	null	0.07225000113248825	0.04749999940395355	0.048500001430511475	0.9915000200271606	0.7180841565132141	0.0	244.0	371.0	0.0	0.0	0.0	0.0	0.0	0.0	null	null	null	null	null	null	null	null	null	null	null	null	null	null	null	null	null	null	null	
Sat Jun 03 01:15:00 UTC 2017	0.0	null	1091627.5	null	null	0.0	null	null	33.972442626953125	null	null	null	null	0.0	null	0.07900000363588333	0.054499998688697815	0.04500000178813934	0.9915000200271606	0.7188469171524048	0.0	244.0	371.0	0.0	0.0	0.0	0.0	0.0	0.0	null	null	null	null	null	null	null	null	null	null	null	null	null	null	null	null	null	null	null	
Sat Jun 03 01:14:00 UTC 2017	0.0	null	1091627.5	null	null	0.0	null	null	38.68284225463867	null	null	null	null	0.0	1313608.625	0.06724999845027924	0.04650000110268593	0.04600000008940697	0.9912499785423279	0.7179980278015137	0.0	244.0	371.0	0.0	0.0	0.0	0.0	0.0	0.0	null	null	null	null	null	null	null	null	null	null	null	null	null	null	null	null	null	null	null	
Sat Jun 03 01:13:00 UTC 2017	0.0	null	1091627.5	null	null	22.720638275146484	null	null	72.2866439819336	null	null	null	null	0.0	1313608.625	0.0767500028014183	0.05674999952316284	0.04724999889731407	0.9912499785423279	0.7179833650588989	0.0	244.0	371.0	0.0	0.0	0.0	0.0	0.0	0.0	null	null	null	null	null	null	null	null	null	null	null	null	null	null	null	null	null	null	null	
Sat Jun 03 01:12:00 UTC 2017	47.0	null	8083848.5	null	null	128151.265625	null	null	19459.06640625	null	null	null	null	1338369.875	1313608.625	0.0820000022649765	0.14374999701976776	0.14925000071525574	0.9597499966621399	0.7179906964302063	0.0	244.0	371.0	0.0	0.0	0.0	0.0	0.0	0.0	null	null	null	null	null	null	null	null	null	null	null	null	null	null	null	null	null	null	null	
Sat Jun 03 01:11:00 UTC 2017	350.0	null	8083848.5	null	null	128151.265625	null	null	19459.06640625	null	null	null	null	1552810.0	1638977.5	0.09600000083446503	0.13574999570846558	0.15424999594688416	0.9587500095367432	0.7199345827102661	0.0	244.0	371.0	0.0	0.0	0.0	0.0	0.0	0.0	null	null	null	null	null	null	null	null	null	null	null	null	null	null	null	null	null	null	null	
Sat Jun 03 01:10:00 UTC 2017	380.0	null	8083848.5	null	null	128151.265625	null	null	19459.06640625	null	null	null	null	1606317.125	1638977.5	0.07900000363588333	0.13300000131130219	0.14900000393390656	0.9587500095367432	0.7197363972663879	600.0	244.0	371.0	0.0	0.0	0.0	0.0	0.0	0.0	null	null	null	null	null	null	null	null	null	null	null	null	null	null	null	null	null	null	null	
Sat Jun 03 01:09:00 UTC 2017	363.0	null	8083848.5	null	null	128151.265625	null	null	19932.75390625	null	null	null	null	1481394.125	1625508.625	0.0689999982714653	0.14000000059604645	0.15299999713897705	0.9599999785423279	0.7173771262168884	600.0	244.0	371.0	0.0	0.0	0.0	0.0	0.0	0.0	null	null	null	null	null	null	null	null	null	null	null	null	null	null	null	null	null	null	null	
Sat Jun 03 01:08:00 UTC 2017	362.0	null	8083848.5	null	null	128899.7109375	null	null	19932.75390625	null	null	null	null	1578258.75	null	0.06549999862909317	0.13750000298023224	0.14425000548362732	0.9599999785423279	0.7195348143577576	600.0	244.0	371.0	0.0	0.0	0.0	0.0	0.0	0.0	null	null	null	null	null	null	null	null	null	null	null	null	null	null	null	null	null	null	null	
Sat Jun 03 01:07:00 UTC 2017	371.0	null	8083848.5	null	null	129327.7421875	null	null	19932.75390625	null	null	null	null	1524667.875	1515209.25	0.08250000327825546	0.14350000023841858	0.148499995470047	0.9602500200271606	0.7170184850692749	500.0	244.0	371.0	0.0	0.0	0.0	0.0	0.0	0.0	null	null	null	null	null	null	null	null	null	null	null	null	null	null	null	null	null	null	null	
Sat Jun 03 01:06:00 UTC 2017	358.0	null	8083848.5	null	null	129327.7421875	null	null	19932.75390625	null	null	null	null	1550794.5	1653379.125	0.0677499994635582	0.12399999797344208	0.1407500058412552	0.9592499732971191	0.7169172167778015	500.0	244.0	371.0	0.0	0.0	0.0	0.0	0.0	0.0	null	null	null	null	null	null	null	null	null	null	null	null	null	null	null	null	null	null	null	
Sat Jun 03 01:05:00 UTC 2017	374.0	null	8083848.5	null	null	133475.84375	null	null	19932.75390625	null	null	null	null	1550794.5	1653379.125	0.06849999725818634	0.12125000357627869	0.14124999940395355	0.9589999914169312	0.7167410850524902	500.0	244.0	371.0	0.0	0.0	0.0	0.0	0.0	0.0	null	null	null	null	null	null	null	null	null	null	null	null	null	null	null	null	null	null	null	
Sat Jun 03 01:04:00 UTC 2017	364.0	null	8083848.5	null	null	129548.0625	null	null	21257.537109375	null	null	null	null	1651115.75	1653379.125	0.07900000363588333	0.11749999970197678	0.15299999713897705	0.9505000114440918	0.7162826657295227	400.0	244.0	371.0	0.0	0.0	0.0	0.0	0.0	0.0	null	null	null	null	null	null	null	null	null	null	null	null	null	null	null	null	null	null	null	
Sat Jun 03 01:03:00 UTC 2017	376.0	null	7827923.0	null	null	113876.28125	null	null	19043.93359375	null	null	null	null	1381047.375	1367187.875	0.07249999791383743	0.12125000357627869	0.13224999606609344	0.9614999890327454	0.7161314487457275	400.0	244.0	371.0	0.0	0.0	0.0	0.0	0.0	0.0	null	null	null	null	null	null	null	null	null	null	null	null	null	null	null	null	null	null	null	
Sat Jun 03 01:02:00 UTC 2017	350.0	null	7827923.0	null	null	121552.9921875	null	null	21163.439453125	null	null	null	null	1450222.875	null	0.07774999737739563	0.11550000309944153	0.14149999618530273	0.9574999809265137	0.7179661989212036	400.0	244.0	371.0	0.0	0.0	0.0	0.0	0.0	0.0	null	null	null	null	null	null	null	null	null	null	null	null	null	null	null	null	null	null	null	
Sat Jun 03 01:01:00 UTC 2017	367.0	null	7446934.0	null	null	121552.9921875	null	null	21163.439453125	null	null	null	null	1450222.875	null	0.09274999797344208	0.11100000143051147	0.14000000059604645	0.9559999704360962	0.7181198596954346	350.0	244.0	371.0	0.0	0.0	0.0	0.0	0.0	0.0	null	null	null	null	null	null	null	null	null	null	null	null	null	null	null	null	null	null	null	
Sat Jun 03 01:00:00 UTC 2017	380.0	null	7446934.0	null	null	121025.171875	null	null	19386.390625	null	null	null	null	1576430.0	1389819.25	0.07750000059604645	0.10225000232458115	0.13324999809265137	0.9559999704360962	0.7178928256034851	350.0	244.0	371.0	0.0	0.0	0.0	0.0	0.0	0.0	null	null	null	null	null	null	null	null	null	null	null	null	null	null	null	null	null	null	null	
Sat Jun 03 00:59:00 UTC 2017	350.0	null	7446934.0	null	null	121025.171875	null	null	22250.0	null	null	null	null	1574927.75	1389819.25	0.0702499970793724	0.10575000196695328	0.13099999725818634	0.9620000123977661	0.716943621635437	350.0	244.0	371.0	0.0	0.0	0.0	0.0	0.0	0.0	null	null	null	null	null	null	null	null	null	null	null	null	null	null	null	null	null	null	null	
Sat Jun 03 00:58:00 UTC 2017	342.0	null	7402844.5	null	null	121025.171875	null	null	22250.0	null	null	null	null	1624120.5	1724010.375	0.07824999839067459	0.10125000029802322	0.13975000381469727	0.9570000171661377	0.7154459953308105	300.0	244.0	371.0	0.0	0.0	0.0	0.0	0.0	0.0	null	null	null	null	null	null	null	null	null	null	null	null	null	null	null	null	null	null	null	
Sat Jun 03 00:57:00 UTC 2017	385.0	null	7402844.5	null	null	121025.171875	null	null	19141.302734375	null	null	null	null	1567153.375	1642244.625	0.07074999809265137	0.10400000214576721	0.12950000166893005	0.9585000276565552	0.7151656150817871	300.0	244.0	371.0	0.0	0.0	0.0	0.0	0.0	0.0	null	null	null	null	null	null	null	null	null	null	null	null	null	null	null	null	null	null	null	
Sat Jun 03 00:56:00 UTC 2017	350.0	null	7402844.5	null	null	121025.171875	null	null	19141.302734375	null	null	null	null	1480678.625	1435486.5	0.0677499994635582	0.09125000238418579	0.1274999976158142	0.9624999761581421	0.7173091173171997	300.0	244.0	371.0	0.0	0.0	0.0	0.0	0.0	0.0	null	null	null	null	null	null	null	null	null	null	null	null	null	null	null	null	null	null	null	
Sat Jun 03 00:55:00 UTC 2017	345.0	null	7402844.5	null	null	103111.109375	null	null	19141.302734375	null	null	null	null	1480678.625	1435486.5	0.07800000160932541	0.09950000047683716	0.1237500011920929	0.9610000252723694	0.7148808836936951	250.0	244.0	371.0	0.0	0.0	0.0	0.0	0.0	0.0	null	null	null	null	null	null	null	null	null	null	null	null	null	null	null	null	null	null	null	
Sat Jun 03 00:54:00 UTC 2017	335.0	null	6834116.5	null	null	109879.9765625	null	null	18353.1015625	null	null	null	null	1320541.625	1162928.0	0.07524999976158142	0.09000000357627869	0.12025000154972076	0.9585000276565552	0.7143915891647339	250.0	244.0	371.0	0.0	0.0	0.0	0.0	0.0	0.0	null	null	null	null	null	null	null	null	null	null	null	null	null	null	null	null	null	null	null	
Sat Jun 03 00:53:00 UTC 2017	316.0	null	6319659.5	null	null	58110.16796875	null	null	18071.8515625	null	null	null	null	1320541.625	1162928.0	0.06975000351667404	0.08624999970197678	0.12250000238418579	0.9624999761581421	0.7141875624656677	250.0	244.0	371.0	0.0	0.0	0.0	0.0	0.0	0.0	null	null	null	null	null	null	null	null	null	null	null	null	null	null	null	null	null	null	null	
Sat Jun 03 00:52:00 UTC 2017	315.0	null	6319659.5	null	null	58110.16796875	null	null	18071.8515625	null	null	null	null	1320541.625	1162928.0	0.07599999755620956	0.08025000244379044	0.11050000041723251	0.9642500281333923	0.716149091720581	200.0	244.0	371.0	0.0	0.0	0.0	0.0	0.0	0.0	null	null	null	null	null	null	null	null	null	null	null	null	null	null	null	null	null	null	null	
Sat Jun 03 00:51:00 UTC 2017	290.0	null	6541839.0	null	null	58110.16796875	null	null	15909.9912109375	null	null	null	null	1343598.75	1189505.25	0.09449999779462814	0.07999999821186066	0.11474999785423279	0.9637500047683716	0.7135642766952515	200.0	244.0	371.0	0.0	0.0	0.0	0.0	0.0	0.0	null	null	null	null	null	null	null	null	null	null	null	null	null	null	null	null	null	null	null	
Sat Jun 03 00:50:00 UTC 2017	297.0	null	6077800.0	null	null	58110.16796875	null	null	15909.9912109375	null	null	null	null	781788.8125	752698.1875	0.07225000113248825	0.07724999636411667	0.11050000041723251	0.9660000205039978	0.715832531452179	200.0	244.0	371.0	0.0	0.0	0.0	0.0	0.0	0.0	null	null	null	null	null	null	null	null	null	null	null	null	null	null	null	null	null	null	null	
Sat Jun 03 00:49:00 UTC 2017	281.0	null	3802335.0	null	null	58110.16796875	null	null	15909.9912109375	null	null	null	null	781788.8125	752698.1875	0.0820000022649765	0.07800000160932541	0.10350000113248825	0.9679999947547913	0.7158192992210388	150.0	244.0	371.0	0.0	0.0	0.0	0.0	0.0	0.0	null	null	null	null	null	null	null	null	null	null	null	null	null	null	null	null	null	null	null	
Sat Jun 03 00:48:00 UTC 2017	249.0	null	3802335.0	null	null	58110.16796875	null	null	6451.81298828125	null	null	null	null	781788.8125	752698.1875	0.07524999976158142	0.06700000166893005	0.08950000256299973	0.9752500057220459	0.7155541181564331	150.0	244.0	371.0	0.0	0.0	0.0	0.0	0.0	0.0	null	null	null	null	null	null	null	null	null	null	null	null	null	null	null	null	null	null	null	
Sat Jun 03 00:47:00 UTC 2017	164.0	null	3874702.5	null	null	58110.16796875	null	null	6451.81298828125	null	null	null	null	781788.8125	752698.1875	0.06750000268220901	0.0677499994635582	0.08900000154972076	0.9745000004768372	0.713148832321167	150.0	244.0	371.0	0.0	0.0	0.0	0.0	0.0	0.0	null	null	null	null	null	null	null	null	null	null	null	null	null	null	null	null	null	null	null	
Sat Jun 03 00:46:00 UTC 2017	178.0	null	3364515.0	null	null	24477.728515625	null	null	6451.81298828125	null	null	null	null	592959.5	667666.1875	0.07050000131130219	0.07150000333786011	0.09099999815225601	0.9762499928474426	0.7129105925559998	100.0	244.0	371.0	0.0	0.0	0.0	0.0	0.0	0.0	null	null	null	null	null	null	null	null	null	null	null	null	null	null	null	null	null	null	null	
Sat Jun 03 00:45:00 UTC 2017	156.0	null	1776339.625	null	null	24477.728515625	null	null	6451.81298828125	null	null	null	null	315653.09375	359384.0625	0.07400000095367432	0.060750000178813934	0.07649999856948853	0.9819999933242798	0.7128161787986755	100.0	244.0	371.0	0.0	0.0	0.0	0.0	0.0	0.0	null	null	null	null	null	null	null	null	null	null	null	null	null	null	null	null	null	null	null	
Sat Jun 03 00:44:00 UTC 2017	98.0	null	1776339.625	null	null	24477.728515625	null	null	5629.2431640625	null	null	null	null	315653.09375	359384.0625	0.07524999976158142	0.054749999195337296	0.06800000369548798	0.9829999804496765	0.7126703262329102	100.0	244.0	371.0	0.0	0.0	0.0	0.0	0.0	0.0	null	null	null	null	null	null	null	null	null	null	null	null	null	null	null	null	null	null	null	
Sat Jun 03 00:43:00 UTC 2017	82.0	null	910452.4375	null	null	20414.509765625	null	null	5891.03125	null	null	null	null	284956.5625	359384.0625	0.07774999737739563	0.06300000101327896	0.06800000369548798	0.984000027179718	0.7125083804130554	50.0	244.0	371.0	0.0	0.0	0.0	0.0	0.0	0.0	null	null	null	null	null	null	null	null	null	null	null	null	null	null	null	null	null	null	null	
Sat Jun 03 00:42:00 UTC 2017	79.0	null	910452.4375	null	null	8514.4912109375	null	null	2834.5791015625	null	null	null	null	105958.609375	131315.46875	0.0729999989271164	0.05400000140070915	0.05874999985098839	0.9872499704360962	0.7141112685203552	50.0	244.0	371.0	0.0	0.0	0.0	0.0	0.0	0.0	null	null	null	null	null	null	null	null	null	null	null	null	null	null	null	null	null	null	null	
Sat Jun 03 00:41:00 UTC 2017	44.0	null	645132.3125	null	null	8514.4912109375	null	null	2270.349609375	null	null	null	null	105958.609375	131315.46875	0.09449999779462814	0.054249998182058334	0.05874999985098839	0.9879999756813049	0.7121864557266235	50.0	244.0	371.0	0.0	0.0	0.0	0.0	0.0	0.0	null	null	null	null	null	null	null	null	null	null	null	null	null	null	null	null	null	null	null	
Sat Jun 03 00:40:00 UTC 2017	35.0	null	583731.0	null	null	8514.4912109375	null	null	2339.356689453125	null	null	null	null	105958.609375	131315.46875	0.07374999672174454	0.05000000074505806	0.05225000157952309	0.9884999990463257	0.7121277451515198	20.0	244.0	371.0	0.0	0.0	0.0	0.0	0.0	0.0	null	null	null	null	null	null	null	null	null	null	null	null	null	null	null	null	null	null	null	
Sat Jun 03 00:39:00 UTC 2017	31.0	null	467253.9375	null	null	6624.0546875	null	null	1233.6517333984375	null	null	null	null	73424.8125	null	0.07374999672174454	0.05575000122189522	0.054249998182058334	0.984749972820282	0.712016224861145	20.0	244.0	371.0	0.0	0.0	0.0	0.0	0.0	0.0	null	null	null	null	null	null	null	null	null	null	null	null	null	null	null	null	null	null	null	
Sat Jun 03 00:38:00 UTC 2017	24.0	null	296521.1875	null	null	5238.21728515625	null	null	1233.6517333984375	null	null	null	null	73424.8125	null	0.07275000214576721	0.051249999552965164	0.054999999701976776	0.9857500195503235	0.7118826508522034	20.0	244.0	371.0	0.0	0.0	0.0	0.0	0.0	0.0	null	null	null	null	null	null	null	null	null	null	null	null	null	null	null	null	null	null	null	
Sat Jun 03 00:37:00 UTC 2017	20.0	null	296521.1875	null	null	2796.6396484375	null	null	1233.6517333984375	null	null	null	null	27259.87890625	null	0.07225000113248825	0.054249998182058334	0.050999999046325684	0.9792500138282776	0.7141655683517456	10.0	244.0	371.0	0.0	0.0	0.0	0.0	0.0	0.0	null	null	null	null	null	null	null	null	null	null	null	null	null	null	null	null	null	null	null	
Sat Jun 03 00:36:00 UTC 2017	17.0	null	206385.765625	null	null	2796.6396484375	null	null	782.669189453125	null	null	null	null	27259.87890625	null	0.06925000250339508	0.05350000038743019	0.0494999997317791	0.9879999756813049	0.7117578387260437	10.0	244.0	371.0	0.0	0.0	0.0	0.0	0.0	0.0	null	null	null	null	null	null	null	null	null	null	null	null	null	null	null	null	null	null	null	
Sat Jun 03 00:35:00 UTC 2017	12.0	null	155185.21875	null	null	2796.6396484375	null	null	642.1558837890625	null	null	null	null	27259.87890625	null	0.08574999868869781	0.051500000059604645	0.050999999046325684	0.9904999732971191	0.7117207050323486	10.0	244.0	371.0	0.0	0.0	0.0	0.0	0.0	0.0	null	null	null	null	null	null	null	null	null	null	null	null	null	null	null	null	null	null	null	
Sat Jun 03 00:34:00 UTC 2017	12.0	null	155185.21875	null	null	2192.90185546875	null	null	642.1558837890625	null	null	null	null	36954.2109375	null	0.06925000250339508	0.04749999940395355	0.0507499985396862	0.9907500147819519	0.7116879224777222	5.0	244.0	371.0	0.0	0.0	0.0	0.0	0.0	0.0	null	null	null	null	null	null	null	null	null	null	null	null	null	null	null	null	null	null	null	
Sat Jun 03 00:33:00 UTC 2017	9.0	null	157798.421875	null	null	970.7589111328125	null	null	389.60675048828125	null	null	null	null	36954.2109375	null	0.07450000196695328	0.05025000125169754	0.045249998569488525	0.9909999966621399	0.7134737372398376	5.0	244.0	371.0	0.0	0.0	0.0	0.0	0.0	0.0	null	null	null	null	null	null	null	null	null	null	null	null	null	null	null	null	null	null	null	
Sat Jun 03 00:32:00 UTC 2017	8.0	null	157798.421875	null	null	970.7589111328125	null	null	389.60675048828125	null	null	null	null	1668823.625	1621545.875	0.07374999672174454	0.057750001549720764	0.048250000923871994	0.9904999732971191	0.7117921113967896	5.0	244.0	371.0	0.0	0.0	0.0	0.0	0.0	0.0	null	null	null	null	null	null	null	null	null	null	null	null	null	null	null	null	null	null	null	
Sat Jun 03 00:31:00 UTC 2017	8.0	null	4073591.75	null	null	970.7589111328125	null	null	389.623046875	null	null	null	null	1668823.625	1621545.875	0.09425000101327896	0.042249999940395355	0.05350000038743019	0.9904999732971191	0.7132477164268494	3.0	244.0	371.0	0.0	0.0	0.0	0.0	0.0	0.0	null	null	null	null	null	null	null	null	null	null	null	null	null	null	null	null	null	null	null	
Sat Jun 03 00:30:00 UTC 2017	6.0	null	4073591.75	null	null	119883.9375	null	null	58.961585998535156	null	null	null	null	1668823.625	1621545.875	0.07699999958276749	0.051249999552965164	0.05375000089406967	0.9862499833106995	0.7115528583526611	3.0	244.0	371.0	0.0	0.0	0.0	0.0	0.0	0.0	null	null	null	null	null	null	null	null	null	null	null	null	null	null	null	null	null	null	null	
Sat Jun 03 00:29:00 UTC 2017	2.0	null	4073591.75	null	null	119883.9375	null	null	20473.93359375	null	null	null	null	1668823.625	1621545.875	0.09274999797344208	0.09200000017881393	0.11174999922513962	0.9787499904632568	0.7135549783706665	3.0	244.0	371.0	0.0	0.0	0.0	0.0	0.0	0.0	null	null	null	null	null	null	null	null	null	null	null	null	null	null	null	null	null	null	null	
Sat Jun 03 00:28:00 UTC 2017	180.0	null	8094750.5	null	null	119883.9375	null	null	20473.93359375	null	null	null	null	1668823.625	1621545.875	0.06599999964237213	0.13574999570846558	0.15800000727176666	0.9585000276565552	0.7114638090133667	0.0	244.0	371.0	0.0	0.0	0.0	0.0	0.0	0.0	null	null	null	null	null	null	null	null	null	null	null	null	null	null	null	null	null	null	null	
Sat Jun 03 00:27:00 UTC 2017	372.0	null	7472384.5	null	null	119883.9375	null	null	19375.056640625	null	null	null	null	1668823.625	1621545.875	0.07325000315904617	0.13474999368190765	0.1472499966621399	0.9597499966621399	0.7111653685569763	600.0	244.0	371.0	0.0	0.0	0.0	0.0	0.0	0.0	null	null	null	null	null	null	null	null	null	null	null	null	null	null	null	null	null	null	null	
Sat Jun 03 00:26:00 UTC 2017	345.0	null	7638691.0	null	null	119883.9375	null	null	19870.533203125	null	null	null	null	1668823.625	1621545.875	0.07225000113248825	0.13625000417232513	0.15299999713897705	0.9599999785423279	0.7108600735664368	600.0	244.0	371.0	0.0	0.0	0.0	0.0	0.0	0.0	null	null	null	null	null	null	null	null	null	null	null	null	null	null	null	null	null	null	null	
Sat Jun 03 00:25:00 UTC 2017	352.0	null	7638691.0	null	null	119883.9375	null	null	19870.533203125	null	null	null	null	1468735.125	1621545.875	0.0767500028014183	0.13850000500679016	0.15449999272823334	0.9597499966621399	0.71070396900177	600.0	244.0	371.0	0.0	0.0	0.0	0.0	0.0	0.0	null	null	null	null	null	null	null	null	null	null	null	null	null	null	null	null	null	null	null	
Sat Jun 03 00:24:00 UTC 2017	352.0	null	7638691.0	null	null	129610.2109375	null	null	20794.96484375	null	null	null	null	1570270.5	1471001.125	0.07925000041723251	0.13650000095367432	0.15800000727176666	0.9597499966621399	0.7104573845863342	500.0	244.0	371.0	0.0	0.0	0.0	0.0	0.0	0.0	null	null	null	null	null	null	null	null	null	null	null	null	null	null	null	null	null	null	null	
Sat Jun 03 00:23:00 UTC 2017	360.0	null	7744924.5	null	null	129610.2109375	null	null	21589.10546875	null	null	null	null	1554017.75	1560521.25	0.06925000250339508	0.12600000202655792	0.14800000190734863	0.9597499966621399	0.7102963924407959	500.0	244.0	371.0	0.0	0.0	0.0	0.0	0.0	0.0	null	null	null	null	null	null	null	null	null	null	null	null	null	null	null	null	null	null	null	
Sat Jun 03 00:22:00 UTC 2017	373.0	null	7687594.5	null	null	129610.2109375	null	null	19472.89453125	null	null	null	null	1714856.0	1560521.25	0.08025000244379044	0.11699999868869781	0.14524999260902405	0.9572499990463257	0.7101442217826843	500.0	244.0	371.0	0.0	0.0	0.0	0.0	0.0	0.0	null	null	null	null	null	null	null	null	null	null	null	null	null	null	null	null	null	null	null	
Sat Jun 03 00:21:00 UTC 2017	366.0	null	7687594.5	null	null	129610.2109375	null	null	19472.89453125	null	null	null	null	1616956.5	1499129.875	0.09375	0.12224999815225601	0.13824999332427979	0.9595000147819519	0.7105870246887207	400.0	244.0	371.0	0.0	0.0	0.0	0.0	0.0	0.0	null	null	null	null	null	null	null	null	null	null	null	null	null	null	null	null	null	null	null	
Sat Jun 03 00:20:00 UTC 2017	349.0	null	7687594.5	null	null	138103.5625	null	null	21160.015625	null	null	null	null	1616956.5	1499129.875	0.06575000286102295	0.11424999684095383	0.14524999260902405	0.9589999914169312	0.709298312664032	400.0	244.0	371.0	0.0	0.0	0.0	0.0	0.0	0.0	null	null	null	null	null	null	null	null	null	null	null	null	null	null	null	null	null	null	null	
Sat Jun 03 00:19:00 UTC 2017	351.0	null	7687594.5	null	null	138103.5625	null	null	20051.640625	null	null	null	null	1518925.5	1528757.375	0.08025000244379044	0.12125000357627869	0.13950000703334808	0.9587500095367432	0.711330235004425	400.0	244.0	371.0	0.0	0.0	0.0	0.0	0.0	0.0	null	null	null	null	null	null	null	null	null	null	null	null	null	null	null	null	null	null	null	
Sat Jun 03 00:18:00 UTC 2017	359.0	null	7687594.5	null	null	123953.046875	null	null	20051.640625	null	null	null	null	1518925.5	1528757.375	0.07474999874830246	0.10999999940395355	0.1379999965429306	0.9607499837875366	0.7106937170028687	350.0	244.0	371.0	0.0	0.0	0.0	0.0	0.0	0.0	null	null	null	null	null	null	null	null	null	null	null	null	null	null	null	null	null	null	null	
Sat Jun 03 00:17:00 UTC 2017	355.0	null	7687594.5	null	null	123953.046875	null	null	20051.640625	null	null	null	null	1518925.5	1528757.375	0.06849999725818634	0.10750000178813934	0.1342500001192093	0.9589999914169312	0.7082400321960449	350.0	244.0	371.0	0.0	0.0	0.0	0.0	0.0	0.0	null	null	null	null	null	null	null	null	null	null	null	null	null	null	null	null	null	null	null	
Sat Jun 03 00:16:00 UTC 2017	359.0	null	7687594.5	null	null	123953.046875	null	null	19787.923828125	null	null	null	null	1461457.125	1528757.375	0.07275000214576721	0.10949999839067459	0.13099999725818634	0.9599999785423279	0.7080496549606323	350.0	244.0	371.0	0.0	0.0	0.0	0.0	0.0	0.0	null	null	null	null	null	null	null	null	null	null	null	null	null	null	null	null	null	null	null	
Sat Jun 03 00:15:00 UTC 2017	347.0	null	7687594.5	null	null	132754.796875	null	null	19787.923828125	null	null	null	null	1467560.875	1756927.0	0.07649999856948853	0.10074999928474426	0.13300000131130219	0.9580000042915344	0.7093374133110046	300.0	244.0	371.0	0.0	0.0	0.0	0.0	0.0	0.0	null	null	null	null	null	null	null	null	null	null	null	null	null	null	null	null	null	null	null	
Sat Jun 03 00:14:00 UTC 2017	385.0	null	7687594.5	null	null	124699.3203125	null	null	19787.923828125	null	null	null	null	1467560.875	1756927.0	0.07199999690055847	0.10074999928474426	0.13875000178813934	0.9612500071525574	0.7075790166854858	300.0	244.0	371.0	0.0	0.0	0.0	0.0	0.0	0.0	null	null	null	null	null	null	null	null	null	null	null	null	null	null	null	null	null	null	null	
Sat Jun 03 00:13:00 UTC 2017	353.0	null	7772752.5	null	null	122810.3984375	null	null	19061.33203125	null	null	null	null	1467560.875	1756927.0	0.07524999976158142	0.09274999797344208	0.12224999815225601	0.9607499837875366	0.7074620723724365	300.0	244.0	371.0	0.0	0.0	0.0	0.0	0.0	0.0	null	null	null	null	null	null	null	null	null	null	null	null	null	null	null	null	null	null	null	
Sat Jun 03 00:12:00 UTC 2017	340.0	null	7772752.5	null	null	122810.3984375	null	null	19061.33203125	null	null	null	null	287972.3125	null	0.07625000178813934	0.09650000184774399	0.13324999809265137	0.9582499861717224	0.7072477340698242	250.0	244.0	371.0	0.0	0.0	0.0	0.0	0.0	0.0	null	null	null	null	null	null	null	null	null	null	null	null	null	null	null	null	null	null	null	
Sat Jun 03 00:11:00 UTC 2017	376.0	null	7772752.5	null	null	122810.3984375	null	null	19061.33203125	null	null	null	null	287972.3125	null	0.09525000303983688	0.08974999934434891	0.1315000057220459	0.9602500200271606	0.7066807150840759	250.0	244.0	371.0	0.0	0.0	0.0	0.0	0.0	0.0	null	null	null	null	null	null	null	null	null	null	null	null	null	null	null	null	null	null	null	
Sat Jun 03 00:10:00 UTC 2017	356.0	null	7427495.5	null	null	122810.3984375	null	null	19061.33203125	null	null	null	null	287972.3125	null	0.07824999839067459	0.08025000244379044	0.1172500029206276	0.9605000019073486	0.7064199447631836	250.0	244.0	371.0	0.0	0.0	0.0	0.0	0.0	0.0	null	null	null	null	null	null	null	null	null	null	null	null	null	null	null	null	null	null	null	
Sat Jun 03 00:09:00 UTC 2017	343.0	null	7466367.0	null	null	122810.3984375	null	null	19381.8828125	null	null	null	null	287972.3125	null	0.0677499994635582	0.0860000029206276	0.1277499943971634	0.9610000252723694	0.7059286832809448	200.0	244.0	371.0	0.0	0.0	0.0	0.0	0.0	0.0	null	null	null	null	null	null	null	null	null	null	null	null	null	null	null	null	null	null	null	
Sat Jun 03 00:08:00 UTC 2017	330.0	null	6373939.0	null	null	82280.5625	null	null	16631.083984375	null	null	null	null	287972.3125	null	0.0807500034570694	0.08474999666213989	0.10999999940395355	0.965749979019165	0.705240786075592	200.0	244.0	371.0	0.0	0.0	0.0	0.0	0.0	0.0	null	null	null	null	null	null	null	null	null	null	null	null	null	null	null	null	null	null	null	
Sat Jun 03 00:07:00 UTC 2017	290.0	null	5885581.0	null	null	82280.5625	null	null	14467.544921875	null	null	null	null	287972.3125	null	0.06549999862909317	0.0742499977350235	0.10649999976158142	0.9664999842643738	0.7073940634727478	200.0	244.0	371.0	0.0	0.0	0.0	0.0	0.0	0.0	null	null	null	null	null	null	null	null	null	null	null	null	null	null	null	null	null	null	null	
Sat Jun 03 00:06:00 UTC 2017	265.0	null	4283631.0	null	null	82280.5625	null	null	12583.0869140625	null	null	null	null	287972.3125	null	0.08224999904632568	0.07724999636411667	0.10400000214576721	0.968999981880188	0.7071029543876648	150.0	244.0	371.0	0.0	0.0	0.0	0.0	0.0	0.0	null	null	null	null	null	null	null	null	null	null	null	null	null	null	null	null	null	null	null	
Sat Jun 03 00:05:00 UTC 2017	236.0	null	4283631.0	null	null	69433.609375	null	null	12583.0869140625	null	null	null	null	287972.3125	null	0.06599999964237213	0.07275000214576721	0.09449999779462814	0.9714999794960022	0.7046135067939758	150.0	244.0	371.0	0.0	0.0	0.0	0.0	0.0	0.0	null	null	null	null	null	null	null	null	null	null	null	null	null	null	null	null	null	null	null	
Sat Jun 03 00:04:00 UTC 2017	200.0	null	3405872.0	null	null	29783.81640625	null	null	10090.5009765625	null	null	null	null	287972.3125	null	0.0807500034570694	0.06599999964237213	0.08950000256299973	0.9742500185966492	0.7067815065383911	150.0	244.0	371.0	0.0	0.0	0.0	0.0	0.0	0.0	null	null	null	null	null	null	null	null	null	null	null	null	null	null	null	null	null	null	null	
Sat Jun 03 00:03:00 UTC 2017	184.0	null	3405872.0	null	null	29783.81640625	null	null	10090.5009765625	null	null	null	null	287972.3125	null	0.0677499994635582	0.06499999761581421	0.08524999767541885	0.9745000004768372	0.7055793404579163	100.0	244.0	371.0	0.0	0.0	0.0	0.0	0.0	0.0	null	null	null	null	null	null	null	null	null	null	null	null	null	null	null	null	null	null	null	
Sat Jun 03 00:02:00 UTC 2017	149.0	null	1907698.375	null	null	29783.81640625	null	null	4722.1533203125	null	null	null	null	287972.3125	null	0.07800000160932541	0.06549999862909317	0.07500000298023224	0.9787499904632568	0.7041541337966919	100.0	244.0	371.0	0.0	0.0	0.0	0.0	0.0	0.0	null	null	null	null	null	null	null	null	null	null	null	null	null	null	null	null	null	null	null	
Sat Jun 03 00:01:00 UTC 2017	117.0	null	1907698.375	null	null	29783.81640625	null	null	4722.1533203125	null	null	null	null	287972.3125	null	0.10074999928474426	0.05925000086426735	0.06825000047683716	0.9827499985694885	0.703825831413269	100.0	244.0	371.0	0.0	0.0	0.0	0.0	0.0	0.0	null	null	null	null	null	null	null	null	null	null	null	null	null	null	null	null	null	null	null	
Sat Jun 03 00:00:00 UTC 2017	86.0	null	1748071.375	null	null	24947.76171875	null	null	4722.1533203125	null	null	null	null	261133.203125	null	0.07275000214576721	0.0560000017285347	0.0677499994635582	0.9832500219345093	0.7059736847877502	50.0	244.0	371.0	0.0	0.0	0.0	0.0	0.0	0.0	null	null	null	null	null	null	null	null	null	null	null	null	null	null	null	null	null	null	null	
Fri Jun 02 23:59:00 UTC 2017	82.0	null	1236602.25	null	null	11959.7392578125	null	null	4722.1533203125	null	null	null	null	143572.5625	null	0.06599999964237213	0.05999999865889549	0.06300000101327896	0.9852499961853027	0.7032455205917358	50.0	244.0	371.0	0.0	0.0	0.0	0.0	0.0	0.0	null	null	null	null	null	null	null	null	null	null	null	null	null	null	null	null	null	null	null	
Fri Jun 02 23:58:00 UTC 2017	59.0	null	892701.6875	null	null	11959.7392578125	null	null	2375.75244140625	null	null	null	null	143572.5625	null	0.07374999672174454	0.05274999886751175	0.06224999949336052	0.9867500066757202	0.7030385732650757	50.0	244.0	371.0	0.0	0.0	0.0	0.0	0.0	0.0	null	null	null	null	null	null	null	null	null	null	null	null	null	null	null	null	null	null	null	
Fri Jun 02 23:57:00 UTC 2017	45.0	null	831173.4375	null	null	11959.7392578125	null	null	2375.75244140625	null	null	null	null	115027.90625	null	0.07800000160932541	0.05400000140070915	0.05999999865889549	0.9869999885559082	0.7029216289520264	20.0	244.0	371.0	0.0	0.0	0.0	0.0	0.0	0.0	null	null	null	null	null	null	null	null	null	null	null	null	null	null	null	null	null	null	null	
Fri Jun 02 23:56:00 UTC 2017	41.0	null	112727.984375	null	null	6048.8349609375	null	null	1203.2720947265625	null	null	null	null	68226.0625	144178.515625	0.06700000166893005	0.05350000038743019	0.05324999988079071	0.9879999756813049	0.7028805613517761	20.0	244.0	371.0	0.0	0.0	0.0	0.0	0.0	0.0	null	null	null	null	null	null	null	null	null	null	null	null	null	null	null	null	null	null	null	
Fri Jun 02 23:55:00 UTC 2017	32.0	null	112727.984375	null	null	6048.8349609375	null	null	1203.2720947265625	null	null	null	null	60737.2890625	144178.515625	0.07249999791383743	0.057999998331069946	0.05249999836087227	0.9892500042915344	0.7028032541275024	20.0	244.0	371.0	0.0	0.0	0.0	0.0	0.0	0.0	null	null	null	null	null	null	null	null	null	null	null	null	null	null	null	null	null	null	null	
Fri Jun 02 23:54:00 UTC 2017	25.0	null	112727.984375	null	null	6048.8349609375	null	null	1029.491943359375	null	null	null	null	53636.609375	117152.390625	0.0820000022649765	0.05299999937415123	0.050999999046325684	0.9894999861717224	0.7047011256217957	10.0	244.0	371.0	0.0	0.0	0.0	0.0	0.0	0.0	null	null	null	null	null	null	null	null	null	null	null	null	null	null	null	null	null	null	null	
Fri Jun 02 23:53:00 UTC 2017	21.0	null	112727.984375	null	null	2932.071044921875	null	null	1029.491943359375	null	null	null	null	38968.5078125	46710.3046875	0.07625000178813934	0.04975000023841858	0.054749999195337296	0.9900000095367432	0.7047162652015686	10.0	244.0	371.0	0.0	0.0	0.0	0.0	0.0	0.0	null	null	null	null	null	null	null	null	null	null	null	null	null	null	null	null	null	null	null	
Fri Jun 02 23:52:00 UTC 2017	16.0	null	112727.984375	null	null	2932.071044921875	null	null	612.7193603515625	null	null	null	null	38968.5078125	46710.3046875	0.06624999642372131	0.04749999940395355	0.0494999997317791	0.9902499914169312	0.7024783492088318	10.0	244.0	371.0	0.0	0.0	0.0	0.0	0.0	0.0	null	null	null	null	null	null	null	null	null	null	null	null	null	null	null	null	null	null	null	
Fri Jun 02 23:51:00 UTC 2017	11.0	null	112727.984375	null	null	425.210693359375	null	null	379.2178039550781	null	null	null	null	47204.65234375	null	0.0949999988079071	0.05324999988079071	0.04749999940395355	0.9900000095367432	0.7024357914924622	5.0	244.0	371.0	0.0	0.0	0.0	0.0	0.0	0.0	null	null	null	null	null	null	null	null	null	null	null	null	null	null	null	null	null	null	null	
Fri Jun 02 23:50:00 UTC 2017	13.0	null	112727.984375	null	null	425.210693359375	null	null	379.2178039550781	null	null	null	null	0.0	0.0	0.0820000022649765	0.05025000125169754	0.052000001072883606	0.9904999732971191	0.7023717164993286	5.0	244.0	371.0	0.0	0.0	0.0	0.0	0.0	0.0	null	null	null	null	null	null	null	null	null	null	null	null	null	null	null	null	null	null	null	
Fri Jun 02 23:49:00 UTC 2017	9.0	null	82686.2578125	null	null	425.210693359375	null	null	379.2178039550781	null	null	null	null	0.0	0.0	0.07699999958276749	0.051500000059604645	0.04374999925494194	0.9909999966621399	0.70238196849823	5.0	244.0	371.0	0.0	0.0	0.0	0.0	0.0	0.0	null	null	null	null	null	null	null	null	null	null	null	null	null	null	null	null	null	null	null	
Fri Jun 02 23:48:00 UTC 2017	5.0	null	82686.2578125	null	null	425.210693359375	null	null	379.2178039550781	null	null	null	null	0.0	0.0	0.06949999928474426	0.04774999991059303	0.051249999552965164	0.9907500147819519	0.7023418545722961	3.0	244.0	371.0	0.0	0.0	0.0	0.0	0.0	0.0	null	null	null	null	null	null	null	null	null	null	null	null	null	null	null	null	null	null	null	
Fri Jun 02 23:47:00 UTC 2017	5.0	null	27701.642578125	null	null	425.210693359375	null	null	21344.720703125	null	null	null	null	0.0	0.0	0.07374999672174454	0.0560000017285347	0.04924999922513962	0.9904999732971191	0.7023296356201172	3.0	244.0	371.0	0.0	0.0	0.0	0.0	0.0	0.0	null	null	null	null	null	null	null	null	null	null	null	null	null	null	null	null	null	null	null	
Fri Jun 02 23:46:00 UTC 2017	3.0	null	281146.59375	null	null	39.12764358520508	null	null	21344.720703125	null	null	null	null	0.0	0.0	0.07575000077486038	0.05974999815225601	0.0767500028014183	0.9887499809265137	0.7045998573303223	3.0	244.0	371.0	0.0	0.0	0.0	0.0	0.0	0.0	null	null	null	null	null	null	null	null	null	null	null	null	null	null	null	null	null	null	null	
Fri Jun 02 23:45:00 UTC 2017	1.0	null	7956190.5	null	null	127051.7578125	null	null	21344.720703125	null	null	null	null	1520008.25	1485639.875	0.0807500034570694	0.13950000703334808	0.14875000715255737	0.9587500095367432	0.7023183703422546	0.0	244.0	371.0	0.0	0.0	0.0	0.0	0.0	0.0	null	null	null	null	null	null	null	null	null	null	null	null	null	null	null	null	null	null	null	
Fri Jun 02 23:44:00 UTC 2017	352.0	null	7956190.5	null	null	127051.7578125	null	null	21344.720703125	null	null	null	null	1377600.5	1556033.25	0.0729999989271164	0.1302500069141388	0.15125000476837158	0.9585000276565552	0.7022562026977539	0.0	244.0	371.0	0.0	0.0	0.0	0.0	0.0	0.0	null	null	null	null	null	null	null	null	null	null	null	null	null	null	null	null	null	null	null	
Fri Jun 02 23:43:00 UTC 2017	371.0	null	7974287.0	null	null	127051.7578125	null	null	21344.720703125	null	null	null	null	1377600.5	1556033.25	0.07249999791383743	0.1404999941587448	0.15449999272823334	0.9585000276565552	0.7041364908218384	600.0	244.0	371.0	0.0	0.0	0.0	0.0	0.0	0.0	null	null	null	null	null	null	null	null	null	null	null	null	null	null	null	null	null	null	null	
Fri Jun 02 23:42:00 UTC 2017	355.0	null	7974287.0	null	null	127051.7578125	null	null	21344.720703125	null	null	null	null	1377600.5	1556033.25	0.07625000178813934	0.13324999809265137	0.15549999475479126	0.9587500095367432	0.7016984820365906	600.0	244.0	371.0	0.0	0.0	0.0	0.0	0.0	0.0	null	null	null	null	null	null	null	null	null	null	null	null	null	null	null	null	null	null	null	
Fri Jun 02 23:41:00 UTC 2017	366.0	null	7800415.0	null	null	131525.640625	null	null	21344.720703125	null	null	null	null	1377600.5	1556033.25	0.09624999761581421	0.12700000405311584	0.15399999916553497	0.9582499861717224	0.7014783024787903	600.0	244.0	371.0	0.0	0.0	0.0	0.0	0.0	0.0	null	null	null	null	null	null	null	null	null	null	null	null	null	null	null	null	null	null	null	
Fri Jun 02 23:40:00 UTC 2017	358.0	null	7800415.0	null	null	131525.640625	null	null	21754.427734375	null	null	null	null	1486069.75	1646700.125	0.0820000022649765	0.13199999928474426	0.15449999272823334	0.9582499861717224	0.7013089656829834	500.0	244.0	371.0	0.0	0.0	0.0	0.0	0.0	0.0	null	null	null	null	null	null	null	null	null	null	null	null	null	null	null	null	null	null	null	
Fri Jun 02 23:39:00 UTC 2017	355.0	null	8037212.0	null	null	131525.640625	null	null	20258.517578125	null	null	null	null	1709554.875	null	0.06525000184774399	0.11599999666213989	0.14274999499320984	0.9587500095367432	0.701113760471344	500.0	244.0	371.0	0.0	0.0	0.0	0.0	0.0	0.0	null	null	null	null	null	null	null	null	null	null	null	null	null	null	null	null	null	null	null	
Fri Jun 02 23:38:00 UTC 2017	366.0	null	8099395.0	null	null	118857.9296875	null	null	20258.517578125	null	null	null	null	1709554.875	null	0.08425000309944153	0.12524999678134918	0.14425000548362732	0.9587500095367432	0.7009249329566956	500.0	244.0	371.0	0.0	0.0	0.0	0.0	0.0	0.0	null	null	null	null	null	null	null	null	null	null	null	null	null	null	null	null	null	null	null	
Fri Jun 02 23:37:00 UTC 2017	373.0	null	8099395.0	null	null	118857.9296875	null	null	20485.443359375	null	null	null	null	1560810.5	null	0.07374999672174454	0.12174999713897705	0.14624999463558197	0.9512500166893005	0.7008735537528992	400.0	244.0	371.0	0.0	0.0	0.0	0.0	0.0	0.0	null	null	null	null	null	null	null	null	null	null	null	null	null	null	null	null	null	null	null	
Fri Jun 02 23:36:00 UTC 2017	377.0	null	7643992.0	null	null	118857.9296875	null	null	17187.1171875	null	null	null	null	1560810.5	null	0.07000000029802322	0.11349999904632568	0.13050000369548798	0.9612500071525574	0.7005917429924011	400.0	244.0	371.0	0.0	0.0	0.0	0.0	0.0	0.0	null	null	null	null	null	null	null	null	null	null	null	null	null	null	null	null	null	null	null	
Fri Jun 02 23:35:00 UTC 2017	360.0	null	7643992.0	null	null	118857.9296875	null	null	17304.736328125	null	null	null	null	1560810.5	null	0.07000000029802322	0.11150000244379044	0.1340000033378601	0.9582499861717224	0.7024974226951599	400.0	244.0	371.0	0.0	0.0	0.0	0.0	0.0	0.0	null	null	null	null	null	null	null	null	null	null	null	null	null	null	null	null	null	null	null	
Fri Jun 02 23:34:00 UTC 2017	351.0	null	7921479.0	null	null	118857.9296875	null	null	20772.478515625	null	null	null	null	1560810.5	null	0.07474999874830246	0.11050000041723251	0.1420000046491623	0.9605000019073486	0.7000554800033569	350.0	244.0	371.0	0.0	0.0	0.0	0.0	0.0	0.0	null	null	null	null	null	null	null	null	null	null	null	null	null	null	null	null	null	null	null	
Fri Jun 02 23:33:00 UTC 2017	363.0	null	7921479.0	null	null	118857.9296875	null	null	19457.73046875	null	null	null	null	1560810.5	null	0.07374999672174454	0.11174999922513962	0.12974999845027924	0.9580000042915344	0.6997276544570923	350.0	244.0	371.0	0.0	0.0	0.0	0.0	0.0	0.0	null	null	null	null	null	null	null	null	null	null	null	null	null	null	null	null	null	null	null	
Fri Jun 02 23:32:00 UTC 2017	364.0	null	7868388.5	null	null	118857.9296875	null	null	20770.7421875	null	null	null	null	1560810.5	null	0.07900000363588333	0.10000000149011612	0.13124999403953552	0.9614999890327454	0.7017096877098083	350.0	244.0	371.0	0.0	0.0	0.0	0.0	0.0	0.0	null	null	null	null	null	null	null	null	null	null	null	null	null	null	null	null	null	null	null	
Fri Jun 02 23:31:00 UTC 2017	357.0	null	7868991.5	null	null	121665.6640625	null	null	20770.7421875	null	null	null	null	1588704.625	1737755.625	0.09674999862909317	0.10700000077486038	0.13500000536441803	0.9559999704360962	0.6988651156425476	300.0	244.0	371.0	0.0	0.0	0.0	0.0	0.0	0.0	null	null	null	null	null	null	null	null	null	null	null	null	null	null	null	null	null	null	null	
Fri Jun 02 23:30:00 UTC 2017	360.0	null	7868991.5	null	null	126061.515625	null	null	18635.130859375	null	null	null	null	1588704.625	1737755.625	0.07500000298023224	0.09624999761581421	0.1277499943971634	0.9570000171661377	0.698731541633606	300.0	244.0	371.0	0.0	0.0	0.0	0.0	0.0	0.0	null	null	null	null	null	null	null	null	null	null	null	null	null	null	null	null	null	null	null	
Fri Jun 02 23:29:00 UTC 2017	358.0	null	7868991.5	null	null	117844.53125	null	null	19425.578125	null	null	null	null	1588704.625	1737755.625	0.06350000202655792	0.09525000303983688	0.12950000166893005	0.9552500247955322	0.6984990835189819	300.0	244.0	371.0	0.0	0.0	0.0	0.0	0.0	0.0	null	null	null	null	null	null	null	null	null	null	null	null	null	null	null	null	null	null	null	
Fri Jun 02 23:28:00 UTC 2017	354.0	null	7868991.5	null	null	95461.3203125	null	null	22139.794921875	null	null	null	null	1588704.625	1737755.625	0.0754999965429306	0.09324999898672104	0.13199999928474426	0.956250011920929	0.6982921361923218	250.0	244.0	371.0	0.0	0.0	0.0	0.0	0.0	0.0	null	null	null	null	null	null	null	null	null	null	null	null	null	null	null	null	null	null	null	
Fri Jun 02 23:27:00 UTC 2017	388.0	null	7868991.5	null	null	95461.3203125	null	null	19099.28515625	null	null	null	null	1583018.5	1609714.375	0.07124999910593033	0.09274999797344208	0.1274999976158142	0.953249990940094	0.6996699571609497	250.0	244.0	371.0	0.0	0.0	0.0	0.0	0.0	0.0	null	null	null	null	null	null	null	null	null	null	null	null	null	null	null	null	null	null	null	
Fri Jun 02 23:26:00 UTC 2017	361.0	null	5766701.0	null	null	95461.3203125	null	null	19099.28515625	null	null	null	null	1414153.375	1484248.125	0.07349999994039536	0.08649999648332596	0.12349999696016312	0.9605000019073486	0.6989423632621765	250.0	244.0	371.0	0.0	0.0	0.0	0.0	0.0	0.0	null	null	null	null	null	null	null	null	null	null	null	null	null	null	null	null	null	null	null	
Fri Jun 02 23:25:00 UTC 2017	343.0	null	5766701.0	null	null	95461.3203125	null	null	17406.109375	null	null	null	null	1198995.0	1270925.0	0.0820000022649765	0.08500000089406967	0.11949999630451202	0.9642500281333923	0.7004640102386475	200.0	244.0	371.0	0.0	0.0	0.0	0.0	0.0	0.0	null	null	null	null	null	null	null	null	null	null	null	null	null	null	null	null	null	null	null	
Fri Jun 02 23:24:00 UTC 2017	281.0	null	5766701.0	null	null	92705.203125	null	null	15890.0830078125	null	null	null	null	1047293.8125	1068121.125	0.07249999791383743	0.07850000262260437	0.1107499971985817	0.965499997138977	0.697945237159729	200.0	244.0	371.0	0.0	0.0	0.0	0.0	0.0	0.0	null	null	null	null	null	null	null	null	null	null	null	null	null	null	null	null	null	null	null	
Fri Jun 02 23:23:00 UTC 2017	286.0	null	5766701.0	null	null	72547.4609375	null	null	15890.0830078125	null	null	null	null	1047293.8125	1068121.125	0.06624999642372131	0.07150000333786011	0.10700000077486038	0.9664999842643738	0.6979241967201233	200.0	244.0	371.0	0.0	0.0	0.0	0.0	0.0	0.0	null	null	null	null	null	null	null	null	null	null	null	null	null	null	null	null	null	null	null	
Fri Jun 02 23:22:00 UTC 2017	262.0	null	5224454.5	null	null	72547.4609375	null	null	15636.333984375	null	null	null	null	1047293.8125	1068121.125	0.07249999791383743	0.07450000196695328	0.10899999737739563	0.968500018119812	0.7000192999839783	150.0	244.0	371.0	0.0	0.0	0.0	0.0	0.0	0.0	null	null	null	null	null	null	null	null	null	null	null	null	null	null	null	null	null	null	null	
Fri Jun 02 23:21:00 UTC 2017	243.0	null	2907695.5	null	null	52625.38671875	null	null	11214.5234375	null	null	null	null	787368.625	748686.0	0.09700000286102295	0.07225000113248825	0.09125000238418579	0.9725000262260437	0.6975210309028625	150.0	244.0	371.0	0.0	0.0	0.0	0.0	0.0	0.0	null	null	null	null	null	null	null	null	null	null	null	null	null	null	null	null	null	null	null	
Fri Jun 02 23:20:00 UTC 2017	179.0	null	2907695.5	null	null	52625.38671875	null	null	9795.1474609375	null	null	null	null	525469.0625	610681.0625	0.06724999845027924	0.06750000268220901	0.09075000137090683	0.9760000109672546	0.6973488330841064	150.0	244.0	371.0	0.0	0.0	0.0	0.0	0.0	0.0	null	null	null	null	null	null	null	null	null	null	null	null	null	null	null	null	null	null	null	
Fri Jun 02 23:19:00 UTC 2017	164.0	null	2907695.5	null	null	26391.34765625	null	null	10258.8427734375	null	null	null	null	525469.0625	610681.0625	0.08049999922513962	0.06949999928474426	0.08574999868869781	0.9787499904632568	0.6995960474014282	100.0	244.0	371.0	0.0	0.0	0.0	0.0	0.0	0.0	null	null	null	null	null	null	null	null	null	null	null	null	null	null	null	null	null	null	null	
Fri Jun 02 23:18:00 UTC 2017	141.0	null	2172676.5	null	null	26391.34765625	null	null	5634.6591796875	null	null	null	null	377587.6875	436689.75	0.07000000029802322	0.06024999916553497	0.07699999958276749	0.9825000166893005	0.6970484256744385	100.0	244.0	371.0	0.0	0.0	0.0	0.0	0.0	0.0	null	null	null	null	null	null	null	null	null	null	null	null	null	null	null	null	null	null	null	
Fri Jun 02 23:17:00 UTC 2017	93.0	null	1483426.75	null	null	26391.34765625	null	null	5634.6591796875	null	null	null	null	377587.6875	436689.75	0.06724999845027924	0.057999998331069946	0.06975000351667404	0.9829999804496765	0.6968923211097717	100.0	244.0	371.0	0.0	0.0	0.0	0.0	0.0	0.0	null	null	null	null	null	null	null	null	null	null	null	null	null	null	null	null	null	null	null	
Fri Jun 02 23:16:00 UTC 2017	93.0	null	1483426.75	null	null	22755.982421875	null	null	6222.94189453125	null	null	null	null	269749.59375	null	0.0742499977350235	0.0560000017285347	0.07249999791383743	0.9832500219345093	0.6989903450012207	50.0	244.0	371.0	0.0	0.0	0.0	0.0	0.0	0.0	null	null	null	null	null	null	null	null	null	null	null	null	null	null	null	null	null	null	null	
Fri Jun 02 23:15:00 UTC 2017	81.0	null	493955.5625	null	null	11364.0546875	null	null	2466.478515625	null	null	null	null	115391.7109375	186162.75	0.07325000315904617	0.05350000038743019	0.060750000178813934	0.9869999885559082	0.6964104175567627	50.0	244.0	371.0	0.0	0.0	0.0	0.0	0.0	0.0	null	null	null	null	null	null	null	null	null	null	null	null	null	null	null	null	null	null	null	
Fri Jun 02 23:14:00 UTC 2017	38.0	null	493955.5625	null	null	9479.236328125	null	null	1216.2457275390625	null	null	null	null	108078.4296875	106349.609375	0.07175000011920929	0.0572500005364418	0.05900000035762787	0.9872499704360962	0.6963580846786499	50.0	244.0	371.0	0.0	0.0	0.0	0.0	0.0	0.0	null	null	null	null	null	null	null	null	null	null	null	null	null	null	null	null	null	null	null	
Fri Jun 02 23:13:00 UTC 2017	37.0	null	493955.5625	null	null	9479.236328125	null	null	1216.2457275390625	null	null	null	null	108078.4296875	106349.609375	0.07975000143051147	0.05649999901652336	0.054749999195337296	0.9882500171661377	0.6962293982505798	20.0	244.0	371.0	0.0	0.0	0.0	0.0	0.0	0.0	null	null	null	null	null	null	null	null	null	null	null	null	null	null	null	null	null	null	null	
Fri Jun 02 23:12:00 UTC 2017	33.0	null	493955.5625	null	null	7262.99462890625	null	null	1216.2457275390625	null	null	null	null	80359.2734375	75827.6328125	0.06849999725818634	0.05225000157952309	0.050999999046325684	0.9892500042915344	0.6960595846176147	20.0	244.0	371.0	0.0	0.0	0.0	0.0	0.0	0.0	null	null	null	null	null	null	null	null	null	null	null	null	null	null	null	null	null	null	null	
Fri Jun 02 23:11:00 UTC 2017	24.0	null	353635.34375	null	null	4253.33984375	null	null	587.1776123046875	null	null	null	null	80359.2734375	75827.6328125	0.10125000029802322	0.05550000071525574	0.05000000074505806	0.9892500042915344	0.6959534287452698	20.0	244.0	371.0	0.0	0.0	0.0	0.0	0.0	0.0	null	null	null	null	null	null	null	null	null	null	null	null	null	null	null	null	null	null	null	
Fri Jun 02 23:10:00 UTC 2017	23.0	null	353635.34375	null	null	4253.33984375	null	null	587.1776123046875	null	null	null	null	57071.875	75827.6328125	0.07349999994039536	0.05274999886751175	0.05649999901652336	0.9892500042915344	0.695857048034668	10.0	244.0	371.0	0.0	0.0	0.0	0.0	0.0	0.0	null	null	null	null	null	null	null	null	null	null	null	null	null	null	null	null	null	null	null	
Fri Jun 02 23:09:00 UTC 2017	19.0	null	256422.90625	null	null	3369.663818359375	null	null	587.1776123046875	null	null	null	null	20556.658203125	49081.29296875	0.06825000047683716	0.04899999871850014	0.051500000059604645	0.9902499914169312	0.6957293748855591	10.0	244.0	371.0	0.0	0.0	0.0	0.0	0.0	0.0	null	null	null	null	null	null	null	null	null	null	null	null	null	null	null	null	null	null	null	
Fri Jun 02 23:08:00 UTC 2017	14.0	null	215019.453125	null	null	2961.776611328125	null	null	638.5176391601562	null	null	null	null	20556.658203125	49081.29296875	0.07724999636411667	0.054249998182058334	0.051750000566244125	0.9900000095367432	0.6956853270530701	10.0	244.0	371.0	0.0	0.0	0.0	0.0	0.0	0.0	null	null	null	null	null	null	null	null	null	null	null	null	null	null	null	null	null	null	null	
Fri Jun 02 23:07:00 UTC 2017	12.0	null	206014.21875	null	null	129.21849060058594	null	null	637.7138061523438	null	null	null	null	20556.658203125	49081.29296875	0.07124999910593033	0.04749999940395355	0.04724999889731407	0.9904999732971191	0.695603609085083	5.0	244.0	371.0	0.0	0.0	0.0	0.0	0.0	0.0	null	null	null	null	null	null	null	null	null	null	null	null	null	null	null	null	null	null	null	
Fri Jun 02 23:06:00 UTC 2017	10.0	null	35114.4609375	null	null	129.21849060058594	null	null	367.2467956542969	null	null	null	null	1929.7020263671875	49081.29296875	0.08500000089406967	0.048250000923871994	0.0507499985396862	0.9909999966621399	0.6968453526496887	5.0	244.0	371.0	0.0	0.0	0.0	0.0	0.0	0.0	null	null	null	null	null	null	null	null	null	null	null	null	null	null	null	null	null	null	null	
Fri Jun 02 23:05:00 UTC 2017	7.0	null	35114.4609375	null	null	129.21849060058594	null	null	390.0099182128906	null	null	null	null	0.0	366.3540954589844	0.06525000184774399	0.05400000140070915	0.04500000178813934	0.9907500147819519	0.6955385208129883	5.0	244.0	371.0	0.0	0.0	0.0	0.0	0.0	0.0	null	null	null	null	null	null	null	null	null	null	null	null	null	null	null	null	null	null	null	
Fri Jun 02 23:04:00 UTC 2017	6.0	null	35114.4609375	null	null	129.21849060058594	null	null	431.5159606933594	null	null	null	null	0.0	366.3540954589844	0.07649999856948853	0.048250000923871994	0.048250000923871994	0.9904999732971191	0.6978610754013062	3.0	244.0	371.0	0.0	0.0	0.0	0.0	0.0	0.0	null	null	null	null	null	null	null	null	null	null	null	null	null	null	null	null	null	null	null	
Fri Jun 02 23:03:00 UTC 2017	3.0	null	3471.80126953125	null	null	129.21849060058594	null	null	70.7098617553711	null	null	null	null	1474755.375	1444790.5	0.0702499970793724	0.05400000140070915	0.06475000083446503	0.9882500171661377	0.697845458984375	3.0	244.0	371.0	0.0	0.0	0.0	0.0	0.0	0.0	null	null	null	null	null	null	null	null	null	null	null	null	null	null	null	null	null	null	null	
Fri Jun 02 23:02:00 UTC 2017	1.0	null	3484561.25	null	null	50429.0	null	null	10877.2666015625	null	null	null	null	1474755.375	1444790.5	0.09300000220537186	0.08250000327825546	0.10625000298023224	0.9750000238418579	0.6955458521842957	3.0	244.0	371.0	0.0	0.0	0.0	0.0	0.0	0.0	null	null	null	null	null	null	null	null	null	null	null	null	null	null	null	null	null	null	null	
Fri Jun 02 23:01:00 UTC 2017	172.0	null	7601538.0	null	null	121248.65625	null	null	18543.689453125	null	null	null	null	1474755.375	1444790.5	0.09875000268220901	0.13625000417232513	0.15549999475479126	0.9567499756813049	0.6954543590545654	0.0	244.0	371.0	0.0	0.0	0.0	0.0	0.0	0.0	null	null	null	null	null	null	null	null	null	null	null	null	null	null	null	null	null	null	null	
Fri Jun 02 23:00:00 UTC 2017	356.0	null	7601538.0	null	null	121248.65625	null	null	18543.689453125	null	null	null	null	1716326.0	1430960.125	0.07575000077486038	0.13249999284744263	0.13950000703334808	0.9620000123977661	0.6953760981559753	600.0	244.0	371.0	0.0	0.0	0.0	0.0	0.0	0.0	null	null	null	null	null	null	null	null	null	null	null	null	null	null	null	null	null	null	null	
Fri Jun 02 22:59:00 UTC 2017	301.0	null	7601538.0	null	null	121248.65625	null	null	18543.689453125	null	null	null	null	1716326.0	1430960.125	0.07249999791383743	0.13975000381469727	0.15150000154972076	0.9620000123977661	0.6971340179443359	600.0	244.0	371.0	0.0	0.0	0.0	0.0	0.0	0.0	null	null	null	null	null	null	null	null	null	null	null	null	null	null	null	null	null	null	null	
Fri Jun 02 22:58:00 UTC 2017	359.0	null	7639685.5	null	null	121248.65625	null	null	18543.689453125	null	null	null	null	1716326.0	1430960.125	0.07524999976158142	0.1287499964237213	0.14425000548362732	0.9592499732971191	0.6944078207015991	600.0	244.0	371.0	0.0	0.0	0.0	0.0	0.0	0.0	null	null	null	null	null	null	null	null	null	null	null	null	null	null	null	null	null	null	null	
Fri Jun 02 22:57:00 UTC 2017	346.0	null	7939703.5	null	null	121248.65625	null	null	20996.28515625	null	null	null	null	1506870.5	1492179.5	0.07824999839067459	0.13574999570846558	0.15449999272823334	0.9574999809265137	0.693891167640686	500.0	244.0	371.0	0.0	0.0	0.0	0.0	0.0	0.0	null	null	null	null	null	null	null	null	null	null	null	null	null	null	null	null	null	null	null	
Fri Jun 02 22:56:00 UTC 2017	356.0	null	7939703.5	null	null	121248.65625	null	null	20982.517578125	null	null	null	null	1506870.5	1492179.5	0.06549999862909317	0.12974999845027924	0.14624999463558197	0.9574999809265137	0.6941215991973877	500.0	244.0	371.0	0.0	0.0	0.0	0.0	0.0	0.0	null	null	null	null	null	null	null	null	null	null	null	null	null	null	null	null	null	null	null	
Fri Jun 02 22:55:00 UTC 2017	377.0	null	7939703.5	null	null	137918.65625	null	null	20982.517578125	null	null	null	null	1506870.5	1492179.5	0.08025000244379044	0.11400000005960464	0.1457500010728836	0.9585000276565552	0.6933940649032593	500.0	244.0	371.0	0.0	0.0	0.0	0.0	0.0	0.0	null	null	null	null	null	null	null	null	null	null	null	null	null	null	null	null	null	null	null	
Fri Jun 02 22:54:00 UTC 2017	365.0	null	8047892.0	null	null	119871.7734375	null	null	18406.908203125	null	null	null	null	1699768.25	1492179.5	0.07450000196695328	0.12575000524520874	0.14749999344348907	0.9555000066757202	0.6931459903717041	400.0	244.0	371.0	0.0	0.0	0.0	0.0	0.0	0.0	null	null	null	null	null	null	null	null	null	null	null	null	null	null	null	null	null	null	null	
Fri Jun 02 22:53:00 UTC 2017	366.0	null	7474017.0	null	null	119871.7734375	null	null	18406.908203125	null	null	null	null	1539174.75	1434130.125	0.07450000196695328	0.1172500029206276	0.1379999965429306	0.9572499990463257	0.6956882476806641	400.0	244.0	371.0	0.0	0.0	0.0	0.0	0.0	0.0	null	null	null	null	null	null	null	null	null	null	null	null	null	null	null	null	null	null	null	
Fri Jun 02 22:52:00 UTC 2017	339.0	null	7456184.0	null	null	119871.7734375	null	null	18406.908203125	null	null	null	null	1533652.25	null	0.06575000286102295	0.11275000125169754	0.13449999690055847	0.956250011920929	0.6927604675292969	400.0	244.0	371.0	0.0	0.0	0.0	0.0	0.0	0.0	null	null	null	null	null	null	null	null	null	null	null	null	null	null	null	null	null	null	null	
Fri Jun 02 22:51:00 UTC 2017	350.0	null	7598160.5	null	null	126369.7734375	null	null	18406.908203125	null	null	null	null	1533652.25	null	0.10750000178813934	0.10649999976158142	0.13375000655651093	0.9595000147819519	0.6949166655540466	350.0	244.0	371.0	0.0	0.0	0.0	0.0	0.0	0.0	null	null	null	null	null	null	null	null	null	null	null	null	null	null	null	null	null	null	null	
Fri Jun 02 22:50:00 UTC 2017	355.0	null	7598160.5	null	null	126369.7734375	null	null	18406.908203125	null	null	null	null	1533652.25	null	0.07349999994039536	0.11249999701976776	0.13975000381469727	0.9599999785423279	0.6922129392623901	350.0	244.0	371.0	0.0	0.0	0.0	0.0	0.0	0.0	null	null	null	null	null	null	null	null	null	null	null	null	null	null	null	null	null	null	null	
Fri Jun 02 22:49:00 UTC 2017	357.0	null	8209714.0	null	null	126369.7734375	null	null	18406.908203125	null	null	null	null	1449111.75	null	0.06800000369548798	0.1054999977350235	0.13500000536441803	0.9582499861717224	0.6918504238128662	350.0	244.0	371.0	0.0	0.0	0.0	0.0	0.0	0.0	null	null	null	null	null	null	null	null	null	null	null	null	null	null	null	null	null	null	null	
Fri Jun 02 22:48:00 UTC 2017	363.0	null	8209714.0	null	null	129251.2734375	null	null	18406.908203125	null	null	null	null	1484738.875	null	0.07450000196695328	0.10999999940395355	0.1287499964237213	0.9599999785423279	0.6937527060508728	300.0	244.0	371.0	0.0	0.0	0.0	0.0	0.0	0.0	null	null	null	null	null	null	null	null	null	null	null	null	null	null	null	null	null	null	null	
Fri Jun 02 22:47:00 UTC 2017	343.0	null	8209714.0	null	null	124331.9765625	null	null	19575.2265625	null	null	null	null	1508637.25	null	0.07400000095367432	0.10249999910593033	0.13474999368190765	0.9589999914169312	0.6906507015228271	300.0	244.0	371.0	0.0	0.0	0.0	0.0	0.0	0.0	null	null	null	null	null	null	null	null	null	null	null	null	null	null	null	null	null	null	null	
Fri Jun 02 22:46:00 UTC 2017	366.0	null	7380307.5	null	null	124331.9765625	null	null	19575.2265625	null	null	null	null	1508637.25	null	0.0742499977350235	0.0989999994635582	0.12475000321865082	0.9587500095367432	0.6911678910255432	300.0	244.0	371.0	0.0	0.0	0.0	0.0	0.0	0.0	null	null	null	null	null	null	null	null	null	null	null	null	null	null	null	null	null	null	null	
Fri Jun 02 22:45:00 UTC 2017	374.0	null	7380307.5	null	null	124331.9765625	null	null	19575.2265625	null	null	null	null	1462182.125	1674621.0	0.07524999976158142	0.09700000286102295	0.12575000524520874	0.9589999914169312	0.6903679370880127	250.0	244.0	371.0	0.0	0.0	0.0	0.0	0.0	0.0	null	null	null	null	null	null	null	null	null	null	null	null	null	null	null	null	null	null	null	
Fri Jun 02 22:44:00 UTC 2017	365.0	null	7380307.5	null	null	124331.9765625	null	null	17156.4453125	null	null	null	null	1038765.25	1442747.5	0.0702499970793724	0.0860000029206276	0.12725000083446503	0.9585000276565552	0.6918430924415588	250.0	244.0	371.0	0.0	0.0	0.0	0.0	0.0	0.0	null	null	null	null	null	null	null	null	null	null	null	null	null	null	null	null	null	null	null	
Fri Jun 02 22:43:00 UTC 2017	357.0	null	6792982.0	null	null	88071.46875	null	null	17156.4453125	null	null	null	null	1038765.25	1442747.5	0.07225000113248825	0.09274999797344208	0.1172500029206276	0.9624999761581421	0.6897881627082825	250.0	244.0	371.0	0.0	0.0	0.0	0.0	0.0	0.0	null	null	null	null	null	null	null	null	null	null	null	null	null	null	null	null	null	null	null	
Fri Jun 02 22:42:00 UTC 2017	314.0	null	6792982.0	null	null	88071.46875	null	null	18034.359375	null	null	null	null	1038765.25	1442747.5	0.07774999737739563	0.0794999971985817	0.11999999731779099	0.9639999866485596	0.6896912455558777	200.0	244.0	371.0	0.0	0.0	0.0	0.0	0.0	0.0	null	null	null	null	null	null	null	null	null	null	null	null	null	null	null	null	null	null	null	
Fri Jun 02 22:41:00 UTC 2017	303.0	null	6002650.0	null	null	88071.46875	null	null	16290.0654296875	null	null	null	null	1038765.25	1442747.5	0.09650000184774399	0.08749999850988388	0.10975000262260437	0.9637500047683716	0.6917848587036133	200.0	244.0	371.0	0.0	0.0	0.0	0.0	0.0	0.0	null	null	null	null	null	null	null	null	null	null	null	null	null	null	null	null	null	null	null	
Fri Jun 02 22:40:00 UTC 2017	281.0	null	6377005.5	null	null	68217.5078125	null	null	12937.7021484375	null	null	null	null	1108954.5	1442747.5	0.07774999737739563	0.07750000059604645	0.11124999821186066	0.965749979019165	0.6893296837806702	200.0	244.0	371.0	0.0	0.0	0.0	0.0	0.0	0.0	null	null	null	null	null	null	null	null	null	null	null	null	null	null	null	null	null	null	null	
Fri Jun 02 22:39:00 UTC 2017	287.0	null	5884990.5	null	null	68217.5078125	null	null	12937.7021484375	null	null	null	null	983813.9375	null	0.06624999642372131	0.06875000149011612	0.10774999856948853	0.9672499895095825	0.6890923976898193	150.0	244.0	371.0	0.0	0.0	0.0	0.0	0.0	0.0	null	null	null	null	null	null	null	null	null	null	null	null	null	null	null	null	null	null	null	
Fri Jun 02 22:38:00 UTC 2017	272.0	null	4450397.0	null	null	68217.5078125	null	null	12937.7021484375	null	null	null	null	772969.0	null	0.07699999958276749	0.07649999856948853	0.09624999761581421	0.9707499742507935	0.6888174414634705	150.0	244.0	371.0	0.0	0.0	0.0	0.0	0.0	0.0	null	null	null	null	null	null	null	null	null	null	null	null	null	null	null	null	null	null	null	
Fri Jun 02 22:37:00 UTC 2017	215.0	null	4363043.5	null	null	68217.5078125	null	null	11342.2626953125	null	null	null	null	772969.0	null	0.0729999989271164	0.07050000131130219	0.09875000268220901	0.9729999899864197	0.6884998679161072	150.0	244.0	371.0	0.0	0.0	0.0	0.0	0.0	0.0	null	null	null	null	null	null	null	null	null	null	null	null	null	null	null	null	null	null	null	
Fri Jun 02 22:36:00 UTC 2017	201.0	null	3793615.0	null	null	30972.669921875	null	null	11456.6689453125	null	null	null	null	678539.8125	550424.375	0.07124999910593033	0.06750000268220901	0.08375000208616257	0.9747499823570251	0.6883188486099243	100.0	244.0	371.0	0.0	0.0	0.0	0.0	0.0	0.0	null	null	null	null	null	null	null	null	null	null	null	null	null	null	null	null	null	null	null	
Fri Jun 02 22:35:00 UTC 2017	182.0	null	1961569.125	null	null	30972.669921875	null	null	2541.39990234375	null	null	null	null	264779.09375	229170.90625	0.07874999940395355	0.061250001192092896	0.08375000208616257	0.9797499775886536	0.6904085278511047	100.0	244.0	371.0	0.0	0.0	0.0	0.0	0.0	0.0	null	null	null	null	null	null	null	null	null	null	null	null	null	null	null	null	null	null	null	
Fri Jun 02 22:34:00 UTC 2017	122.0	null	1961569.125	null	null	30972.669921875	null	null	2541.39990234375	null	null	null	null	264779.09375	229170.90625	0.061500001698732376	0.05700000002980232	0.0702499970793724	0.9819999933242798	0.688008189201355	100.0	244.0	371.0	0.0	0.0	0.0	0.0	0.0	0.0	null	null	null	null	null	null	null	null	null	null	null	null	null	null	null	null	null	null	null	
Fri Jun 02 22:33:00 UTC 2017	96.0	null	1128680.875	null	null	26576.380859375	null	null	2541.39990234375	null	null	null	null	264779.09375	229170.90625	0.07249999791383743	0.05849999934434891	0.06849999725818634	0.9817500114440918	0.6878770589828491	50.0	244.0	371.0	0.0	0.0	0.0	0.0	0.0	0.0	null	null	null	null	null	null	null	null	null	null	null	null	null	null	null	null	null	null	null	
Fri Jun 02 22:32:00 UTC 2017	85.0	null	1128680.875	null	null	15804.8876953125	null	null	2541.39990234375	null	null	null	null	264779.09375	229170.90625	0.07999999821186066	0.05525000020861626	0.06549999862909317	0.9819999933242798	0.687673032283783	50.0	244.0	371.0	0.0	0.0	0.0	0.0	0.0	0.0	null	null	null	null	null	null	null	null	null	null	null	null	null	null	null	null	null	null	null	
Fri Jun 02 22:31:00 UTC 2017	62.0	null	965419.875	null	null	10214.154296875	null	null	2541.39990234375	null	null	null	null	242205.53125	149251.015625	0.09200000017881393	0.05575000122189522	0.05874999985098839	0.9867500066757202	0.6875433325767517	50.0	244.0	371.0	0.0	0.0	0.0	0.0	0.0	0.0	null	null	null	null	null	null	null	null	null	null	null	null	null	null	null	null	null	null	null	
Fri Jun 02 22:30:00 UTC 2017	48.0	null	721150.9375	null	null	10214.154296875	null	null	1780.042236328125	null	null	null	null	0.0	null	0.07599999755620956	0.05649999901652336	0.04975000023841858	0.9879999756813049	0.689702033996582	20.0	244.0	371.0	0.0	0.0	0.0	0.0	0.0	0.0	null	null	null	null	null	null	null	null	null	null	null	null	null	null	null	null	null	null	null	
Fri Jun 02 22:29:00 UTC 2017	35.0	null	535432.3125	null	null	5640.8837890625	null	null	1780.042236328125	null	null	null	null	0.0	null	0.07625000178813934	0.04800000041723251	0.05400000140070915	0.9887499809265137	0.6872439384460449	20.0	244.0	371.0	0.0	0.0	0.0	0.0	0.0	0.0	null	null	null	null	null	null	null	null	null	null	null	null	null	null	null	null	null	null	null	
Fri Jun 02 22:28:00 UTC 2017	26.0	null	199669.171875	null	null	5640.8837890625	null	null	1228.7864990234375	null	null	null	null	0.0	null	0.07124999910593033	0.054749999195337296	0.051249999552965164	0.9894999861717224	0.6870051622390747	20.0	244.0	371.0	0.0	0.0	0.0	0.0	0.0	0.0	null	null	null	null	null	null	null	null	null	null	null	null	null	null	null	null	null	null	null	
Fri Jun 02 22:27:00 UTC 2017	22.0	null	199669.171875	null	null	2895.52001953125	null	null	1228.7864990234375	null	null	null	null	0.0	null	0.06949999928474426	0.04874999821186066	0.05225000157952309	0.9897500276565552	0.6868897080421448	10.0	244.0	371.0	0.0	0.0	0.0	0.0	0.0	0.0	null	null	null	null	null	null	null	null	null	null	null	null	null	null	null	null	null	null	null	
Fri Jun 02 22:26:00 UTC 2017	18.0	null	199669.171875	null	null	2895.52001953125	null	null	1113.037353515625	null	null	null	null	0.0	null	0.07625000178813934	0.057999998331069946	0.05700000002980232	0.9897500276565552	0.6891736388206482	10.0	244.0	371.0	0.0	0.0	0.0	0.0	0.0	0.0	null	null	null	null	null	null	null	null	null	null	null	null	null	null	null	null	null	null	null	
Fri Jun 02 22:25:00 UTC 2017	12.0	null	199669.171875	null	null	2895.52001953125	null	null	596.4064331054688	null	null	null	null	0.0	null	0.0625	0.04749999940395355	0.04675000160932541	0.9902499914169312	0.6868471503257751	10.0	244.0	371.0	0.0	0.0	0.0	0.0	0.0	0.0	null	null	null	null	null	null	null	null	null	null	null	null	null	null	null	null	null	null	null	
Fri Jun 02 22:24:00 UTC 2017	10.0	null	234772.28125	null	null	2895.52001953125	null	null	391.95330810546875	null	null	null	null	0.0	null	0.08250000327825546	0.05700000002980232	0.04924999922513962	0.9902499914169312	0.6867913603782654	5.0	244.0	371.0	0.0	0.0	0.0	0.0	0.0	0.0	null	null	null	null	null	null	null	null	null	null	null	null	null	null	null	null	null	null	null	
Fri Jun 02 22:23:00 UTC 2017	12.0	null	121792.8671875	null	null	1623.8953857421875	null	null	391.95330810546875	null	null	null	null	0.0	null	0.07050000131130219	0.04975000023841858	0.08624999970197678	0.9907500147819519	0.6890209317207336	5.0	244.0	371.0	0.0	0.0	0.0	0.0	0.0	0.0	null	null	null	null	null	null	null	null	null	null	null	null	null	null	null	null	null	null	null	
Fri Jun 02 22:22:00 UTC 2017	8.0	null	121792.8671875	null	null	1623.8953857421875	null	null	391.95330810546875	null	null	null	null	0.0	null	0.07074999809265137	0.05249999836087227	0.05249999836087227	0.9904999732971191	0.6867947578430176	5.0	244.0	371.0	0.0	0.0	0.0	0.0	0.0	0.0	null	null	null	null	null	null	null	null	null	null	null	null	null	null	null	null	null	null	null	
Fri Jun 02 22:21:00 UTC 2017	9.0	null	104700.8671875	null	null	105015.1796875	null	null	391.95330810546875	null	null	null	null	0.0	null	0.09700000286102295	0.04475000128149986	0.04699999839067459	0.9904999732971191	0.6867947578430176	3.0	244.0	371.0	0.0	0.0	0.0	0.0	0.0	0.0	null	null	null	null	null	null	null	null	null	null	null	null	null	null	null	null	null	null	null	
Fri Jun 02 22:20:00 UTC 2017	7.0	null	3192.257568359375	null	null	105015.1796875	null	null	18844.845703125	null	null	null	null	0.0	null	0.06875000149011612	0.051500000059604645	0.05025000125169754	0.9897500276565552	0.6867830157279968	3.0	244.0	371.0	0.0	0.0	0.0	0.0	0.0	0.0	null	null	null	null	null	null	null	null	null	null	null	null	null	null	null	null	null	null	null	
Fri Jun 02 22:19:00 UTC 2017	3.0	null	3192.257568359375	null	null	105015.1796875	null	null	18844.845703125	null	null	null	null	0.0	null	0.07575000077486038	0.05400000140070915	0.07699999958276749	0.9912499785423279	0.6890004277229309	3.0	244.0	371.0	0.0	0.0	0.0	0.0	0.0	0.0	null	null	null	null	null	null	null	null	null	null	null	null	null	null	null	null	null	null	null	
Fri Jun 02 22:18:00 UTC 2017	0.0	null	7233171.0	null	null	105015.1796875	null	null	18844.845703125	null	null	null	null	1569703.125	null	0.08299999684095383	0.14000000059604645	0.14350000023841858	0.9622499942779541	0.6866925358772278	0.0	244.0	371.0	0.0	0.0	0.0	0.0	0.0	0.0	null	null	null	null	null	null	null	null	null	null	null	null	null	null	null	null	null	null	null	
Fri Jun 02 22:17:00 UTC 2017	314.0	null	7233171.0	null	null	124933.03125	null	null	23262.89453125	null	null	null	null	1569703.125	null	0.07275000214576721	0.1352500021457672	0.15625	0.9567499756813049	0.6889064908027649	0.0	244.0	371.0	0.0	0.0	0.0	0.0	0.0	0.0	null	null	null	null	null	null	null	null	null	null	null	null	null	null	null	null	null	null	null	
Fri Jun 02 22:16:00 UTC 2017	368.0	null	7233171.0	null	null	116580.734375	null	null	20756.15234375	null	null	null	null	1632268.875	1245911.375	0.08124999701976776	0.13324999809265137	0.15850000083446503	0.9555000066757202	0.6887235045433044	600.0	244.0	371.0	0.0	0.0	0.0	0.0	0.0	0.0	null	null	null	null	null	null	null	null	null	null	null	null	null	null	null	null	null	null	null	
Fri Jun 02 22:15:00 UTC 2017	353.0	null	7233171.0	null	null	116580.734375	null	null	20756.15234375	null	null	null	null	1632268.875	1245911.375	0.06825000047683716	0.1302500069141388	0.15174999833106995	0.9595000147819519	0.6861161589622498	600.0	244.0	371.0	0.0	0.0	0.0	0.0	0.0	0.0	null	null	null	null	null	null	null	null	null	null	null	null	null	null	null	null	null	null	null	
Fri Jun 02 22:14:00 UTC 2017	345.0	null	7233171.0	null	null	116580.734375	null	null	19461.775390625	null	null	null	null	1632268.875	1245911.375	0.07400000095367432	0.13725000619888306	0.15324999392032623	0.9472500085830688	0.6860344409942627	600.0	244.0	371.0	0.0	0.0	0.0	0.0	0.0	0.0	null	null	null	null	null	null	null	null	null	null	null	null	null	null	null	null	null	null	null	
Fri Jun 02 22:13:00 UTC 2017	350.0	null	7263808.5	null	null	116580.734375	null	null	19461.775390625	null	null	null	null	1482619.125	1373511.375	0.0754999965429306	0.13099999725818634	0.14675000309944153	0.9620000123977661	0.6858475208282471	500.0	244.0	371.0	0.0	0.0	0.0	0.0	0.0	0.0	null	null	null	null	null	null	null	null	null	null	null	null	null	null	null	null	null	null	null	
Fri Jun 02 22:12:00 UTC 2017	320.0	null	8024853.5	null	null	122006.6171875	null	null	20559.62890625	null	null	null	null	1548550.875	1595822.375	0.07175000011920929	0.13050000369548798	0.14675000309944153	0.9587500095367432	0.6861479878425598	500.0	244.0	371.0	0.0	0.0	0.0	0.0	0.0	0.0	null	null	null	null	null	null	null	null	null	null	null	null	null	null	null	null	null	null	null	
Fri Jun 02 22:11:00 UTC 2017	370.0	null	8024853.5	null	null	122006.6171875	null	null	20559.62890625	null	null	null	null	1548550.875	1595822.375	0.09375	0.12025000154972076	0.1522500067949295	0.9595000147819519	0.6852936744689941	500.0	244.0	371.0	0.0	0.0	0.0	0.0	0.0	0.0	null	null	null	null	null	null	null	null	null	null	null	null	null	null	null	null	null	null	null	
Fri Jun 02 22:10:00 UTC 2017	353.0	null	7128802.5	null	null	122006.6171875	null	null	20559.62890625	null	null	null	null	1548550.875	1595822.375	0.06875000149011612	0.11500000208616257	0.1420000046491623	0.9597499966621399	0.6850906610488892	400.0	244.0	371.0	0.0	0.0	0.0	0.0	0.0	0.0	null	null	null	null	null	null	null	null	null	null	null	null	null	null	null	null	null	null	null	
Fri Jun 02 22:09:00 UTC 2017	360.0	null	7128802.5	null	null	118745.1640625	null	null	20202.9765625	null	null	null	null	1548550.875	1595822.375	0.08049999922513962	0.11699999868869781	0.14249999821186066	0.9577500224113464	0.6845504641532898	400.0	244.0	371.0	0.0	0.0	0.0	0.0	0.0	0.0	null	null	null	null	null	null	null	null	null	null	null	null	null	null	null	null	null	null	null	
Fri Jun 02 22:08:00 UTC 2017	365.0	null	7128802.5	null	null	126578.1328125	null	null	20389.345703125	null	null	null	null	1496977.875	1637187.0	0.07824999839067459	0.10774999856948853	0.13050000369548798	0.9599999785423279	0.6843210458755493	400.0	244.0	371.0	0.0	0.0	0.0	0.0	0.0	0.0	null	null	null	null	null	null	null	null	null	null	null	null	null	null	null	null	null	null	null	
Fri Jun 02 22:07:00 UTC 2017	343.0	null	8075299.5	null	null	126578.1328125	null	null	20389.345703125	null	null	null	null	1496977.875	1637187.0	0.07474999874830246	0.11599999666213989	0.13975000381469727	0.9505000114440918	0.6841121315956116	350.0	244.0	371.0	0.0	0.0	0.0	0.0	0.0	0.0	null	null	null	null	null	null	null	null	null	null	null	null	null	null	null	null	null	null	null	
Fri Jun 02 22:06:00 UTC 2017	367.0	null	8075299.5	null	null	126578.1328125	null	null	20389.345703125	null	null	null	null	1595073.375	1637187.0	0.07074999809265137	0.1080000028014183	0.13975000381469727	0.9502500295639038	0.6863226294517517	350.0	244.0	371.0	0.0	0.0	0.0	0.0	0.0	0.0	null	null	null	null	null	null	null	null	null	null	null	null	null	null	null	null	null	null	null	
Fri Jun 02 22:05:00 UTC 2017	364.0	null	8013230.0	null	null	135426.421875	null	null	20389.345703125	null	null	null	null	1533545.375	null	0.06650000065565109	0.10199999809265137	0.13774999976158142	0.9559999704360962	0.6839516162872314	350.0	244.0	371.0	0.0	0.0	0.0	0.0	0.0	0.0	null	null	null	null	null	null	null	null	null	null	null	null	null	null	null	null	null	null	null	
Fri Jun 02 22:04:00 UTC 2017	378.0	null	8013230.0	null	null	124877.890625	null	null	18159.24609375	null	null	null	null	1522326.75	null	0.0742499977350235	0.10000000149011612	0.13574999570846558	0.9589999914169312	0.684651255607605	300.0	244.0	371.0	0.0	0.0	0.0	0.0	0.0	0.0	null	null	null	null	null	null	null	null	null	null	null	null	null	null	null	null	null	null	null	
Fri Jun 02 22:03:00 UTC 2017	375.0	null	7674368.0	null	null	124765.765625	null	null	18159.24609375	null	null	null	null	1522326.75	null	0.08100000023841858	0.10175000131130219	0.1274999976158142	0.9597499966621399	0.6836086511611938	300.0	244.0	371.0	0.0	0.0	0.0	0.0	0.0	0.0	null	null	null	null	null	null	null	null	null	null	null	null	null	null	null	null	null	null	null	
Fri Jun 02 22:02:00 UTC 2017	332.0	null	7674368.0	null	null	118776.8125	null	null	18159.24609375	null	null	null	null	1522326.75	null	0.07524999976158142	0.09525000303983688	0.13224999606609344	0.9605000019073486	0.6834203004837036	300.0	244.0	371.0	0.0	0.0	0.0	0.0	0.0	0.0	null	null	null	null	null	null	null	null	null	null	null	null	null	null	null	null	null	null	null	
Fri Jun 02 22:01:00 UTC 2017	369.0	null	7674368.0	null	null	126635.625	null	null	18159.24609375	null	null	null	null	1471488.25	1450151.75	0.08799999952316284	0.0925000011920929	0.12825000286102295	0.9574999809265137	0.6832035183906555	250.0	244.0	371.0	0.0	0.0	0.0	0.0	0.0	0.0	null	null	null	null	null	null	null	null	null	null	null	null	null	null	null	null	null	null	null	
Fri Jun 02 22:00:00 UTC 2017	351.0	null	7698129.5	null	null	115558.4375	null	null	18159.24609375	null	null	null	null	1471488.25	1450151.75	0.07349999994039536	0.08775000274181366	0.1277499943971634	0.9605000019073486	0.6836243271827698	250.0	244.0	371.0	0.0	0.0	0.0	0.0	0.0	0.0	null	null	null	null	null	null	null	null	null	null	null	null	null	null	null	null	null	null	null	
Fri Jun 02 21:59:00 UTC 2017	350.0	null	7365600.0	null	null	115097.375	null	null	18159.24609375	null	null	null	null	1471488.25	1450151.75	0.07625000178813934	0.08524999767541885	0.12425000220537186	0.9597499966621399	0.6845529675483704	250.0	244.0	371.0	0.0	0.0	0.0	0.0	0.0	0.0	null	null	null	null	null	null	null	null	null	null	null	null	null	null	null	null	null	null	null	
Fri Jun 02 21:58:00 UTC 2017	342.0	null	4761331.5	null	null	115097.375	null	null	18386.453125	null	null	null	null	1141391.625	1424526.375	0.06925000250339508	0.09099999815225601	0.1237500011920929	0.9614999890327454	0.6841326355934143	200.0	244.0	371.0	0.0	0.0	0.0	0.0	0.0	0.0	null	null	null	null	null	null	null	null	null	null	null	null	null	null	null	null	null	null	null	
Fri Jun 02 21:57:00 UTC 2017	323.0	null	4761331.5	null	null	58178.046875	null	null	14968.8173828125	null	null	null	null	1141391.625	1424526.375	0.07275000214576721	0.07275000214576721	0.11249999701976776	0.9622499942779541	0.6826868653297424	200.0	244.0	371.0	0.0	0.0	0.0	0.0	0.0	0.0	null	null	null	null	null	null	null	null	null	null	null	null	null	null	null	null	null	null	null	
Fri Jun 02 21:56:00 UTC 2017	301.0	null	4761331.5	null	null	58178.046875	null	null	14968.8173828125	null	null	null	null	988480.0	1281758.625	0.07625000178813934	0.08174999803304672	0.10774999856948853	0.9639999866485596	0.6826159358024597	200.0	244.0	371.0	0.0	0.0	0.0	0.0	0.0	0.0	null	null	null	null	null	null	null	null	null	null	null	null	null	null	null	null	null	null	null	
Fri Jun 02 21:55:00 UTC 2017	260.0	null	4761331.5	null	null	58178.046875	null	null	14639.7421875	null	null	null	null	804227.3125	874964.4375	0.07575000077486038	0.07699999958276749	0.10074999928474426	0.9702500104904175	0.682353675365448	150.0	244.0	371.0	0.0	0.0	0.0	0.0	0.0	0.0	null	null	null	null	null	null	null	null	null	null	null	null	null	null	null	null	null	null	null	
Fri Jun 02 21:54:00 UTC 2017	219.0	null	3492446.5	null	null	58178.046875	null	null	10956.544921875	null	null	null	null	804227.3125	874964.4375	0.07249999791383743	0.06750000268220901	0.08900000154972076	0.9745000004768372	0.6822122931480408	150.0	244.0	371.0	0.0	0.0	0.0	0.0	0.0	0.0	null	null	null	null	null	null	null	null	null	null	null	null	null	null	null	null	null	null	null	
Fri Jun 02 21:53:00 UTC 2017	192.0	null	3492446.5	null	null	49457.7578125	null	null	5674.44482421875	null	null	null	null	632923.1875	null	0.06724999845027924	0.06650000065565109	0.08874999731779099	0.9764999747276306	0.6841003894805908	150.0	244.0	371.0	0.0	0.0	0.0	0.0	0.0	0.0	null	null	null	null	null	null	null	null	null	null	null	null	null	null	null	null	null	null	null	
Fri Jun 02 21:52:00 UTC 2017	157.0	null	2266039.0	null	null	49457.7578125	null	null	5674.44482421875	null	null	null	null	269524.5625	null	0.08124999701976776	0.06499999761581421	0.09025000035762787	0.9757500290870667	0.6816755533218384	100.0	244.0	371.0	0.0	0.0	0.0	0.0	0.0	0.0	null	null	null	null	null	null	null	null	null	null	null	null	null	null	null	null	null	null	null	
Fri Jun 02 21:51:00 UTC 2017	152.0	null	2266039.0	null	null	25159.6171875	null	null	5674.44482421875	null	null	null	null	269524.5625	null	0.0949999988079071	0.06199999898672104	0.07900000363588333	0.9810000061988831	0.681439220905304	100.0	244.0	371.0	0.0	0.0	0.0	0.0	0.0	0.0	null	null	null	null	null	null	null	null	null	null	null	null	null	null	null	null	null	null	null	
Fri Jun 02 21:50:00 UTC 2017	96.0	null	782818.625	null	null	25159.6171875	null	null	5674.44482421875	null	null	null	null	269524.5625	null	0.07750000059604645	0.05974999815225601	0.06949999928474426	0.9829999804496765	0.6812254190444946	100.0	244.0	371.0	0.0	0.0	0.0	0.0	0.0	0.0	null	null	null	null	null	null	null	null	null	null	null	null	null	null	null	null	null	null	null	
Fri Jun 02 21:49:00 UTC 2017	86.0	null	782818.625	null	null	11183.2431640625	null	null	1392.4842529296875	null	null	null	null	235120.484375	null	0.06700000166893005	0.060750000178813934	0.06949999928474426	0.981249988079071	0.6827670931816101	50.0	244.0	371.0	0.0	0.0	0.0	0.0	0.0	0.0	null	null	null	null	null	null	null	null	null	null	null	null	null	null	null	null	null	null	null	
Fri Jun 02 21:48:00 UTC 2017	76.0	null	782818.625	null	null	11183.2431640625	null	null	1392.4842529296875	null	null	null	null	106836.21875	null	0.07724999636411667	0.054749999195337296	0.054999999701976776	0.9869999885559082	0.6807699203491211	50.0	244.0	371.0	0.0	0.0	0.0	0.0	0.0	0.0	null	null	null	null	null	null	null	null	null	null	null	null	null	null	null	null	null	null	null	
Fri Jun 02 21:47:00 UTC 2017	44.0	null	782818.625	null	null	10054.7314453125	null	null	1392.4842529296875	null	null	null	null	101099.46875	109371.3984375	0.07175000011920929	0.05700000002980232	0.05849999934434891	0.987500011920929	0.6806348562240601	50.0	244.0	371.0	0.0	0.0	0.0	0.0	0.0	0.0	null	null	null	null	null	null	null	null	null	null	null	null	null	null	null	null	null	null	null	
Fri Jun 02 21:46:00 UTC 2017	41.0	null	669776.5625	null	null	10054.7314453125	null	null	1392.4842529296875	null	null	null	null	101099.46875	109371.3984375	0.07374999672174454	0.052000001072883606	0.060499999672174454	0.987500011920929	0.6803750395774841	20.0	244.0	371.0	0.0	0.0	0.0	0.0	0.0	0.0	null	null	null	null	null	null	null	null	null	null	null	null	null	null	null	null	null	null	null	
Fri Jun 02 21:45:00 UTC 2017	35.0	null	435846.4375	null	null	6259.17529296875	null	null	1392.4842529296875	null	null	null	null	78521.5390625	109371.3984375	0.07599999755620956	0.051750000566244125	0.05000000074505806	0.9892500042915344	0.6824456453323364	20.0	244.0	371.0	0.0	0.0	0.0	0.0	0.0	0.0	null	null	null	null	null	null	null	null	null	null	null	null	null	null	null	null	null	null	null	
Fri Jun 02 21:44:00 UTC 2017	23.0	null	435846.4375	null	null	5803.0224609375	null	null	1200.5189208984375	null	null	null	null	78015.2421875	null	0.06700000166893005	0.054499998688697815	0.0572500005364418	0.9892500042915344	0.6801162362098694	20.0	244.0	371.0	0.0	0.0	0.0	0.0	0.0	0.0	null	null	null	null	null	null	null	null	null	null	null	null	null	null	null	null	null	null	null	
Fri Jun 02 21:43:00 UTC 2017	23.0	null	322054.5	null	null	4674.11572265625	null	null	771.1011962890625	null	null	null	null	58016.4453125	29908.30078125	0.07325000315904617	0.04699999839067459	0.04774999991059303	0.9900000095367432	0.6799572110176086	10.0	244.0	371.0	0.0	0.0	0.0	0.0	0.0	0.0	null	null	null	null	null	null	null	null	null	null	null	null	null	null	null	null	null	null	null	
Fri Jun 02 21:42:00 UTC 2017	16.0	null	240666.28125	null	null	4247.0869140625	null	null	771.1011962890625	null	null	null	null	51242.68359375	48129.4765625	0.08349999785423279	0.054999999701976776	0.05350000038743019	0.9900000095367432	0.6797771453857422	10.0	244.0	371.0	0.0	0.0	0.0	0.0	0.0	0.0	null	null	null	null	null	null	null	null	null	null	null	null	null	null	null	null	null	null	null	
Fri Jun 02 21:41:00 UTC 2017	13.0	null	240666.28125	null	null	1777.080810546875	null	null	18454.767578125	null	null	null	null	51242.68359375	48129.4765625	0.09125000238418579	0.04675000160932541	0.04774999991059303	0.9904999732971191	0.6797072291374207	10.0	244.0	371.0	0.0	0.0	0.0	0.0	0.0	0.0	null	null	null	null	null	null	null	null	null	null	null	null	null	null	null	null	null	null	null	
Fri Jun 02 21:40:00 UTC 2017	13.0	null	224794.1875	null	null	1777.080810546875	null	null	18454.767578125	null	null	null	null	50206.25	30140.751953125	0.07150000333786011	0.054999999701976776	0.05225000157952309	0.9904999732971191	0.6796372532844543	5.0	244.0	371.0	0.0	0.0	0.0	0.0	0.0	0.0	null	null	null	null	null	null	null	null	null	null	null	null	null	null	null	null	null	null	null	
Fri Jun 02 21:39:00 UTC 2017	11.0	null	127355.0390625	null	null	1777.080810546875	null	null	18454.767578125	null	null	null	null	14488.6259765625	5893.48486328125	0.07575000077486038	0.05025000125169754	0.050999999046325684	0.9909999966621399	0.6795883178710938	5.0	244.0	371.0	0.0	0.0	0.0	0.0	0.0	0.0	null	null	null	null	null	null	null	null	null	null	null	null	null	null	null	null	null	null	null	
Fri Jun 02 21:38:00 UTC 2017	6.0	null	58038.7421875	null	null	1173.09130859375	null	null	18454.767578125	null	null	null	null	14488.6259765625	5893.48486328125	0.07699999958276749	0.050999999046325684	0.04500000178813934	0.9907500147819519	0.6795065999031067	5.0	244.0	371.0	0.0	0.0	0.0	0.0	0.0	0.0	null	null	null	null	null	null	null	null	null	null	null	null	null	null	null	null	null	null	null	
Fri Jun 02 21:37:00 UTC 2017	3.0	null	75877.25	null	null	1173.09130859375	null	null	18454.767578125	null	null	null	null	18451.1015625	0.0	0.07100000232458115	0.052000001072883606	0.05000000074505806	0.9912499785423279	0.6794625520706177	3.0	244.0	371.0	0.0	0.0	0.0	0.0	0.0	0.0	null	null	null	null	null	null	null	null	null	null	null	null	null	null	null	null	null	null	null	
Fri Jun 02 21:36:00 UTC 2017	4.0	null	8811.490234375	null	null	126147.546875	null	null	18454.767578125	null	null	null	null	1522886.375	1597119.125	0.07524999976158142	0.0507499985396862	0.05950000137090683	0.9915000200271606	0.6794571876525879	3.0	244.0	371.0	0.0	0.0	0.0	0.0	0.0	0.0	null	null	null	null	null	null	null	null	null	null	null	null	null	null	null	null	null	null	null	
Fri Jun 02 21:35:00 UTC 2017	0.0	null	7831603.5	null	null	126147.546875	null	null	18454.767578125	null	null	null	null	1522886.375	1597119.125	0.08824999630451202	0.08824999630451202	0.10400000214576721	0.9767500162124634	0.6794395446777344	3.0	244.0	371.0	0.0	0.0	0.0	0.0	0.0	0.0	null	null	null	null	null	null	null	null	null	null	null	null	null	null	null	null	null	null	null	
Fri Jun 02 21:34:00 UTC 2017	185.0	null	7831603.5	null	null	126147.546875	null	null	18454.767578125	null	null	null	null	1522886.375	1597119.125	0.07374999672174454	0.1379999965429306	0.1537500023841858	0.9597499966621399	0.6791127324104309	0.0	244.0	371.0	0.0	0.0	0.0	0.0	0.0	0.0	null	null	null	null	null	null	null	null	null	null	null	null	null	null	null	null	null	null	null	
Fri Jun 02 21:33:00 UTC 2017	356.0	null	7831603.5	null	null	125098.3203125	null	null	18646.28515625	null	null	null	null	1522886.375	1597119.125	0.07124999910593033	0.13375000655651093	0.14824999868869781	0.9597499966621399	0.6788138151168823	600.0	244.0	371.0	0.0	0.0	0.0	0.0	0.0	0.0	null	null	null	null	null	null	null	null	null	null	null	null	null	null	null	null	null	null	null	
Fri Jun 02 21:32:00 UTC 2017	353.0	null	7814773.5	null	null	125098.3203125	null	null	20321.47265625	null	null	null	null	1522886.375	1597119.125	0.07474999874830246	0.13625000417232513	0.14925000071525574	0.9592499732971191	0.6786239743232727	600.0	244.0	371.0	0.0	0.0	0.0	0.0	0.0	0.0	null	null	null	null	null	null	null	null	null	null	null	null	null	null	null	null	null	null	null	
Fri Jun 02 21:31:00 UTC 2017	379.0	null	8015849.0	null	null	139312.234375	null	null	19620.728515625	null	null	null	null	1630128.5	1600381.125	0.08900000154972076	0.14249999821186066	0.1550000011920929	0.9595000147819519	0.6784869432449341	600.0	244.0	371.0	0.0	0.0	0.0	0.0	0.0	0.0	null	null	null	null	null	null	null	null	null	null	null	null	null	null	null	null	null	null	null	
Fri Jun 02 21:30:00 UTC 2017	348.0	null	8362004.0	null	null	139312.234375	null	null	19620.728515625	null	null	null	null	1740192.375	1600381.125	0.07774999737739563	0.1367499977350235	0.1509999930858612	0.9574999809265137	0.6782487034797668	500.0	244.0	371.0	0.0	0.0	0.0	0.0	0.0	0.0	null	null	null	null	null	null	null	null	null	null	null	null	null	null	null	null	null	null	null	
Fri Jun 02 21:29:00 UTC 2017	383.0	null	8245925.0	null	null	130840.3203125	null	null	19620.728515625	null	null	null	null	1639750.375	1622427.125	0.07824999839067459	0.12725000083446503	0.15000000596046448	0.9597499966621399	0.6789150834083557	500.0	244.0	371.0	0.0	0.0	0.0	0.0	0.0	0.0	null	null	null	null	null	null	null	null	null	null	null	null	null	null	null	null	null	null	null	
Fri Jun 02 21:28:00 UTC 2017	361.0	null	8245925.0	null	null	130840.3203125	null	null	19620.728515625	null	null	null	null	1639750.375	1622427.125	0.07599999755620956	0.12349999696016312	0.14149999618530273	0.9599999785423279	0.6800849437713623	500.0	244.0	371.0	0.0	0.0	0.0	0.0	0.0	0.0	null	null	null	null	null	null	null	null	null	null	null	null	null	null	null	null	null	null	null	
Fri Jun 02 21:27:00 UTC 2017	367.0	null	8245925.0	null	null	130840.3203125	null	null	19620.728515625	null	null	null	null	1639750.375	1622427.125	0.06424999982118607	0.11774999648332596	0.14624999463558197	0.9574999809265137	0.6772334575653076	400.0	244.0	371.0	0.0	0.0	0.0	0.0	0.0	0.0	null	null	null	null	null	null	null	null	null	null	null	null	null	null	null	null	null	null	null	
Fri Jun 02 21:26:00 UTC 2017	388.0	null	7790737.5	null	null	130840.3203125	null	null	19620.728515625	null	null	null	null	1624266.125	1536317.625	0.08224999904632568	0.12575000524520874	0.14900000393390656	0.9585000276565552	0.678076446056366	400.0	244.0	371.0	0.0	0.0	0.0	0.0	0.0	0.0	null	null	null	null	null	null	null	null	null	null	null	null	null	null	null	null	null	null	null	
Fri Jun 02 21:25:00 UTC 2017	370.0	null	7790737.5	null	null	132866.0625	null	null	20330.939453125	null	null	null	null	1642547.625	null	0.07249999791383743	0.11174999922513962	0.13349999487400055	0.9605000019073486	0.6760445237159729	400.0	244.0	371.0	0.0	0.0	0.0	0.0	0.0	0.0	null	null	null	null	null	null	null	null	null	null	null	null	null	null	null	null	null	null	null	
Fri Jun 02 21:24:00 UTC 2017	357.0	null	8073808.0	null	null	129220.7265625	null	null	20330.939453125	null	null	null	null	1642547.625	null	0.07774999737739563	0.16699999570846558	0.13750000298023224	0.9595000147819519	0.6760640740394592	350.0	244.0	371.0	0.0	0.0	0.0	0.0	0.0	0.0	null	null	null	null	null	null	null	null	null	null	null	null	null	null	null	null	null	null	null	
Fri Jun 02 21:23:00 UTC 2017	345.0	null	8182291.0	null	null	136313.0	null	null	20330.939453125	null	null	null	null	1474610.0	1803555.5	0.07225000113248825	0.1080000028014183	0.1379999965429306	0.9610000252723694	0.6780715584754944	350.0	244.0	371.0	0.0	0.0	0.0	0.0	0.0	0.0	null	null	null	null	null	null	null	null	null	null	null	null	null	null	null	null	null	null	null	
Fri Jun 02 21:22:00 UTC 2017	362.0	null	8182291.0	null	null	123350.3515625	null	null	21259.140625	null	null	null	null	1474610.0	1803555.5	0.07000000029802322	0.11249999701976776	0.13600000739097595	0.9589999914169312	0.6754667162895203	350.0	244.0	371.0	0.0	0.0	0.0	0.0	0.0	0.0	null	null	null	null	null	null	null	null	null	null	null	null	null	null	null	null	null	null	null	
Fri Jun 02 21:21:00 UTC 2017	370.0	null	7647334.5	null	null	123350.3515625	null	null	21259.140625	null	null	null	null	1724241.25	1803555.5	0.09700000286102295	0.10599999874830246	0.1407500058412552	0.9545000195503235	0.6753159761428833	300.0	244.0	371.0	0.0	0.0	0.0	0.0	0.0	0.0	null	null	null	null	null	null	null	null	null	null	null	null	null	null	null	null	null	null	null	
Fri Jun 02 21:20:00 UTC 2017	409.0	null	7647334.5	null	null	123350.3515625	null	null	21259.140625	null	null	null	null	1649452.375	null	0.07649999856948853	0.09925000369548798	0.1407500058412552	0.9587500095367432	0.6750312447547913	300.0	244.0	371.0	0.0	0.0	0.0	0.0	0.0	0.0	null	null	null	null	null	null	null	null	null	null	null	null	null	null	null	null	null	null	null	
Fri Jun 02 21:19:00 UTC 2017	374.0	null	7647334.5	null	null	113905.78125	null	null	20679.224609375	null	null	null	null	1373761.0	1725357.875	0.06599999964237213	0.09049999713897705	0.1274999976158142	0.9614999890327454	0.6748433709144592	300.0	244.0	371.0	0.0	0.0	0.0	0.0	0.0	0.0	null	null	null	null	null	null	null	null	null	null	null	null	null	null	null	null	null	null	null	
Fri Jun 02 21:18:00 UTC 2017	344.0	null	8305652.5	null	null	116428.875	null	null	20679.224609375	null	null	null	null	1582271.0	1725357.875	0.08174999803304672	0.10300000011920929	0.13124999403953552	0.9597499966621399	0.6746427416801453	250.0	244.0	371.0	0.0	0.0	0.0	0.0	0.0	0.0	null	null	null	null	null	null	null	null	null	null	null	null	null	null	null	null	null	null	null	
Fri Jun 02 21:17:00 UTC 2017	378.0	null	7412598.0	null	null	116428.875	null	null	19397.3515625	null	null	null	null	1464353.5	1593675.125	0.06224999949336052	0.09324999898672104	0.12575000524520874	0.9617499709129333	0.676661491394043	250.0	244.0	371.0	0.0	0.0	0.0	0.0	0.0	0.0	null	null	null	null	null	null	null	null	null	null	null	null	null	null	null	null	null	null	null	
Fri Jun 02 21:16:00 UTC 2017	334.0	null	7604429.5	null	null	116428.875	null	null	19113.599609375	null	null	null	null	1464353.5	1593675.125	0.07750000059604645	0.08649999648332596	0.11900000274181366	0.9602500200271606	0.6765416264533997	250.0	244.0	371.0	0.0	0.0	0.0	0.0	0.0	0.0	null	null	null	null	null	null	null	null	null	null	null	null	null	null	null	null	null	null	null	
Fri Jun 02 21:15:00 UTC 2017	345.0	null	6749648.5	null	null	116428.875	null	null	18269.423828125	null	null	null	null	1190756.5	1476963.0	0.07524999976158142	0.08775000274181366	0.12224999815225601	0.9624999761581421	0.6741451621055603	200.0	244.0	371.0	0.0	0.0	0.0	0.0	0.0	0.0	null	null	null	null	null	null	null	null	null	null	null	null	null	null	null	null	null	null	null	
Fri Jun 02 21:14:00 UTC 2017	315.0	null	5321345.0	null	null	73907.265625	null	null	15135.845703125	null	null	null	null	851019.1875	1225736.25	0.0702499970793724	0.0807500034570694	0.10649999976158142	0.9697499871253967	0.6761947274208069	200.0	244.0	371.0	0.0	0.0	0.0	0.0	0.0	0.0	null	null	null	null	null	null	null	null	null	null	null	null	null	null	null	null	null	null	null	
Fri Jun 02 21:13:00 UTC 2017	221.0	null	5491410.5	null	null	78940.7734375	null	null	15135.845703125	null	null	null	null	851019.1875	1225736.25	0.0689999982714653	0.07925000041723251	0.11249999701976776	0.9682499766349792	0.6735756397247314	200.0	244.0	371.0	0.0	0.0	0.0	0.0	0.0	0.0	null	null	null	null	null	null	null	null	null	null	null	null	null	null	null	null	null	null	null	
Fri Jun 02 21:12:00 UTC 2017	259.0	null	4551096.5	null	null	78940.7734375	null	null	13643.2490234375	null	null	null	null	854017.4375	null	0.07150000333786011	0.07000000029802322	0.10599999874830246	0.96875	0.6733721494674683	150.0	244.0	371.0	0.0	0.0	0.0	0.0	0.0	0.0	null	null	null	null	null	null	null	null	null	null	null	null	null	null	null	null	null	null	null	
Fri Jun 02 21:11:00 UTC 2017	244.0	null	4551096.5	null	null	72447.6640625	null	null	13643.2490234375	null	null	null	null	757349.8125	null	0.11500000208616257	0.0729999989271164	0.09724999964237213	0.972000002861023	0.6733373999595642	150.0	244.0	371.0	0.0	0.0	0.0	0.0	0.0	0.0	null	null	null	null	null	null	null	null	null	null	null	null	null	null	null	null	null	null	null	
Fri Jun 02 21:10:00 UTC 2017	209.0	null	3690307.75	null	null	25227.787109375	null	null	6053.2060546875	null	null	null	null	576460.125	null	0.07199999690055847	0.07575000077486038	0.08699999749660492	0.9750000238418579	0.6742171049118042	150.0	244.0	371.0	0.0	0.0	0.0	0.0	0.0	0.0	null	null	null	null	null	null	null	null	null	null	null	null	null	null	null	null	null	null	null	
Fri Jun 02 21:09:00 UTC 2017	178.0	null	3690307.75	null	null	25227.787109375	null	null	6053.2060546875	null	null	null	null	415002.0625	690864.0	0.06875000149011612	0.06674999743700027	0.09375	0.9742500185966492	0.6729053854942322	100.0	244.0	371.0	0.0	0.0	0.0	0.0	0.0	0.0	null	null	null	null	null	null	null	null	null	null	null	null	null	null	null	null	null	null	null	
Fri Jun 02 21:08:00 UTC 2017	177.0	null	1114386.25	null	null	25227.787109375	null	null	6053.2060546875	null	null	null	null	415002.0625	690864.0	0.08174999803304672	0.06224999949336052	0.0807500034570694	0.9792500138282776	0.6727155447006226	100.0	244.0	371.0	0.0	0.0	0.0	0.0	0.0	0.0	null	null	null	null	null	null	null	null	null	null	null	null	null	null	null	null	null	null	null	
Fri Jun 02 21:07:00 UTC 2017	132.0	null	1114386.25	null	null	25227.787109375	null	null	6053.2060546875	null	null	null	null	305146.71875	248264.4375	0.07450000196695328	0.05950000137090683	0.0689999982714653	0.981249988079071	0.6736798882484436	100.0	244.0	371.0	0.0	0.0	0.0	0.0	0.0	0.0	null	null	null	null	null	null	null	null	null	null	null	null	null	null	null	null	null	null	null	
Fri Jun 02 21:06:00 UTC 2017	106.0	null	1114386.25	null	null	25227.787109375	null	null	4905.92041015625	null	null	null	null	305146.71875	248264.4375	0.06800000369548798	0.061500001698732376	0.06925000250339508	0.9829999804496765	0.672177791595459	50.0	244.0	371.0	0.0	0.0	0.0	0.0	0.0	0.0	null	null	null	null	null	null	null	null	null	null	null	null	null	null	null	null	null	null	null	
Fri Jun 02 21:05:00 UTC 2017	86.0	null	1114386.25	null	null	7217.3505859375	null	null	4905.92041015625	null	null	null	null	159360.84375	248264.4375	0.07649999856948853	0.054499998688697815	0.06324999779462814	0.9860000014305115	0.671980619430542	50.0	244.0	371.0	0.0	0.0	0.0	0.0	0.0	0.0	null	null	null	null	null	null	null	null	null	null	null	null	null	null	null	null	null	null	null	
Fri Jun 02 21:04:00 UTC 2017	52.0	null	682529.1875	null	null	7217.3505859375	null	null	2570.21826171875	null	null	null	null	102113.3203125	200290.046875	0.07575000077486038	0.0560000017285347	0.060499999672174454	0.9872499704360962	0.6717858910560608	50.0	244.0	371.0	0.0	0.0	0.0	0.0	0.0	0.0	null	null	null	null	null	null	null	null	null	null	null	null	null	null	null	null	null	null	null	
Fri Jun 02 21:03:00 UTC 2017	40.0	null	682529.1875	null	null	7217.3505859375	null	null	2006.6859130859375	null	null	null	null	36145.58203125	58311.51171875	0.06549999862909317	0.05350000038743019	0.05649999901652336	0.9877499938011169	0.6716826558113098	20.0	244.0	371.0	0.0	0.0	0.0	0.0	0.0	0.0	null	null	null	null	null	null	null	null	null	null	null	null	null	null	null	null	null	null	null	
Fri Jun 02 21:02:00 UTC 2017	34.0	null	493610.6875	null	null	7217.3505859375	null	null	2006.6859130859375	null	null	null	null	36145.58203125	58311.51171875	0.0807500034570694	0.04874999821186066	0.054749999195337296	0.9882500171661377	0.6721636056900024	20.0	244.0	371.0	0.0	0.0	0.0	0.0	0.0	0.0	null	null	null	null	null	null	null	null	null	null	null	null	null	null	null	null	null	null	null	
Fri Jun 02 21:01:00 UTC 2017	27.0	null	320104.90625	null	null	4895.22802734375	null	null	341.8861083984375	null	null	null	null	36145.58203125	58311.51171875	0.1014999970793724	0.057750001549720764	0.051500000059604645	0.9887499809265137	0.6725731492042542	20.0	244.0	371.0	0.0	0.0	0.0	0.0	0.0	0.0	null	null	null	null	null	null	null	null	null	null	null	null	null	null	null	null	null	null	null	
Fri Jun 02 21:00:00 UTC 2017	19.0	null	429937.25	null	null	6812.1455078125	null	null	341.8861083984375	null	null	null	null	36145.58203125	58311.51171875	0.06825000047683716	0.05400000140070915	0.05624999850988388	0.9887499809265137	0.6913679838180542	10.0	244.0	371.0	0.0	0.0	0.0	0.0	0.0	0.0	null	null	null	null	null	null	null	null	null	null	null	null	null	null	null	null	null	null	null	
Fri Jun 02 20:59:00 UTC 2017	21.0	null	322509.75	null	null	2887.160888671875	null	null	341.8861083984375	null	null	null	null	36145.58203125	58311.51171875	0.08349999785423279	0.05000000074505806	0.04675000160932541	0.9897500276565552	0.6713049411773682	10.0	244.0	371.0	0.0	0.0	0.0	0.0	0.0	0.0	null	null	null	null	null	null	null	null	null	null	null	null	null	null	null	null	null	null	null	
Fri Jun 02 20:58:00 UTC 2017	19.0	null	209946.921875	null	null	2887.160888671875	null	null	341.8861083984375	null	null	null	null	0.0	42974.33203125	0.06750000268220901	0.04699999839067459	0.04874999821186066	0.9904999732971191	0.6712403893470764	10.0	244.0	371.0	0.0	0.0	0.0	0.0	0.0	0.0	null	null	null	null	null	null	null	null	null	null	null	null	null	null	null	null	null	null	null	
Fri Jun 02 20:57:00 UTC 2017	10.0	null	195846.53125	null	null	2887.160888671875	null	null	341.8861083984375	null	null	null	null	0.0	42974.33203125	0.07649999856948853	0.051500000059604645	0.050999999046325684	0.9904999732971191	0.6712902784347534	5.0	244.0	371.0	0.0	0.0	0.0	0.0	0.0	0.0	null	null	null	null	null	null	null	null	null	null	null	null	null	null	null	null	null	null	null	
Fri Jun 02 20:56:00 UTC 2017	9.0	null	118616.3359375	null	null	2392.315185546875	null	null	341.8861083984375	null	null	null	null	0.0	42974.33203125	0.0689999982714653	0.05225000157952309	0.0507499985396862	0.9904999732971191	0.6712413430213928	5.0	244.0	371.0	0.0	0.0	0.0	0.0	0.0	0.0	null	null	null	null	null	null	null	null	null	null	null	null	null	null	null	null	null	null	null	
Fri Jun 02 20:55:00 UTC 2017	8.0	null	118616.3359375	null	null	1622.3427734375	null	null	341.8861083984375	null	null	null	null	0.0	42974.33203125	0.07175000011920929	0.05350000038743019	0.04574999958276749	0.9904999732971191	0.6711865663528442	5.0	244.0	371.0	0.0	0.0	0.0	0.0	0.0	0.0	null	null	null	null	null	null	null	null	null	null	null	null	null	null	null	null	null	null	null	
Fri Jun 02 20:54:00 UTC 2017	6.0	null	118616.3359375	null	null	44.956748962402344	null	null	341.8861083984375	null	null	null	null	0.0	42974.33203125	0.07599999755620956	0.054249998182058334	0.04800000041723251	0.9909999966621399	0.6712663173675537	3.0	244.0	371.0	0.0	0.0	0.0	0.0	0.0	0.0	null	null	null	null	null	null	null	null	null	null	null	null	null	null	null	null	null	null	null	
Fri Jun 02 20:53:00 UTC 2017	5.0	null	40180.94140625	null	null	44.956748962402344	null	null	341.8861083984375	null	null	null	null	1448807.0	1628191.0	0.07599999755620956	0.048250000923871994	0.05525000020861626	0.9909999966621399	0.6712349653244019	3.0	244.0	371.0	0.0	0.0	0.0	0.0	0.0	0.0	null	null	null	null	null	null	null	null	null	null	null	null	null	null	null	null	null	null	null	
Fri Jun 02 20:52:00 UTC 2017	2.0	null	7135797.5	null	null	44.956748962402344	null	null	62.19053649902344	null	null	null	null	1448807.0	1628191.0	0.07074999809265137	0.05249999836087227	0.08574999868869781	0.9909999966621399	0.6711928844451904	3.0	244.0	371.0	0.0	0.0	0.0	0.0	0.0	0.0	null	null	null	null	null	null	null	null	null	null	null	null	null	null	null	null	null	null	null	
Fri Jun 02 20:51:00 UTC 2017	1.0	null	7135797.5	null	null	135889.9375	null	null	22641.46875	null	null	null	null	1448807.0	1628191.0	0.10724999755620956	0.13324999809265137	0.15700000524520874	0.9574999809265137	0.6711762547492981	0.0	244.0	371.0	0.0	0.0	0.0	0.0	0.0	0.0	null	null	null	null	null	null	null	null	null	null	null	null	null	null	null	null	null	null	null	
Fri Jun 02 20:50:00 UTC 2017	378.0	null	8332855.5	null	null	125057.8046875	null	null	22641.46875	null	null	null	null	1448807.0	1628191.0	0.08349999785423279	0.1354999989271164	0.1587499976158142	0.9582499861717224	0.6708558201789856	0.0	244.0	371.0	0.0	0.0	0.0	0.0	0.0	0.0	null	null	null	null	null	null	null	null	null	null	null	null	null	null	null	null	null	null	null	
Fri Jun 02 20:49:00 UTC 2017	369.0	null	7701467.0	null	null	125057.8046875	null	null	19779.244140625	null	null	null	null	1796738.875	1327378.25	0.06724999845027924	0.13500000536441803	0.15674999356269836	0.9587500095367432	0.6713157296180725	600.0	244.0	371.0	0.0	0.0	0.0	0.0	0.0	0.0	null	null	null	null	null	null	null	null	null	null	null	null	null	null	null	null	null	null	null	
Fri Jun 02 20:48:00 UTC 2017	369.0	null	7701467.0	null	null	125057.8046875	null	null	21852.8046875	null	null	null	null	1796738.875	1327378.25	0.07400000095367432	0.13725000619888306	0.15025000274181366	0.9589999914169312	0.671016275882721	600.0	244.0	371.0	0.0	0.0	0.0	0.0	0.0	0.0	null	null	null	null	null	null	null	null	null	null	null	null	null	null	null	null	null	null	null	
Fri Jun 02 20:47:00 UTC 2017	371.0	null	7709836.0	null	null	125057.8046875	null	null	21519.837890625	null	null	null	null	1796738.875	1327378.25	0.07800000160932541	0.1340000033378601	0.15725000202655792	0.9585000276565552	0.6722996234893799	600.0	244.0	371.0	0.0	0.0	0.0	0.0	0.0	0.0	null	null	null	null	null	null	null	null	null	null	null	null	null	null	null	null	null	null	null	
Fri Jun 02 20:46:00 UTC 2017	353.0	null	7709836.0	null	null	125057.8046875	null	null	23220.181640625	null	null	null	null	1796738.875	1327378.25	0.07575000077486038	0.13850000500679016	0.1627500057220459	0.9592499732971191	0.6698200106620789	500.0	244.0	371.0	0.0	0.0	0.0	0.0	0.0	0.0	null	null	null	null	null	null	null	null	null	null	null	null	null	null	null	null	null	null	null	
Fri Jun 02 20:45:00 UTC 2017	364.0	null	7919078.0	null	null	144004.0625	null	null	20515.78515625	null	null	null	null	1632412.5	1576242.5	0.06975000351667404	0.12325000017881393	0.14775000512599945	0.9582499861717224	0.6695944666862488	500.0	244.0	371.0	0.0	0.0	0.0	0.0	0.0	0.0	null	null	null	null	null	null	null	null	null	null	null	null	null	null	null	null	null	null	null	
Fri Jun 02 20:44:00 UTC 2017	363.0	null	8257098.5	null	null	136177.609375	null	null	21043.533203125	null	null	null	null	1676858.375	1576242.5	0.06949999928474426	0.12099999934434891	0.14775000512599945	0.9589999914169312	0.6694653034210205	500.0	244.0	371.0	0.0	0.0	0.0	0.0	0.0	0.0	null	null	null	null	null	null	null	null	null	null	null	null	null	null	null	null	null	null	null	
Fri Jun 02 20:43:00 UTC 2017	363.0	null	7869038.5	null	null	132395.859375	null	null	21043.533203125	null	null	null	null	1612004.875	1646370.375	0.07925000041723251	0.12174999713897705	0.15150000154972076	0.9582499861717224	0.6692994236946106	400.0	244.0	371.0	0.0	0.0	0.0	0.0	0.0	0.0	null	null	null	null	null	null	null	null	null	null	null	null	null	null	null	null	null	null	null	
Fri Jun 02 20:42:00 UTC 2017	381.0	null	7869038.5	null	null	132395.859375	null	null	19955.970703125	null	null	null	null	1612004.875	1646370.375	0.06650000065565109	0.11574999988079071	0.13899999856948853	0.9592499732971191	0.668953537940979	400.0	244.0	371.0	0.0	0.0	0.0	0.0	0.0	0.0	null	null	null	null	null	null	null	null	null	null	null	null	null	null	null	null	null	null	null	
Fri Jun 02 20:41:00 UTC 2017	374.0	null	7869038.5	null	null	132395.859375	null	null	20036.732421875	null	null	null	null	1632408.25	1667468.75	0.1067499965429306	0.11150000244379044	0.13975000381469727	0.9597499966621399	0.6687768697738647	400.0	244.0	371.0	0.0	0.0	0.0	0.0	0.0	0.0	null	null	null	null	null	null	null	null	null	null	null	null	null	null	null	null	null	null	null	
Fri Jun 02 20:40:00 UTC 2017	354.0	null	8386632.0	null	null	135444.34375	null	null	22230.126953125	null	null	null	null	1632408.25	1667468.75	0.07699999958276749	0.11474999785423279	0.14624999463558197	0.9587500095367432	0.668703019618988	350.0	244.0	371.0	0.0	0.0	0.0	0.0	0.0	0.0	null	null	null	null	null	null	null	null	null	null	null	null	null	null	null	null	null	null	null	
Fri Jun 02 20:39:00 UTC 2017	371.0	null	8573545.0	null	null	135444.34375	null	null	21124.037109375	null	null	null	null	1791355.0	null	0.07050000131130219	0.10824999958276749	0.13975000381469727	0.9585000276565552	0.6684735417366028	350.0	244.0	371.0	0.0	0.0	0.0	0.0	0.0	0.0	null	null	null	null	null	null	null	null	null	null	null	null	null	null	null	null	null	null	null	
Fri Jun 02 20:38:00 UTC 2017	375.0	null	8573545.0	null	null	135444.34375	null	null	21124.037109375	null	null	null	null	1791355.0	null	0.06324999779462814	0.10575000196695328	0.14024999737739563	0.9585000276565552	0.6683101058006287	350.0	244.0	371.0	0.0	0.0	0.0	0.0	0.0	0.0	null	null	null	null	null	null	null	null	null	null	null	null	null	null	null	null	null	null	null	
Fri Jun 02 20:37:00 UTC 2017	386.0	null	8188916.5	null	null	119564.5	null	null	21253.578125	null	null	null	null	1481379.75	1599179.75	0.08250000327825546	0.10000000149011612	0.14100000262260437	0.9580000042915344	0.6704903244972229	300.0	244.0	371.0	0.0	0.0	0.0	0.0	0.0	0.0	null	null	null	null	null	null	null	null	null	null	null	null	null	null	null	null	null	null	null	
Fri Jun 02 20:36:00 UTC 2017	368.0	null	7850241.0	null	null	119564.5	null	null	19195.013671875	null	null	null	null	1481379.75	1599179.75	0.07000000029802322	0.09624999761581421	0.12575000524520874	0.9607499837875366	0.6695127487182617	300.0	244.0	371.0	0.0	0.0	0.0	0.0	0.0	0.0	null	null	null	null	null	null	null	null	null	null	null	null	null	null	null	null	null	null	null	
Fri Jun 02 20:35:00 UTC 2017	348.0	null	7745494.5	null	null	119564.5	null	null	19195.013671875	null	null	null	null	1598256.625	1542222.25	0.06750000268220901	0.10249999910593033	0.132750004529953	0.9602500200271606	0.6694178581237793	300.0	244.0	371.0	0.0	0.0	0.0	0.0	0.0	0.0	null	null	null	null	null	null	null	null	null	null	null	null	null	null	null	null	null	null	null	
Fri Jun 02 20:34:00 UTC 2017	349.0	null	7745494.5	null	null	119573.71875	null	null	18424.8828125	null	null	null	null	1598256.625	1542222.25	0.08025000244379044	0.09125000238418579	0.12849999964237213	0.9612500071525574	0.6677239537239075	250.0	244.0	371.0	0.0	0.0	0.0	0.0	0.0	0.0	null	null	null	null	null	null	null	null	null	null	null	null	null	null	null	null	null	null	null	
Fri Jun 02 20:33:00 UTC 2017	346.0	null	7745494.5	null	null	120620.7578125	null	null	18424.8828125	null	null	null	null	1598256.625	1542222.25	0.0794999971985817	0.08675000071525574	0.12425000220537186	0.9597499966621399	0.6675189733505249	250.0	244.0	371.0	0.0	0.0	0.0	0.0	0.0	0.0	null	null	null	null	null	null	null	null	null	null	null	null	null	null	null	null	null	null	null	
Fri Jun 02 20:32:00 UTC 2017	340.0	null	7107618.5	null	null	120620.7578125	null	null	18185.76953125	null	null	null	null	1113147.375	1146268.25	0.07100000232458115	0.08900000154972076	0.11800000071525574	0.9627500176429749	0.6696585416793823	250.0	244.0	371.0	0.0	0.0	0.0	0.0	0.0	0.0	null	null	null	null	null	null	null	null	null	null	null	null	null	null	null	null	null	null	null	
Fri Jun 02 20:31:00 UTC 2017	324.0	null	7107618.5	null	null	86660.8203125	null	null	14626.3271484375	null	null	null	null	1113147.375	1146268.25	0.09425000101327896	0.09125000238418579	0.12575000524520874	0.9624999761581421	0.6670668721199036	200.0	244.0	371.0	0.0	0.0	0.0	0.0	0.0	0.0	null	null	null	null	null	null	null	null	null	null	null	null	null	null	null	null	null	null	null	
Fri Jun 02 20:30:00 UTC 2017	316.0	null	4948970.5	null	null	86660.8203125	null	null	14626.3271484375	null	null	null	null	1113147.375	1146268.25	0.07774999737739563	0.07649999856948853	0.10599999874830246	0.9599999785423279	0.6669299006462097	200.0	244.0	371.0	0.0	0.0	0.0	0.0	0.0	0.0	null	null	null	null	null	null	null	null	null	null	null	null	null	null	null	null	null	null	null	
Fri Jun 02 20:29:00 UTC 2017	262.0	null	4948970.5	null	null	79335.3828125	null	null	15430.5576171875	null	null	null	null	1040247.125	961539.875	0.07450000196695328	0.07975000143051147	0.1107499971985817	0.9664999842643738	0.6667361259460449	200.0	244.0	371.0	0.0	0.0	0.0	0.0	0.0	0.0	null	null	null	null	null	null	null	null	null	null	null	null	null	null	null	null	null	null	null	
Fri Jun 02 20:28:00 UTC 2017	270.0	null	4948970.5	null	null	79335.3828125	null	null	15430.5576171875	null	null	null	null	1040247.125	961539.875	0.06575000286102295	0.07199999690055847	0.10175000131130219	0.9700000286102295	0.6664518713951111	150.0	244.0	371.0	0.0	0.0	0.0	0.0	0.0	0.0	null	null	null	null	null	null	null	null	null	null	null	null	null	null	null	null	null	null	null	
Fri Jun 02 20:27:00 UTC 2017	233.0	null	4041363.25	null	null	60971.3671875	null	null	9793.587890625	null	null	null	null	899011.75	780528.3125	0.07625000178813934	0.0729999989271164	0.09574999660253525	0.9727500081062317	0.6670453548431396	150.0	244.0	371.0	0.0	0.0	0.0	0.0	0.0	0.0	null	null	null	null	null	null	null	null	null	null	null	null	null	null	null	null	null	null	null	
Fri Jun 02 20:26:00 UTC 2017	186.0	null	2125292.5	null	null	54736.7265625	null	null	9793.587890625	null	null	null	null	733607.25	604291.5	0.06975000351667404	0.06424999982118607	0.0860000029206276	0.9752500057220459	0.6658324599266052	150.0	244.0	371.0	0.0	0.0	0.0	0.0	0.0	0.0	null	null	null	null	null	null	null	null	null	null	null	null	null	null	null	null	null	null	null	
Fri Jun 02 20:25:00 UTC 2017	165.0	null	2125292.5	null	null	30983.427734375	null	null	2486.983154296875	null	null	null	null	618395.6875	604291.5	0.07925000041723251	0.06800000369548798	0.08524999767541885	0.9769999980926514	0.6656244993209839	100.0	244.0	371.0	0.0	0.0	0.0	0.0	0.0	0.0	null	null	null	null	null	null	null	null	null	null	null	null	null	null	null	null	null	null	null	
Fri Jun 02 20:24:00 UTC 2017	151.0	null	2125292.5	null	null	30983.427734375	null	null	2486.983154296875	null	null	null	null	334927.5625	270399.4375	0.07175000011920929	0.060750000178813934	0.07474999874830246	0.9819999933242798	0.6656269431114197	100.0	244.0	371.0	0.0	0.0	0.0	0.0	0.0	0.0	null	null	null	null	null	null	null	null	null	null	null	null	null	null	null	null	null	null	null	
Fri Jun 02 20:23:00 UTC 2017	104.0	null	971495.625	null	null	30983.427734375	null	null	2486.983154296875	null	null	null	null	334927.5625	270399.4375	0.07800000160932541	0.05874999985098839	0.07175000011920929	0.9825000166893005	0.6673814654350281	100.0	244.0	371.0	0.0	0.0	0.0	0.0	0.0	0.0	null	null	null	null	null	null	null	null	null	null	null	null	null	null	null	null	null	null	null	
Fri Jun 02 20:22:00 UTC 2017	92.0	null	971495.625	null	null	11962.724609375	null	null	2486.983154296875	null	null	null	null	334927.5625	270399.4375	0.06849999725818634	0.05950000137090683	0.06975000351667404	0.9832500219345093	0.6648896336555481	50.0	244.0	371.0	0.0	0.0	0.0	0.0	0.0	0.0	null	null	null	null	null	null	null	null	null	null	null	null	null	null	null	null	null	null	null	
Fri Jun 02 20:21:00 UTC 2017	75.0	null	971495.625	null	null	11962.724609375	null	null	2486.983154296875	null	null	null	null	146122.1875	null	0.10050000250339508	0.05299999937415123	0.060499999672174454	0.987500011920929	0.6642765998840332	50.0	244.0	371.0	0.0	0.0	0.0	0.0	0.0	0.0	null	null	null	null	null	null	null	null	null	null	null	null	null	null	null	null	null	null	null	
Fri Jun 02 20:20:00 UTC 2017	43.0	null	869151.4375	null	null	11962.724609375	null	null	2486.983154296875	null	null	null	null	146122.1875	null	0.06300000101327896	0.05849999934434891	0.05999999865889549	0.987500011920929	0.6645632982254028	50.0	244.0	371.0	0.0	0.0	0.0	0.0	0.0	0.0	null	null	null	null	null	null	null	null	null	null	null	null	null	null	null	null	null	null	null	
Fri Jun 02 20:19:00 UTC 2017	40.0	null	699534.25	null	null	9578.1015625	null	null	2486.983154296875	null	null	null	null	25332.634765625	null	0.07374999672174454	0.05225000157952309	0.05674999952316284	0.9882500171661377	0.6639707684516907	20.0	244.0	371.0	0.0	0.0	0.0	0.0	0.0	0.0	null	null	null	null	null	null	null	null	null	null	null	null	null	null	null	null	null	null	null	
Fri Jun 02 20:18:00 UTC 2017	34.0	null	376275.21875	null	null	5751.44140625	null	null	1242.721435546875	null	null	null	null	25332.634765625	null	0.07374999672174454	0.054749999195337296	0.051500000059604645	0.9894999861717224	0.6638817191123962	20.0	244.0	371.0	0.0	0.0	0.0	0.0	0.0	0.0	null	null	null	null	null	null	null	null	null	null	null	null	null	null	null	null	null	null	null	
Fri Jun 02 20:17:00 UTC 2017	22.0	null	336346.09375	null	null	4433.591796875	null	null	1225.6195068359375	null	null	null	null	25332.634765625	null	0.07774999737739563	0.04874999821186066	0.054499998688697815	0.9892500042915344	0.6660766005516052	20.0	244.0	371.0	0.0	0.0	0.0	0.0	0.0	0.0	null	null	null	null	null	null	null	null	null	null	null	null	null	null	null	null	null	null	null	
Fri Jun 02 20:16:00 UTC 2017	17.0	null	322843.0	null	null	5678.81201171875	null	null	1257.3868408203125	null	null	null	null	25332.634765625	null	0.07275000214576721	0.05700000002980232	0.05400000140070915	0.9897500276565552	0.6646567583084106	10.0	244.0	371.0	0.0	0.0	0.0	0.0	0.0	0.0	null	null	null	null	null	null	null	null	null	null	null	null	null	null	null	null	null	null	null	
Fri Jun 02 20:15:00 UTC 2017	19.0	null	322843.0	null	null	2852.292236328125	null	null	743.1001586914062	null	null	null	null	25332.634765625	null	0.07225000113248825	0.05274999886751175	0.04899999871850014	0.9900000095367432	0.6636175513267517	10.0	244.0	371.0	0.0	0.0	0.0	0.0	0.0	0.0	null	null	null	null	null	null	null	null	null	null	null	null	null	null	null	null	null	null	null	
Fri Jun 02 20:14:00 UTC 2017	16.0	null	216468.390625	null	null	2852.292236328125	null	null	570.108642578125	null	null	null	null	25332.634765625	null	0.07625000178813934	0.05350000038743019	0.052000001072883606	0.9902499914169312	0.6654698848724365	10.0	244.0	371.0	0.0	0.0	0.0	0.0	0.0	0.0	null	null	null	null	null	null	null	null	null	null	null	null	null	null	null	null	null	null	null	
Fri Jun 02 20:13:00 UTC 2017	11.0	null	184214.140625	null	null	2852.292236328125	null	null	464.15350341796875	null	null	null	null	25332.634765625	null	0.06849999725818634	0.05350000038743019	0.04975000023841858	0.984749972820282	0.6635211706161499	5.0	244.0	371.0	0.0	0.0	0.0	0.0	0.0	0.0	null	null	null	null	null	null	null	null	null	null	null	null	null	null	null	null	null	null	null	
Fri Jun 02 20:12:00 UTC 2017	10.0	null	119786.84375	null	null	1490.5338134765625	null	null	464.15350341796875	null	null	null	null	18992.69140625	null	0.07325000315904617	0.04874999821186066	0.048250000923871994	0.9904999732971191	0.6651210784912109	5.0	244.0	371.0	0.0	0.0	0.0	0.0	0.0	0.0	null	null	null	null	null	null	null	null	null	null	null	null	null	null	null	null	null	null	null	
Fri Jun 02 20:11:00 UTC 2017	8.0	null	132818.734375	null	null	1490.5338134765625	null	null	402.711181640625	null	null	null	null	19275.94921875	7858.04296875	0.10700000077486038	0.0494999997317791	0.04800000041723251	0.9904999732971191	0.665691077709198	5.0	244.0	371.0	0.0	0.0	0.0	0.0	0.0	0.0	null	null	null	null	null	null	null	null	null	null	null	null	null	null	null	null	null	null	null	
Fri Jun 02 20:10:00 UTC 2017	7.0	null	52203.22265625	null	null	953.1502685546875	null	null	8244.810546875	null	null	null	null	1702.1468505859375	1994.469970703125	0.07175000011920929	0.050999999046325684	0.05274999886751175	0.9909999966621399	0.6633919477462769	3.0	244.0	371.0	0.0	0.0	0.0	0.0	0.0	0.0	null	null	null	null	null	null	null	null	null	null	null	null	null	null	null	null	null	null	null	
Fri Jun 02 20:09:00 UTC 2017	4.0	null	7765.90478515625	null	null	140.0727996826172	null	null	8244.810546875	null	null	null	null	1702.1468505859375	1994.469970703125	0.07150000333786011	0.05575000122189522	0.057500001043081284	0.9915000200271606	0.6633748412132263	3.0	244.0	371.0	0.0	0.0	0.0	0.0	0.0	0.0	null	null	null	null	null	null	null	null	null	null	null	null	null	null	null	null	null	null	null	
Fri Jun 02 20:08:00 UTC 2017	1.0	null	8160069.5	null	null	138539.609375	null	null	8244.810546875	null	null	null	null	751511.6875	1889816.375	0.0807500034570694	0.0820000022649765	0.10575000196695328	0.9769999980926514	0.6633464694023132	3.0	244.0	371.0	0.0	0.0	0.0	0.0	0.0	0.0	null	null	null	null	null	null	null	null	null	null	null	null	null	null	null	null	null	null	null	
Fri Jun 02 20:07:00 UTC 2017	158.0	null	8160069.5	null	null	138539.609375	null	null	18487.322265625	null	null	null	null	1509547.125	1604903.0	0.07450000196695328	0.14249999821186066	0.14675000309944153	0.9577500224113464	0.6634340286254883	0.0	244.0	371.0	0.0	0.0	0.0	0.0	0.0	0.0	null	null	null	null	null	null	null	null	null	null	null	null	null	null	null	null	null	null	null	
Fri Jun 02 20:06:00 UTC 2017	373.0	null	8527636.0	null	null	138539.609375	null	null	19516.98046875	null	null	null	null	1509547.125	1604903.0	0.07249999791383743	0.13500000536441803	0.15800000727176666	0.9580000042915344	0.6630651354789734	600.0	244.0	371.0	0.0	0.0	0.0	0.0	0.0	0.0	null	null	null	null	null	null	null	null	null	null	null	null	null	null	null	null	null	null	null	
Fri Jun 02 20:05:00 UTC 2017	382.0	null	8589119.0	null	null	132709.640625	null	null	20119.6640625	null	null	null	null	1509547.125	1604903.0	0.08224999904632568	0.13975000381469727	0.1497499942779541	0.9595000147819519	0.6647653579711914	600.0	244.0	371.0	0.0	0.0	0.0	0.0	0.0	0.0	null	null	null	null	null	null	null	null	null	null	null	null	null	null	null	null	null	null	null	
Fri Jun 02 20:04:00 UTC 2017	365.0	null	8589119.0	null	null	136403.921875	null	null	21492.9609375	null	null	null	null	1613361.5	1646782.5	0.07074999809265137	0.12999999523162842	0.1577499955892563	0.9577500224113464	0.6645755171775818	600.0	244.0	371.0	0.0	0.0	0.0	0.0	0.0	0.0	null	null	null	null	null	null	null	null	null	null	null	null	null	null	null	null	null	null	null	
Fri Jun 02 20:03:00 UTC 2017	378.0	null	8149311.0	null	null	136403.921875	null	null	17463.80859375	null	null	null	null	1613361.5	1646782.5	0.06400000303983688	0.14174999296665192	0.15725000202655792	0.9577500224113464	0.664366602897644	500.0	244.0	371.0	0.0	0.0	0.0	0.0	0.0	0.0	null	null	null	null	null	null	null	null	null	null	null	null	null	null	null	null	null	null	null	
Fri Jun 02 20:02:00 UTC 2017	383.0	null	8149311.0	null	null	136403.921875	null	null	17463.80859375	null	null	null	null	1613361.5	1646782.5	0.08275000005960464	0.13075000047683716	0.15199999511241913	0.9585000276565552	0.6613296866416931	500.0	244.0	371.0	0.0	0.0	0.0	0.0	0.0	0.0	null	null	null	null	null	null	null	null	null	null	null	null	null	null	null	null	null	null	null	
Fri Jun 02 20:01:00 UTC 2017	371.0	null	8149311.0	null	null	129654.4609375	null	null	17463.80859375	null	null	null	null	1613361.5	1646782.5	0.09650000184774399	0.12075000256299973	0.13950000703334808	0.9597499966621399	0.6621614694595337	500.0	244.0	371.0	0.0	0.0	0.0	0.0	0.0	0.0	null	null	null	null	null	null	null	null	null	null	null	null	null	null	null	null	null	null	null	
Fri Jun 02 20:00:00 UTC 2017	360.0	null	7929995.0	null	null	131053.125	null	null	17463.80859375	null	null	null	null	1595800.75	null	0.10999999940395355	0.12300000339746475	0.14425000548362732	0.9592499732971191	0.6604220867156982	400.0	244.0	371.0	0.0	0.0	0.0	0.0	0.0	0.0	null	null	null	null	null	null	null	null	null	null	null	null	null	null	null	null	null	null	null	
Fri Jun 02 19:59:00 UTC 2017	366.0	null	8254758.0	null	null	126962.2890625	null	null	19504.109375	null	null	null	null	1595800.75	null	0.06949999928474426	0.12224999815225601	0.14474999904632568	0.9605000019073486	0.6625690460205078	400.0	244.0	371.0	0.0	0.0	0.0	0.0	0.0	0.0	null	null	null	null	null	null	null	null	null	null	null	null	null	null	null	null	null	null	null	
Fri Jun 02 19:58:00 UTC 2017	370.0	null	8254758.0	null	null	126962.2890625	null	null	19504.109375	null	null	null	null	1597672.625	null	0.07874999940395355	0.11025000363588333	0.14225000143051147	0.9589999914169312	0.6601417660713196	400.0	244.0	371.0	0.0	0.0	0.0	0.0	0.0	0.0	null	null	null	null	null	null	null	null	null	null	null	null	null	null	null	null	null	null	null	
Fri Jun 02 19:57:00 UTC 2017	367.0	null	7984409.5	null	null	126962.2890625	null	null	20592.677734375	null	null	null	null	1597672.625	null	0.06300000101327896	0.11749999970197678	0.1354999989271164	0.9567499756813049	0.6599602103233337	350.0	244.0	371.0	0.0	0.0	0.0	0.0	0.0	0.0	null	null	null	null	null	null	null	null	null	null	null	null	null	null	null	null	null	null	null	
Fri Jun 02 19:56:00 UTC 2017	358.0	null	7486121.0	null	null	124673.609375	null	null	19167.560546875	null	null	null	null	1597672.625	null	0.07450000196695328	0.10275000333786011	0.13875000178813934	0.9582499861717224	0.6596969962120056	350.0	244.0	371.0	0.0	0.0	0.0	0.0	0.0	0.0	null	null	null	null	null	null	null	null	null	null	null	null	null	null	null	null	null	null	null	
Fri Jun 02 19:55:00 UTC 2017	356.0	null	7486121.0	null	null	139215.890625	null	null	19851.931640625	null	null	null	null	1532733.125	1593758.0	0.08150000125169754	0.10700000077486038	0.13474999368190765	0.9580000042915344	0.6598237156867981	350.0	244.0	371.0	0.0	0.0	0.0	0.0	0.0	0.0	null	null	null	null	null	null	null	null	null	null	null	null	null	null	null	null	null	null	null	
Fri Jun 02 19:54:00 UTC 2017	378.0	null	7486121.0	null	null	133456.921875	null	null	19843.3046875	null	null	null	null	1532733.125	1593758.0	0.0767500028014183	0.10925000160932541	0.13375000655651093	0.9599999785423279	0.6595580577850342	300.0	244.0	371.0	0.0	0.0	0.0	0.0	0.0	0.0	null	null	null	null	null	null	null	null	null	null	null	null	null	null	null	null	null	null	null	
Fri Jun 02 19:53:00 UTC 2017	357.0	null	7486121.0	null	null	112298.953125	null	null	20985.576171875	null	null	null	null	1651308.625	null	0.06549999862909317	0.10350000113248825	0.1237500011920929	0.9632499814033508	0.65921950340271	300.0	244.0	371.0	0.0	0.0	0.0	0.0	0.0	0.0	null	null	null	null	null	null	null	null	null	null	null	null	null	null	null	null	null	null	null	
Fri Jun 02 19:52:00 UTC 2017	343.0	null	7769828.5	null	null	120668.015625	null	null	20985.576171875	null	null	null	null	1651308.625	null	0.07649999856948853	0.08900000154972076	0.13375000655651093	0.9592499732971191	0.6591886281967163	300.0	244.0	371.0	0.0	0.0	0.0	0.0	0.0	0.0	null	null	null	null	null	null	null	null	null	null	null	null	null	null	null	null	null	null	null	
Fri Jun 02 19:51:00 UTC 2017	374.0	null	7769828.5	null	null	121370.6484375	null	null	20985.576171875	null	null	null	null	1568330.125	null	0.09849999845027924	0.09525000303983688	0.1315000057220459	0.9582499861717224	0.6597958207130432	250.0	244.0	371.0	0.0	0.0	0.0	0.0	0.0	0.0	null	null	null	null	null	null	null	null	null	null	null	null	null	null	null	null	null	null	null	
Fri Jun 02 19:50:00 UTC 2017	359.0	null	7769828.5	null	null	121370.6484375	null	null	20356.671875	null	null	null	null	1601510.125	null	0.07199999690055847	0.09200000017881393	0.13099999725818634	0.9599999785423279	0.6587663888931274	250.0	244.0	371.0	0.0	0.0	0.0	0.0	0.0	0.0	null	null	null	null	null	null	null	null	null	null	null	null	null	null	null	null	null	null	null	
Fri Jun 02 19:49:00 UTC 2017	363.0	null	7682008.5	null	null	114437.9609375	null	null	17156.67578125	null	null	null	null	1597635.5	1310546.0	0.07100000232458115	0.09149999916553497	0.12049999833106995	0.9610000252723694	0.6608418822288513	250.0	244.0	371.0	0.0	0.0	0.0	0.0	0.0	0.0	null	null	null	null	null	null	null	null	null	null	null	null	null	null	null	null	null	null	null	
Fri Jun 02 19:48:00 UTC 2017	353.0	null	6819455.5	null	null	112598.3125	null	null	17156.67578125	null	null	null	null	1364217.875	1310546.0	0.0729999989271164	0.08699999749660492	0.11824999749660492	0.9622499942779541	0.6583231091499329	200.0	244.0	371.0	0.0	0.0	0.0	0.0	0.0	0.0	null	null	null	null	null	null	null	null	null	null	null	null	null	null	null	null	null	null	null	
Fri Jun 02 19:47:00 UTC 2017	319.0	null	6075179.5	null	null	55145.57421875	null	null	15762.078125	null	null	null	null	1238420.25	null	0.06925000250339508	0.08425000309944153	0.1145000010728836	0.9647499918937683	0.6605350971221924	200.0	244.0	371.0	0.0	0.0	0.0	0.0	0.0	0.0	null	null	null	null	null	null	null	null	null	null	null	null	null	null	null	null	null	null	null	
Fri Jun 02 19:46:00 UTC 2017	277.0	null	6392649.5	null	null	55145.57421875	null	null	15762.078125	null	null	null	null	1238420.25	null	0.07374999672174454	0.07625000178813934	0.11050000041723251	0.956250011920929	0.6579762101173401	200.0	244.0	371.0	0.0	0.0	0.0	0.0	0.0	0.0	null	null	null	null	null	null	null	null	null	null	null	null	null	null	null	null	null	null	null	
Fri Jun 02 19:45:00 UTC 2017	297.0	null	4783476.0	null	null	55145.57421875	null	null	14821.31640625	null	null	null	null	1072703.75	null	0.08399999886751175	0.07800000160932541	0.1014999970793724	0.9660000205039978	0.6579287648200989	150.0	244.0	371.0	0.0	0.0	0.0	0.0	0.0	0.0	null	null	null	null	null	null	null	null	null	null	null	null	null	null	null	null	null	null	null	
Fri Jun 02 19:44:00 UTC 2017	246.0	null	4783476.0	null	null	55145.57421875	null	null	8500.5185546875	null	null	null	null	480177.53125	488121.25	0.06975000351667404	0.0729999989271164	0.1042499989271164	0.9697499871253967	0.6575779914855957	150.0	244.0	371.0	0.0	0.0	0.0	0.0	0.0	0.0	null	null	null	null	null	null	null	null	null	null	null	null	null	null	null	null	null	null	null	
Fri Jun 02 19:43:00 UTC 2017	230.0	null	4213876.5	null	null	55145.57421875	null	null	8500.5185546875	null	null	null	null	480177.53125	488121.25	0.0702499970793724	0.06475000083446503	0.08900000154972076	0.9695000052452087	0.6573881506919861	150.0	244.0	371.0	0.0	0.0	0.0	0.0	0.0	0.0	null	null	null	null	null	null	null	null	null	null	null	null	null	null	null	null	null	null	null	
Fri Jun 02 19:42:00 UTC 2017	193.0	null	1800267.5	null	null	50644.21875	null	null	8500.5185546875	null	null	null	null	480177.53125	488121.25	0.07724999636411667	0.07199999690055847	0.08474999666213989	0.9750000238418579	0.6572452783584595	100.0	244.0	371.0	0.0	0.0	0.0	0.0	0.0	0.0	null	null	null	null	null	null	null	null	null	null	null	null	null	null	null	null	null	null	null	
Fri Jun 02 19:41:00 UTC 2017	170.0	null	1800267.5	null	null	40206.45703125	null	null	8500.5185546875	null	null	null	null	480177.53125	488121.25	0.10400000214576721	0.05950000137090683	0.07975000143051147	0.9789999723434448	0.657077431678772	100.0	244.0	371.0	0.0	0.0	0.0	0.0	0.0	0.0	null	null	null	null	null	null	null	null	null	null	null	null	null	null	null	null	null	null	null	
Fri Jun 02 19:40:00 UTC 2017	131.0	null	1800267.5	null	null	28846.419921875	null	null	5915.46142578125	null	null	null	null	268392.625	471533.21875	0.06750000268220901	0.06350000202655792	0.07100000232458115	0.9827499985694885	0.6569604873657227	100.0	244.0	371.0	0.0	0.0	0.0	0.0	0.0	0.0	null	null	null	null	null	null	null	null	null	null	null	null	null	null	null	null	null	null	null	
Fri Jun 02 19:39:00 UTC 2017	95.0	null	1800267.5	null	null	26643.990234375	null	null	5915.46142578125	null	null	null	null	268392.625	471533.21875	0.07649999856948853	0.05550000071525574	0.07225000113248825	0.9825000166893005	0.6566703915596008	50.0	244.0	371.0	0.0	0.0	0.0	0.0	0.0	0.0	null	null	null	null	null	null	null	null	null	null	null	null	null	null	null	null	null	null	null	
Fri Jun 02 19:38:00 UTC 2017	88.0	null	589791.0625	null	null	10929.796875	null	null	4482.77099609375	null	null	null	null	112283.3046875	null	0.07699999958276749	0.05400000140070915	0.06199999898672104	0.9857500195503235	0.656542181968689	50.0	244.0	371.0	0.0	0.0	0.0	0.0	0.0	0.0	null	null	null	null	null	null	null	null	null	null	null	null	null	null	null	null	null	null	null	
Fri Jun 02 19:37:00 UTC 2017	54.0	null	589791.0625	null	null	10929.796875	null	null	2527.072265625	null	null	null	null	112283.3046875	null	0.07000000029802322	0.05874999985098839	0.061250001192092896	0.987500011920929	0.6572169065475464	50.0	244.0	371.0	0.0	0.0	0.0	0.0	0.0	0.0	null	null	null	null	null	null	null	null	null	null	null	null	null	null	null	null	null	null	null	
Fri Jun 02 19:36:00 UTC 2017	39.0	null	589791.0625	null	null	8157.2734375	null	null	1064.37109375	null	null	null	null	112283.3046875	null	0.06925000250339508	0.05000000074505806	0.05400000140070915	0.9877499938011169	0.6560534238815308	20.0	244.0	371.0	0.0	0.0	0.0	0.0	0.0	0.0	null	null	null	null	null	null	null	null	null	null	null	null	null	null	null	null	null	null	null	
Fri Jun 02 19:35:00 UTC 2017	39.0	null	589791.0625	null	null	8157.2734375	null	null	1064.37109375	null	null	null	null	112283.3046875	null	0.0729999989271164	0.05674999952316284	0.05225000157952309	0.9860000014305115	0.6559237241744995	20.0	244.0	371.0	0.0	0.0	0.0	0.0	0.0	0.0	null	null	null	null	null	null	null	null	null	null	null	null	null	null	null	null	null	null	null	
Fri Jun 02 19:34:00 UTC 2017	31.0	null	312350.34375	null	null	5397.70556640625	null	null	1064.37109375	null	null	null	null	85539.0390625	80318.5078125	0.07699999958276749	0.05000000074505806	0.054749999195337296	0.987500011920929	0.6556492447853088	20.0	244.0	371.0	0.0	0.0	0.0	0.0	0.0	0.0	null	null	null	null	null	null	null	null	null	null	null	null	null	null	null	null	null	null	null	
Fri Jun 02 19:33:00 UTC 2017	22.0	null	312350.34375	null	null	5397.70556640625	null	null	1064.37109375	null	null	null	null	98830.4375	80318.5078125	0.0742499977350235	0.05274999886751175	0.051750000566244125	0.9890000224113464	0.6578421592712402	10.0	244.0	371.0	0.0	0.0	0.0	0.0	0.0	0.0	null	null	null	null	null	null	null	null	null	null	null	null	null	null	null	null	null	null	null	
Fri Jun 02 19:32:00 UTC 2017	22.0	null	312350.34375	null	null	4466.728515625	null	null	1064.37109375	null	null	null	null	34229.58984375	null	0.06825000047683716	0.048250000923871994	0.04899999871850014	0.9877499938011169	0.6554291248321533	10.0	244.0	371.0	0.0	0.0	0.0	0.0	0.0	0.0	null	null	null	null	null	null	null	null	null	null	null	null	null	null	null	null	null	null	null	
Fri Jun 02 19:31:00 UTC 2017	17.0	null	189988.3125	null	null	2455.431640625	null	null	583.1602783203125	null	null	null	null	34229.58984375	null	0.10074999928474426	0.05550000071525574	0.05400000140070915	0.9877499938011169	0.6551883816719055	10.0	244.0	371.0	0.0	0.0	0.0	0.0	0.0	0.0	null	null	null	null	null	null	null	null	null	null	null	null	null	null	null	null	null	null	null	
Fri Jun 02 19:30:00 UTC 2017	11.0	null	120081.578125	null	null	2455.431640625	null	null	583.1602783203125	null	null	null	null	34229.58984375	null	0.06599999964237213	0.04774999991059303	0.04699999839067459	0.9902499914169312	0.6550865769386292	5.0	244.0	371.0	0.0	0.0	0.0	0.0	0.0	0.0	null	null	null	null	null	null	null	null	null	null	null	null	null	null	null	null	null	null	null	
Fri Jun 02 19:29:00 UTC 2017	11.0	null	120081.578125	null	null	1833.8670654296875	null	null	583.1602783203125	null	null	null	null	15637.5263671875	25456.236328125	0.07800000160932541	0.05674999952316284	0.0494999997317791	0.9904999732971191	0.655023992061615	5.0	244.0	371.0	0.0	0.0	0.0	0.0	0.0	0.0	null	null	null	null	null	null	null	null	null	null	null	null	null	null	null	null	null	null	null	
Fri Jun 02 19:28:00 UTC 2017	7.0	null	7515821.0	null	null	1300.10302734375	null	null	416.9903564453125	null	null	null	null	15637.5263671875	25456.236328125	0.06825000047683716	0.051500000059604645	0.048500001430511475	0.9907500147819519	0.6548864841461182	5.0	244.0	371.0	0.0	0.0	0.0	0.0	0.0	0.0	null	null	null	null	null	null	null	null	null	null	null	null	null	null	null	null	null	null	null	
Fri Jun 02 19:27:00 UTC 2017	6.0	null	7515821.0	null	null	1263.817138671875	null	null	416.9903564453125	null	null	null	null	17472.21484375	18765.390625	0.07724999636411667	0.04724999889731407	0.048250000923871994	0.9907500147819519	0.6548498272895813	3.0	244.0	371.0	0.0	0.0	0.0	0.0	0.0	0.0	null	null	null	null	null	null	null	null	null	null	null	null	null	null	null	null	null	null	null	
Fri Jun 02 19:26:00 UTC 2017	5.0	null	7515821.0	null	null	97466.8828125	null	null	75.29011535644531	null	null	null	null	1417207.0	1377177.0	0.0742499977350235	0.051249999552965164	0.05624999850988388	0.9909999966621399	0.6548248529434204	3.0	244.0	371.0	0.0	0.0	0.0	0.0	0.0	0.0	null	null	null	null	null	null	null	null	null	null	null	null	null	null	null	null	null	null	null	
Fri Jun 02 19:25:00 UTC 2017	3.0	null	7515821.0	null	null	97466.8828125	null	null	75.29011535644531	null	null	null	null	1417207.0	1377177.0	0.07124999910593033	0.05674999952316284	0.07249999791383743	0.9907500147819519	0.6548082232475281	3.0	244.0	371.0	0.0	0.0	0.0	0.0	0.0	0.0	null	null	null	null	null	null	null	null	null	null	null	null	null	null	null	null	null	null	null	
Fri Jun 02 19:24:00 UTC 2017	1.0	null	7515821.0	null	null	97466.8828125	null	null	16511.1171875	null	null	null	null	1417207.0	1377177.0	0.08500000089406967	0.12099999934434891	0.14225000143051147	0.9480000138282776	0.6548248529434204	0.0	244.0	371.0	0.0	0.0	0.0	0.0	0.0	0.0	null	null	null	null	null	null	null	null	null	null	null	null	null	null	null	null	null	null	null	
Fri Jun 02 19:23:00 UTC 2017	326.0	null	7515821.0	null	null	132809.59375	null	null	17961.498046875	null	null	null	null	1628580.625	1633992.5	0.07699999958276749	0.13975000381469727	0.15649999678134918	0.9577500224113464	0.6547074317932129	0.0	244.0	371.0	0.0	0.0	0.0	0.0	0.0	0.0	null	null	null	null	null	null	null	null	null	null	null	null	null	null	null	null	null	null	null	
Fri Jun 02 19:22:00 UTC 2017	372.0	null	7515821.0	null	null	128721.1171875	null	null	17961.498046875	null	null	null	null	1628580.625	1633992.5	0.07374999672174454	0.1367499977350235	0.1574999988079071	0.9549999833106995	0.6568509340286255	600.0	244.0	371.0	0.0	0.0	0.0	0.0	0.0	0.0	null	null	null	null	null	null	null	null	null	null	null	null	null	null	null	null	null	null	null	
Fri Jun 02 19:21:00 UTC 2017	379.0	null	7515821.0	null	null	114522.2578125	null	null	17961.498046875	null	null	null	null	1654067.0	1407157.875	0.10275000333786011	0.13975000381469727	0.15449999272823334	0.9602500200271606	0.6543532013893127	600.0	244.0	371.0	0.0	0.0	0.0	0.0	0.0	0.0	null	null	null	null	null	null	null	null	null	null	null	null	null	null	null	null	null	null	null	
Fri Jun 02 19:20:00 UTC 2017	367.0	null	7571576.5	null	null	114522.2578125	null	null	17964.140625	null	null	null	null	1834263.625	1390748.875	0.06750000268220901	0.13750000298023224	0.1525000035762787	0.9587500095367432	0.6541882753372192	600.0	244.0	371.0	0.0	0.0	0.0	0.0	0.0	0.0	null	null	null	null	null	null	null	null	null	null	null	null	null	null	null	null	null	null	null	
Fri Jun 02 19:19:00 UTC 2017	352.0	null	7571576.5	null	null	114522.2578125	null	null	20390.8828125	null	null	null	null	1420471.0	1493917.75	0.07575000077486038	0.13449999690055847	0.15150000154972076	0.9589999914169312	0.6540111899375916	500.0	244.0	371.0	0.0	0.0	0.0	0.0	0.0	0.0	null	null	null	null	null	null	null	null	null	null	null	null	null	null	null	null	null	null	null	
Fri Jun 02 19:18:00 UTC 2017	359.0	null	7992648.5	null	null	119604.484375	null	null	20390.8828125	null	null	null	null	1420471.0	1493917.75	0.06674999743700027	0.13175000250339508	0.1459999978542328	0.9559999704360962	0.6561840176582336	500.0	244.0	371.0	0.0	0.0	0.0	0.0	0.0	0.0	null	null	null	null	null	null	null	null	null	null	null	null	null	null	null	null	null	null	null	
Fri Jun 02 19:17:00 UTC 2017	371.0	null	7365704.0	null	null	130532.25	null	null	20916.234375	null	null	null	null	1420471.0	1493917.75	0.07774999737739563	0.11599999666213989	0.14824999868869781	0.9549999833106995	0.6536955833435059	500.0	244.0	371.0	0.0	0.0	0.0	0.0	0.0	0.0	null	null	null	null	null	null	null	null	null	null	null	null	null	null	null	null	null	null	null	
Fri Jun 02 19:16:00 UTC 2017	364.0	null	7365704.0	null	null	130532.25	null	null	20562.279296875	null	null	null	null	1420471.0	1493917.75	0.06875000149011612	0.12600000202655792	0.1457500010728836	0.9580000042915344	0.6535101532936096	400.0	244.0	371.0	0.0	0.0	0.0	0.0	0.0	0.0	null	null	null	null	null	null	null	null	null	null	null	null	null	null	null	null	null	null	null	
Fri Jun 02 19:15:00 UTC 2017	358.0	null	7365704.0	null	null	130532.25	null	null	19107.57421875	null	null	null	null	1574826.0	1565560.75	0.07575000077486038	0.1132500022649765	0.13750000298023224	0.9599999785423279	0.653261125087738	400.0	244.0	371.0	0.0	0.0	0.0	0.0	0.0	0.0	null	null	null	null	null	null	null	null	null	null	null	null	null	null	null	null	null	null	null	
Fri Jun 02 19:14:00 UTC 2017	363.0	null	8304521.5	null	null	130532.25	null	null	20531.72265625	null	null	null	null	1574826.0	1565560.75	0.07175000011920929	0.11699999868869781	0.14350000023841858	0.9580000042915344	0.653176486492157	400.0	244.0	371.0	0.0	0.0	0.0	0.0	0.0	0.0	null	null	null	null	null	null	null	null	null	null	null	null	null	null	null	null	null	null	null	
Fri Jun 02 19:13:00 UTC 2017	374.0	null	7717315.0	null	null	136530.234375	null	null	20531.72265625	null	null	null	null	1606562.625	1565560.75	0.06750000268220901	0.11299999803304672	0.14274999499320984	0.9572499990463257	0.6528447866439819	350.0	244.0	371.0	0.0	0.0	0.0	0.0	0.0	0.0	null	null	null	null	null	null	null	null	null	null	null	null	null	null	null	null	null	null	null	
Fri Jun 02 19:12:00 UTC 2017	371.0	null	7695089.0	null	null	113981.7421875	null	null	19418.033203125	null	null	null	null	1504851.5	1631406.875	0.07774999737739563	0.10875000059604645	0.1274999976158142	0.9577500224113464	0.6525565981864929	350.0	244.0	371.0	0.0	0.0	0.0	0.0	0.0	0.0	null	null	null	null	null	null	null	null	null	null	null	null	null	null	null	null	null	null	null	
Fri Jun 02 19:11:00 UTC 2017	354.0	null	7695089.0	null	null	111543.53125	null	null	20183.541015625	null	null	null	null	1504851.5	1631406.875	0.0949999988079071	0.10525000095367432	0.1340000033378601	0.9607499837875366	0.6523990631103516	350.0	244.0	371.0	0.0	0.0	0.0	0.0	0.0	0.0	null	null	null	null	null	null	null	null	null	null	null	null	null	null	null	null	null	null	null	
Fri Jun 02 19:10:00 UTC 2017	368.0	null	7558032.5	null	null	111543.53125	null	null	20183.541015625	null	null	null	null	1504851.5	1631406.875	0.07175000011920929	0.1042499989271164	0.13875000178813934	0.9599999785423279	0.6539646983146667	300.0	244.0	371.0	0.0	0.0	0.0	0.0	0.0	0.0	null	null	null	null	null	null	null	null	null	null	null	null	null	null	null	null	null	null	null	
Fri Jun 02 19:09:00 UTC 2017	350.0	null	7558032.5	null	null	111543.53125	null	null	18937.111328125	null	null	null	null	1454376.875	null	0.07124999910593033	0.09749999642372131	0.1274999976158142	0.9622499942779541	0.6522263288497925	300.0	244.0	371.0	0.0	0.0	0.0	0.0	0.0	0.0	null	null	null	null	null	null	null	null	null	null	null	null	null	null	null	null	null	null	null	
Fri Jun 02 19:08:00 UTC 2017	362.0	null	7558032.5	null	null	120863.8984375	null	null	18937.111328125	null	null	null	null	1454376.875	null	0.08025000244379044	0.10000000149011612	0.12600000202655792	0.9599999785423279	0.6519405841827393	300.0	244.0	371.0	0.0	0.0	0.0	0.0	0.0	0.0	null	null	null	null	null	null	null	null	null	null	null	null	null	null	null	null	null	null	null	
Fri Jun 02 19:07:00 UTC 2017	358.0	null	7974525.0	null	null	120863.8984375	null	null	18886.837890625	null	null	null	null	1339620.75	null	0.07000000029802322	0.09775000065565109	0.12725000083446503	0.9614999890327454	0.651761531829834	250.0	244.0	371.0	0.0	0.0	0.0	0.0	0.0	0.0	null	null	null	null	null	null	null	null	null	null	null	null	null	null	null	null	null	null	null	
Fri Jun 02 19:06:00 UTC 2017	339.0	null	7974525.0	null	null	120863.8984375	null	null	19151.125	null	null	null	null	1604359.0	null	0.06849999725818634	0.09200000017881393	0.12475000321865082	0.9595000147819519	0.6516166925430298	250.0	244.0	371.0	0.0	0.0	0.0	0.0	0.0	0.0	null	null	null	null	null	null	null	null	null	null	null	null	null	null	null	null	null	null	null	
Fri Jun 02 19:05:00 UTC 2017	372.0	null	7974525.0	null	null	117115.765625	null	null	16071.2353515625	null	null	null	null	1186463.25	null	0.07374999672174454	0.08275000005960464	0.12825000286102295	0.9559999704360962	0.653514564037323	250.0	244.0	371.0	0.0	0.0	0.0	0.0	0.0	0.0	null	null	null	null	null	null	null	null	null	null	null	null	null	null	null	null	null	null	null	
Fri Jun 02 19:04:00 UTC 2017	365.0	null	6960003.5	null	null	117115.765625	null	null	16071.2353515625	null	null	null	null	1186463.25	null	0.07199999690055847	0.08449999988079071	0.125	0.9620000123977661	0.6512801051139832	200.0	244.0	371.0	0.0	0.0	0.0	0.0	0.0	0.0	null	null	null	null	null	null	null	null	null	null	null	null	null	null	null	null	null	null	null	
Fri Jun 02 19:03:00 UTC 2017	324.0	null	4424586.0	null	null	96237.0234375	null	null	16071.2353515625	null	null	null	null	1186463.25	null	0.07925000041723251	0.08349999785423279	0.10649999976158142	0.9632499814033508	0.6510525941848755	200.0	244.0	371.0	0.0	0.0	0.0	0.0	0.0	0.0	null	null	null	null	null	null	null	null	null	null	null	null	null	null	null	null	null	null	null	
Fri Jun 02 19:02:00 UTC 2017	291.0	null	4424586.0	null	null	93501.1875	null	null	10435.2080078125	null	null	null	null	1186463.25	null	0.07175000011920929	0.07850000262260437	0.1120000034570694	0.9620000123977661	0.6513471007347107	200.0	244.0	371.0	0.0	0.0	0.0	0.0	0.0	0.0	null	null	null	null	null	null	null	null	null	null	null	null	null	null	null	null	null	null	null	
Fri Jun 02 19:01:00 UTC 2017	279.0	null	4424586.0	null	null	43812.64453125	null	null	10435.2080078125	null	null	null	null	1017063.0625	null	0.09300000220537186	0.07124999910593033	0.1054999977350235	0.9652500152587891	0.6502252221107483	150.0	244.0	371.0	0.0	0.0	0.0	0.0	0.0	0.0	null	null	null	null	null	null	null	null	null	null	null	null	null	null	null	null	null	null	null	
Fri Jun 02 19:00:00 UTC 2017	242.0	null	4424586.0	null	null	43812.64453125	null	null	10435.2080078125	null	null	null	null	844260.5625	764753.8125	0.06875000149011612	0.07349999994039536	0.09549999982118607	0.96875	0.6499521732330322	150.0	244.0	371.0	0.0	0.0	0.0	0.0	0.0	0.0	null	null	null	null	null	null	null	null	null	null	null	null	null	null	null	null	null	null	null	
Fri Jun 02 18:59:00 UTC 2017	210.0	null	2940414.75	null	null	43812.64453125	null	null	10435.2080078125	null	null	null	null	516086.46875	null	0.07575000077486038	0.06599999964237213	0.08749999850988388	0.9677500128746033	0.649848461151123	150.0	244.0	371.0	0.0	0.0	0.0	0.0	0.0	0.0	null	null	null	null	null	null	null	null	null	null	null	null	null	null	null	null	null	null	null	
Fri Jun 02 18:58:00 UTC 2017	166.0	null	2940414.75	null	null	43812.64453125	null	null	10435.2080078125	null	null	null	null	516086.46875	null	0.07175000011920929	0.0729999989271164	0.0832500010728836	0.9775000214576721	0.6447027921676636	100.0	244.0	371.0	0.0	0.0	0.0	0.0	0.0	0.0	null	null	null	null	null	null	null	null	null	null	null	null	null	null	null	null	null	null	null	
Fri Jun 02 18:57:00 UTC 2017	146.0	null	1612633.0	null	null	27379.890625	null	null	5856.27587890625	null	null	null	null	374292.0	null	0.07249999791383743	0.054749999195337296	0.07599999755620956	0.9807500243186951	0.6452689170837402	100.0	244.0	371.0	0.0	0.0	0.0	0.0	0.0	0.0	null	null	null	null	null	null	null	null	null	null	null	null	null	null	null	null	null	null	null	
Fri Jun 02 18:56:00 UTC 2017	109.0	null	1612633.0	null	null	27379.890625	null	null	5856.27587890625	null	null	null	null	304701.0625	369646.75	0.06549999862909317	0.06525000184774399	0.06825000047683716	0.9827499985694885	0.6496160626411438	100.0	244.0	371.0	0.0	0.0	0.0	0.0	0.0	0.0	null	null	null	null	null	null	null	null	null	null	null	null	null	null	null	null	null	null	null	
Fri Jun 02 18:55:00 UTC 2017	93.0	null	1612633.0	null	null	8031.06689453125	null	null	1505.3983154296875	null	null	null	null	283410.28125	369646.75	0.07649999856948853	0.0572500005364418	0.07175000011920929	0.9837499856948853	0.6503098607063293	50.0	244.0	371.0	0.0	0.0	0.0	0.0	0.0	0.0	null	null	null	null	null	null	null	null	null	null	null	null	null	null	null	null	null	null	null	
Fri Jun 02 18:54:00 UTC 2017	76.0	null	660390.5625	null	null	8031.06689453125	null	null	1505.3983154296875	null	null	null	null	167673.609375	198142.296875	0.0689999982714653	0.05299999937415123	0.06350000202655792	0.9869999885559082	0.6515721678733826	50.0	244.0	371.0	0.0	0.0	0.0	0.0	0.0	0.0	null	null	null	null	null	null	null	null	null	null	null	null	null	null	null	null	null	null	null	
Fri Jun 02 18:53:00 UTC 2017	51.0	null	660390.5625	null	null	8031.06689453125	null	null	1505.3983154296875	null	null	null	null	40036.6328125	136016.171875	0.07975000143051147	0.052000001072883606	0.05324999988079071	0.9800000190734863	0.6522116661071777	50.0	244.0	371.0	0.0	0.0	0.0	0.0	0.0	0.0	null	null	null	null	null	null	null	null	null	null	null	null	null	null	null	null	null	null	null	
Fri Jun 02 18:52:00 UTC 2017	42.0	null	660390.5625	null	null	8031.06689453125	null	null	1505.3983154296875	null	null	null	null	40036.6328125	136016.171875	0.07175000011920929	0.054999999701976776	0.05674999952316284	0.987500011920929	0.6523794531822205	20.0	244.0	371.0	0.0	0.0	0.0	0.0	0.0	0.0	null	null	null	null	null	null	null	null	null	null	null	null	null	null	null	null	null	null	null	
Fri Jun 02 18:51:00 UTC 2017	36.0	null	439503.03125	null	null	4984.9287109375	null	null	1505.3983154296875	null	null	null	null	40036.6328125	136016.171875	0.08574999868869781	0.0560000017285347	0.054999999701976776	0.9862499833106995	0.6548292636871338	20.0	244.0	371.0	0.0	0.0	0.0	0.0	0.0	0.0	null	null	null	null	null	null	null	null	null	null	null	null	null	null	null	null	null	null	null	
Fri Jun 02 18:50:00 UTC 2017	24.0	null	298856.34375	null	null	4984.9287109375	null	null	1208.525634765625	null	null	null	null	39178.8828125	null	0.08049999922513962	0.04924999922513962	0.048500001430511475	0.9762499928474426	0.6526784300804138	20.0	244.0	371.0	0.0	0.0	0.0	0.0	0.0	0.0	null	null	null	null	null	null	null	null	null	null	null	null	null	null	null	null	null	null	null	
Fri Jun 02 18:49:00 UTC 2017	23.0	null	298856.34375	null	null	2460.7919921875	null	null	1219.935302734375	null	null	null	null	28638.5390625	null	0.06949999928474426	0.05324999988079071	0.051249999552965164	0.9897500276565552	0.6542572975158691	10.0	244.0	371.0	0.0	0.0	0.0	0.0	0.0	0.0	null	null	null	null	null	null	null	null	null	null	null	null	null	null	null	null	null	null	null	
Fri Jun 02 18:48:00 UTC 2017	17.0	null	173170.25	null	null	2460.7919921875	null	null	684.8738403320312	null	null	null	null	19434.376953125	null	0.07474999874830246	0.05274999886751175	0.04924999922513962	0.9904999732971191	0.6553552150726318	10.0	244.0	371.0	0.0	0.0	0.0	0.0	0.0	0.0	null	null	null	null	null	null	null	null	null	null	null	null	null	null	null	null	null	null	null	
Fri Jun 02 18:47:00 UTC 2017	10.0	null	152476.859375	null	null	2460.7919921875	null	null	691.1522216796875	null	null	null	null	15792.73046875	32431.16015625	0.06350000202655792	0.05050000175833702	0.0507499985396862	0.9900000095367432	0.6553728580474854	10.0	244.0	371.0	0.0	0.0	0.0	0.0	0.0	0.0	null	null	null	null	null	null	null	null	null	null	null	null	null	null	null	null	null	null	null	
Fri Jun 02 18:46:00 UTC 2017	14.0	null	152476.859375	null	null	2460.7919921875	null	null	691.1522216796875	null	null	null	null	15792.73046875	32431.16015625	0.08100000023841858	0.05400000140070915	0.048250000923871994	0.9902499914169312	0.6532479524612427	5.0	244.0	371.0	0.0	0.0	0.0	0.0	0.0	0.0	null	null	null	null	null	null	null	null	null	null	null	null	null	null	null	null	null	null	null	
Fri Jun 02 18:45:00 UTC 2017	10.0	null	103545.703125	null	null	1567.498779296875	null	null	359.3377685546875	null	null	null	null	15792.73046875	32431.16015625	0.07374999672174454	0.050999999046325684	0.0507499985396862	0.9907500147819519	0.6539779305458069	5.0	244.0	371.0	0.0	0.0	0.0	0.0	0.0	0.0	null	null	null	null	null	null	null	null	null	null	null	null	null	null	null	null	null	null	null	
Fri Jun 02 18:44:00 UTC 2017	7.0	null	103545.703125	null	null	43706.21484375	null	null	359.3377685546875	null	null	null	null	3742.835205078125	57.45570373535156	0.06925000250339508	0.04774999991059303	0.04675000160932541	0.9900000095367432	0.6551775932312012	5.0	244.0	371.0	0.0	0.0	0.0	0.0	0.0	0.0	null	null	null	null	null	null	null	null	null	null	null	null	null	null	null	null	null	null	null	
Fri Jun 02 18:43:00 UTC 2017	7.0	null	3331413.0	null	null	43706.21484375	null	null	359.3377685546875	null	null	null	null	3742.835205078125	57.45570373535156	0.07874999940395355	0.05575000122189522	0.04675000160932541	0.9904999732971191	0.6530404686927795	3.0	244.0	371.0	0.0	0.0	0.0	0.0	0.0	0.0	null	null	null	null	null	null	null	null	null	null	null	null	null	null	null	null	null	null	null	
Fri Jun 02 18:42:00 UTC 2017	5.0	null	3331413.0	null	null	43706.21484375	null	null	5693.5166015625	null	null	null	null	3742.835205078125	57.45570373535156	0.07249999791383743	0.04349999874830246	0.05974999815225601	0.9915000200271606	0.6529901027679443	3.0	244.0	371.0	0.0	0.0	0.0	0.0	0.0	0.0	null	null	null	null	null	null	null	null	null	null	null	null	null	null	null	null	null	null	null	
Fri Jun 02 18:41:00 UTC 2017	1.0	null	3331413.0	null	null	43706.21484375	null	null	5693.5166015625	null	null	null	null	1594334.5	1663649.375	0.10700000077486038	0.09274999797344208	0.11150000244379044	0.9779999852180481	0.6530517339706421	3.0	244.0	371.0	0.0	0.0	0.0	0.0	0.0	0.0	null	null	null	null	null	null	null	null	null	null	null	null	null	null	null	null	null	null	null	
Fri Jun 02 18:40:00 UTC 2017	147.0	null	8206657.5	null	null	140448.75	null	null	21604.458984375	null	null	null	null	1594334.5	1663649.375	0.06949999928474426	0.1404999941587448	0.16224999725818634	0.9559999704360962	0.6537205576896667	0.0	244.0	371.0	0.0	0.0	0.0	0.0	0.0	0.0	null	null	null	null	null	null	null	null	null	null	null	null	null	null	null	null	null	null	null	
Fri Jun 02 18:39:00 UTC 2017	385.0	null	8206657.5	null	null	122234.109375	null	null	21604.458984375	null	null	null	null	1594334.5	1663649.375	0.0767500028014183	0.1340000033378601	0.15424999594688416	0.9585000276565552	0.652346670627594	600.0	244.0	371.0	0.0	0.0	0.0	0.0	0.0	0.0	null	null	null	null	null	null	null	null	null	null	null	null	null	null	null	null	null	null	null	
Fri Jun 02 18:38:00 UTC 2017	379.0	null	8206657.5	null	null	133749.5	null	null	22423.736328125	null	null	null	null	1594334.5	1663649.375	0.0689999982714653	0.13600000739097595	0.1599999964237213	0.9557499885559082	0.6521857380867004	600.0	244.0	371.0	0.0	0.0	0.0	0.0	0.0	0.0	null	null	null	null	null	null	null	null	null	null	null	null	null	null	null	null	null	null	null	
Fri Jun 02 18:37:00 UTC 2017	386.0	null	7354794.0	null	null	120083.3359375	null	null	22423.736328125	null	null	null	null	1430338.375	null	0.07150000333786011	0.1404999941587448	0.15649999678134918	0.9480000138282776	0.654247522354126	600.0	244.0	371.0	0.0	0.0	0.0	0.0	0.0	0.0	null	null	null	null	null	null	null	null	null	null	null	null	null	null	null	null	null	null	null	
Fri Jun 02 18:36:00 UTC 2017	340.0	null	7570490.5	null	null	125472.7109375	null	null	19860.2890625	null	null	null	null	1493767.625	null	0.07325000315904617	0.13600000739097595	0.15449999272823334	0.9585000276565552	0.6524264216423035	500.0	244.0	371.0	0.0	0.0	0.0	0.0	0.0	0.0	null	null	null	null	null	null	null	null	null	null	null	null	null	null	null	null	null	null	null	
Fri Jun 02 18:35:00 UTC 2017	373.0	null	7570490.5	null	null	133701.21875	null	null	19860.2890625	null	null	null	null	1600241.375	1531306.25	0.07275000214576721	0.12575000524520874	0.14824999868869781	0.9580000042915344	0.6515344977378845	500.0	244.0	371.0	0.0	0.0	0.0	0.0	0.0	0.0	null	null	null	null	null	null	null	null	null	null	null	null	null	null	null	null	null	null	null	
Fri Jun 02 18:34:00 UTC 2017	339.0	null	7566091.5	null	null	133701.21875	null	null	19860.2890625	null	null	null	null	1586739.25	1531306.25	0.07925000041723251	0.12675000727176666	0.14749999344348907	0.9577500224113464	0.6512037515640259	500.0	244.0	371.0	0.0	0.0	0.0	0.0	0.0	0.0	null	null	null	null	null	null	null	null	null	null	null	null	null	null	null	null	null	null	null	
Fri Jun 02 18:33:00 UTC 2017	357.0	null	7566091.5	null	null	122849.875	null	null	19860.2890625	null	null	null	null	1385501.875	1462287.125	0.06700000166893005	0.12049999833106995	0.14024999737739563	0.9587500095367432	0.6510046124458313	400.0	244.0	371.0	0.0	0.0	0.0	0.0	0.0	0.0	null	null	null	null	null	null	null	null	null	null	null	null	null	null	null	null	null	null	null	
Fri Jun 02 18:32:00 UTC 2017	350.0	null	7566091.5	null	null	122849.875	null	null	19860.2890625	null	null	null	null	1385501.875	1462287.125	0.08275000005960464	0.11949999630451202	0.14374999701976776	0.9580000042915344	0.6507903337478638	400.0	244.0	371.0	0.0	0.0	0.0	0.0	0.0	0.0	null	null	null	null	null	null	null	null	null	null	null	null	null	null	null	null	null	null	null	
Fri Jun 02 18:31:00 UTC 2017	375.0	null	8232590.5	null	null	122849.875	null	null	19860.2890625	null	null	null	null	1518502.375	null	0.09125000238418579	0.11500000208616257	0.14000000059604645	0.9572499990463257	0.6527400612831116	400.0	244.0	371.0	0.0	0.0	0.0	0.0	0.0	0.0	null	null	null	null	null	null	null	null	null	null	null	null	null	null	null	null	null	null	null	
Fri Jun 02 18:30:00 UTC 2017	365.0	null	8232590.5	null	null	122849.875	null	null	19086.6796875	null	null	null	null	1518502.375	null	0.07275000214576721	0.12250000238418579	0.13750000298023224	0.9585000276565552	0.6503749489784241	350.0	244.0	371.0	0.0	0.0	0.0	0.0	0.0	0.0	null	null	null	null	null	null	null	null	null	null	null	null	null	null	null	null	null	null	null	
Fri Jun 02 18:29:00 UTC 2017	372.0	null	8232590.5	null	null	122849.875	null	null	20865.66796875	null	null	null	null	1654762.75	null	0.07325000315904617	0.10875000059604645	0.1352500021457672	0.9570000171661377	0.650242805480957	350.0	244.0	371.0	0.0	0.0	0.0	0.0	0.0	0.0	null	null	null	null	null	null	null	null	null	null	null	null	null	null	null	null	null	null	null	
Fri Jun 02 18:28:00 UTC 2017	377.0	null	7959703.5	null	null	122849.875	null	null	20197.166015625	null	null	null	null	1556710.25	1576517.25	0.07050000131130219	0.10649999976158142	0.13375000655651093	0.9580000042915344	0.651329517364502	350.0	244.0	371.0	0.0	0.0	0.0	0.0	0.0	0.0	null	null	null	null	null	null	null	null	null	null	null	null	null	null	null	null	null	null	null	
Fri Jun 02 18:27:00 UTC 2017	394.0	null	7959703.5	null	null	118478.75	null	null	20048.470703125	null	null	null	null	1556710.25	1576517.25	0.08275000005960464	0.11649999767541885	0.132750004529953	0.9572499990463257	0.6497359275817871	300.0	244.0	371.0	0.0	0.0	0.0	0.0	0.0	0.0	null	null	null	null	null	null	null	null	null	null	null	null	null	null	null	null	null	null	null	
Fri Jun 02 18:26:00 UTC 2017	374.0	null	7959703.5	null	null	118478.75	null	null	19322.763671875	null	null	null	null	1556710.25	1576517.25	0.0677499994635582	0.10450000315904617	0.12950000166893005	0.9610000252723694	0.6494296789169312	300.0	244.0	371.0	0.0	0.0	0.0	0.0	0.0	0.0	null	null	null	null	null	null	null	null	null	null	null	null	null	null	null	null	null	null	null	
Fri Jun 02 18:25:00 UTC 2017	351.0	null	7959703.5	null	null	118478.75	null	null	18965.17578125	null	null	null	null	1621720.625	1624169.125	0.07450000196695328	0.09925000369548798	0.13124999403953552	0.9592499732971191	0.6492965817451477	300.0	244.0	371.0	0.0	0.0	0.0	0.0	0.0	0.0	null	null	null	null	null	null	null	null	null	null	null	null	null	null	null	null	null	null	null	
Fri Jun 02 18:24:00 UTC 2017	367.0	null	7959703.5	null	null	116230.2421875	null	null	18965.17578125	null	null	null	null	1643956.625	1624169.125	0.07500000298023224	0.09674999862909317	0.12700000405311584	0.9585000276565552	0.6488684415817261	250.0	244.0	371.0	0.0	0.0	0.0	0.0	0.0	0.0	null	null	null	null	null	null	null	null	null	null	null	null	null	null	null	null	null	null	null	
Fri Jun 02 18:23:00 UTC 2017	375.0	null	7294221.0	null	null	103867.1328125	null	null	18965.17578125	null	null	null	null	1532374.5	1400738.5	0.06424999982118607	0.09674999862909317	0.12524999678134918	0.9582499861717224	0.6509752869606018	250.0	244.0	371.0	0.0	0.0	0.0	0.0	0.0	0.0	null	null	null	null	null	null	null	null	null	null	null	null	null	null	null	null	null	null	null	
Fri Jun 02 18:22:00 UTC 2017	346.0	null	6566923.0	null	null	110824.25	null	null	17640.73828125	null	null	null	null	1348829.75	null	0.07450000196695328	0.08574999868869781	0.11275000125169754	0.9607499837875366	0.6485660672187805	250.0	244.0	371.0	0.0	0.0	0.0	0.0	0.0	0.0	null	null	null	null	null	null	null	null	null	null	null	null	null	null	null	null	null	null	null	
Fri Jun 02 18:21:00 UTC 2017	342.0	null	6566923.0	null	null	112200.203125	null	null	17725.73828125	null	null	null	null	1348829.75	null	0.10125000029802322	0.09324999898672104	0.11924999952316284	0.9622499942779541	0.6485514044761658	200.0	244.0	371.0	0.0	0.0	0.0	0.0	0.0	0.0	null	null	null	null	null	null	null	null	null	null	null	null	null	null	null	null	null	null	null	
Fri Jun 02 18:20:00 UTC 2017	311.0	null	5842549.5	null	null	84999.546875	null	null	16620.052734375	null	null	null	null	1348829.75	null	0.07275000214576721	0.0832500010728836	0.11150000244379044	0.965749979019165	0.646542489528656	200.0	244.0	371.0	0.0	0.0	0.0	0.0	0.0	0.0	null	null	null	null	null	null	null	null	null	null	null	null	null	null	null	null	null	null	null	
Fri Jun 02 18:19:00 UTC 2017	275.0	null	5842549.5	null	null	84999.546875	null	null	16641.337890625	null	null	null	null	1348829.75	null	0.07625000178813934	0.08025000244379044	0.10975000262260437	0.9605000019073486	0.6475650668144226	200.0	244.0	371.0	0.0	0.0	0.0	0.0	0.0	0.0	null	null	null	null	null	null	null	null	null	null	null	null	null	null	null	null	null	null	null	
Fri Jun 02 18:18:00 UTC 2017	286.0	null	5842549.5	null	null	84807.046875	null	null	16641.337890625	null	null	null	null	1065503.5	921902.375	0.06825000047683716	0.07575000077486038	0.10824999958276749	0.9662500023841858	0.6493685245513916	150.0	244.0	371.0	0.0	0.0	0.0	0.0	0.0	0.0	null	null	null	null	null	null	null	null	null	null	null	null	null	null	null	null	null	null	null	
Fri Jun 02 18:17:00 UTC 2017	280.0	null	4579745.5	null	null	35202.23828125	null	null	14466.328125	null	null	null	null	1065503.5	921902.375	0.06949999928474426	0.0807500034570694	0.10050000250339508	0.9710000157356262	0.6347901821136475	150.0	244.0	371.0	0.0	0.0	0.0	0.0	0.0	0.0	null	null	null	null	null	null	null	null	null	null	null	null	null	null	null	null	null	null	null	
Fri Jun 02 18:16:00 UTC 2017	232.0	null	1151796.125	null	null	35202.23828125	null	null	11302.646484375	null	null	null	null	941836.875	null	0.0742499977350235	0.07824999839067459	0.0925000011920929	0.9732499718666077	0.6341683268547058	150.0	244.0	371.0	0.0	0.0	0.0	0.0	0.0	0.0	null	null	null	null	null	null	null	null	null	null	null	null	null	null	null	null	null	null	null	
Fri Jun 02 18:15:00 UTC 2017	192.0	null	1151796.125	null	null	35202.23828125	null	null	5855.916015625	null	null	null	null	804493.125	null	0.07750000059604645	0.06549999862909317	0.08974999934434891	0.9752500057220459	0.6354154944419861	100.0	244.0	371.0	0.0	0.0	0.0	0.0	0.0	0.0	null	null	null	null	null	null	null	null	null	null	null	null	null	null	null	null	null	null	null	
Fri Jun 02 18:14:00 UTC 2017	168.0	null	1151796.125	null	null	35202.23828125	null	null	5855.916015625	null	null	null	null	288006.71875	187944.96875	0.0637499988079071	0.07175000011920929	0.07999999821186066	0.9800000190734863	0.636958122253418	100.0	244.0	371.0	0.0	0.0	0.0	0.0	0.0	0.0	null	null	null	null	null	null	null	null	null	null	null	null	null	null	null	null	null	null	null	
Fri Jun 02 18:13:00 UTC 2017	115.0	null	1151796.125	null	null	27892.0	null	null	5855.916015625	null	null	null	null	288006.71875	187944.96875	0.0807500034570694	0.057750001549720764	0.07000000029802322	0.9819999933242798	0.6379156708717346	100.0	244.0	371.0	0.0	0.0	0.0	0.0	0.0	0.0	null	null	null	null	null	null	null	null	null	null	null	null	null	null	null	null	null	null	null	
Fri Jun 02 18:12:00 UTC 2017	99.0	null	1151796.125	null	null	11609.330078125	null	null	5855.916015625	null	null	null	null	288006.71875	187944.96875	0.07175000011920929	0.06174999848008156	0.06975000351667404	0.9829999804496765	0.639246940612793	50.0	244.0	371.0	0.0	0.0	0.0	0.0	0.0	0.0	null	null	null	null	null	null	null	null	null	null	null	null	null	null	null	null	null	null	null	
Fri Jun 02 18:11:00 UTC 2017	94.0	null	1151796.125	null	null	11609.330078125	null	null	1215.136474609375	null	null	null	null	288006.71875	187944.96875	0.09974999725818634	0.057999998331069946	0.06849999725818634	0.9852499961853027	0.6410470008850098	50.0	244.0	371.0	0.0	0.0	0.0	0.0	0.0	0.0	null	null	null	null	null	null	null	null	null	null	null	null	null	null	null	null	null	null	null	
Fri Jun 02 18:10:00 UTC 2017	62.0	null	827403.0	null	null	11609.330078125	null	null	1215.136474609375	null	null	null	null	227307.984375	89858.25	0.06925000250339508	0.05824999883770943	0.0572500005364418	0.9869999885559082	0.6443417072296143	50.0	244.0	371.0	0.0	0.0	0.0	0.0	0.0	0.0	null	null	null	null	null	null	null	null	null	null	null	null	null	null	null	null	null	null	null	
Fri Jun 02 18:09:00 UTC 2017	45.0	null	827403.0	null	null	10230.63671875	null	null	1215.136474609375	null	null	null	null	227307.984375	89858.25	0.07249999791383743	0.05249999836087227	0.054499998688697815	0.9850000143051147	0.6452620625495911	20.0	244.0	371.0	0.0	0.0	0.0	0.0	0.0	0.0	null	null	null	null	null	null	null	null	null	null	null	null	null	null	null	null	null	null	null	
Fri Jun 02 18:08:00 UTC 2017	41.0	null	570419.4375	null	null	4805.5634765625	null	null	1215.136474609375	null	null	null	null	109076.953125	52454.69140625	0.07774999737739563	0.05700000002980232	0.05299999937415123	0.9884999990463257	0.6456407308578491	20.0	244.0	371.0	0.0	0.0	0.0	0.0	0.0	0.0	null	null	null	null	null	null	null	null	null	null	null	null	null	null	null	null	null	null	null	
Fri Jun 02 18:07:00 UTC 2017	29.0	null	423067.15625	null	null	4805.5634765625	null	null	1215.136474609375	null	null	null	null	109076.953125	52454.69140625	0.07074999809265137	0.05050000175833702	0.05249999836087227	0.984499990940094	0.6436826586723328	20.0	244.0	371.0	0.0	0.0	0.0	0.0	0.0	0.0	null	null	null	null	null	null	null	null	null	null	null	null	null	null	null	null	null	null	null	
Fri Jun 02 18:06:00 UTC 2017	24.0	null	371501.5625	null	null	4805.5634765625	null	null	1257.1019287109375	null	null	null	null	109447.6953125	52454.69140625	0.06875000149011612	0.05299999937415123	0.0507499985396862	0.9894999861717224	0.6440560221672058	10.0	244.0	371.0	0.0	0.0	0.0	0.0	0.0	0.0	null	null	null	null	null	null	null	null	null	null	null	null	null	null	null	null	null	null	null	
Fri Jun 02 18:05:00 UTC 2017	20.0	null	218507.796875	null	null	2480.189208984375	null	null	670.441162109375	null	null	null	null	49961.39453125	8058.94091796875	0.07175000011920929	0.05974999815225601	0.0507499985396862	0.9902499914169312	0.6458056569099426	10.0	244.0	371.0	0.0	0.0	0.0	0.0	0.0	0.0	null	null	null	null	null	null	null	null	null	null	null	null	null	null	null	null	null	null	null	
Fri Jun 02 18:04:00 UTC 2017	14.0	null	157664.3125	null	null	2480.189208984375	null	null	670.441162109375	null	null	null	null	49961.39453125	8058.94091796875	0.0689999982714653	0.05249999836087227	0.04975000023841858	0.9904999732971191	0.6446309089660645	10.0	244.0	371.0	0.0	0.0	0.0	0.0	0.0	0.0	null	null	null	null	null	null	null	null	null	null	null	null	null	null	null	null	null	null	null	
Fri Jun 02 18:03:00 UTC 2017	8.0	null	154518.03125	null	null	1851.4285888671875	null	null	670.441162109375	null	null	null	null	47740.78125	14696.5439453125	0.07400000095367432	0.0560000017285347	0.04724999889731407	0.9907500147819519	0.6468746662139893	5.0	244.0	371.0	0.0	0.0	0.0	0.0	0.0	0.0	null	null	null	null	null	null	null	null	null	null	null	null	null	null	null	null	null	null	null	
Fri Jun 02 18:02:00 UTC 2017	10.0	null	154518.03125	null	null	1851.4285888671875	null	null	472.4744873046875	null	null	null	null	36577.1328125	5015.8115234375	0.0702499970793724	0.05225000157952309	0.0494999997317791	0.9909999966621399	0.6466373801231384	5.0	244.0	371.0	0.0	0.0	0.0	0.0	0.0	0.0	null	null	null	null	null	null	null	null	null	null	null	null	null	null	null	null	null	null	null	
Fri Jun 02 18:01:00 UTC 2017	9.0	null	114433.640625	null	null	30.383806228637695	null	null	472.4744873046875	null	null	null	null	36577.1328125	5015.8115234375	0.10474999994039536	0.05299999937415123	0.05050000175833702	0.9909999966621399	0.6444625854492188	5.0	244.0	371.0	0.0	0.0	0.0	0.0	0.0	0.0	null	null	null	null	null	null	null	null	null	null	null	null	null	null	null	null	null	null	null	
Fri Jun 02 18:00:00 UTC 2017	7.0	null	91889.4453125	null	null	30.383806228637695	null	null	276.5873107910156	null	null	null	null	23031.283203125	2982.20751953125	0.05999999865889549	0.05050000175833702	0.04899999871850014	0.9909999966621399	0.6461314558982849	3.0	244.0	371.0	0.0	0.0	0.0	0.0	0.0	0.0	null	null	null	null	null	null	null	null	null	null	null	null	null	null	null	null	null	null	null	
Fri Jun 02 17:59:00 UTC 2017	6.0	null	2719.240234375	null	null	30.383806228637695	null	null	276.5873107910156	null	null	null	null	0.0	0.0	0.08624999970197678	0.051750000566244125	0.04450000077486038	0.9917500019073486	0.6443989872932434	3.0	244.0	371.0	0.0	0.0	0.0	0.0	0.0	0.0	null	null	null	null	null	null	null	null	null	null	null	null	null	null	null	null	null	null	null	
Fri Jun 02 17:58:00 UTC 2017	2.0	null	2719.240234375	null	null	30.383806228637695	null	null	45.207298278808594	null	null	null	null	0.0	0.0	0.06925000250339508	0.04600000008940697	0.07199999690055847	0.9912499785423279	0.6443730592727661	3.0	244.0	371.0	0.0	0.0	0.0	0.0	0.0	0.0	null	null	null	null	null	null	null	null	null	null	null	null	null	null	null	null	null	null	null	
Fri Jun 02 17:57:00 UTC 2017	1.0	null	2719.240234375	null	null	1.3993024826049805	null	null	45.207298278808594	null	null	null	null	0.0	0.0	0.09825000166893005	0.054999999701976776	0.05375000089406967	0.9915000200271606	0.6455003023147583	0.0	244.0	371.0	0.0	0.0	0.0	0.0	0.0	0.0	null	null	null	null	null	null	null	null	null	null	null	null	null	null	null	null	null	null	null	
Fri Jun 02 17:56:00 UTC 2017	0.0	null	2719.240234375	null	null	0.0	null	null	35.429039001464844	null	null	null	null	0.0	0.0	0.07175000011920929	0.0430000014603138	0.04650000110268593	0.9917500019073486	0.6443294882774353	0.0	244.0	371.0	0.0	0.0	0.0	0.0	0.0	0.0	null	null	null	null	null	null	null	null	null	null	null	null	null	null	null	null	null	null	null	
Fri Jun 02 17:55:00 UTC 2017	0.0	null	3207.350341796875	null	null	0.0	null	null	35.429039001464844	null	null	null	null	0.0	null	0.07774999737739563	0.054499998688697815	0.04675000160932541	0.9915000200271606	0.6443280577659607	0.0	244.0	371.0	0.0	0.0	0.0	0.0	0.0	0.0	null	null	null	null	null	null	null	null	null	null	null	null	null	null	null	null	null	null	null	
Fri Jun 02 17:54:00 UTC 2017	1.0	null	2332.256103515625	null	null	0.0	null	null	35.429039001464844	null	null	null	null	0.0	null	0.0689999982714653	0.0442500002682209	0.052000001072883606	0.9915000200271606	0.6443182229995728	0.0	244.0	371.0	0.0	0.0	0.0	0.0	0.0	0.0	null	null	null	null	null	null	null	null	null	null	null	null	null	null	null	null	null	null	null	
Fri Jun 02 17:53:00 UTC 2017	1.0	null	2622.41796875	null	null	0.0	null	null	44.61051559448242	null	null	null	null	0.0	null	0.07524999976158142	0.0494999997317791	0.04650000110268593	0.9915000200271606	0.6442198753356934	0.0	244.0	371.0	0.0	0.0	0.0	0.0	0.0	0.0	null	null	null	null	null	null	null	null	null	null	null	null	null	null	null	null	null	null	null	
Fri Jun 02 17:52:00 UTC 2017	1.0	null	2622.41796875	null	null	0.0	null	null	31.712846755981445	null	null	null	null	0.0	0.0	0.07325000315904617	0.054249998182058334	0.04450000077486038	0.9912499785423279	0.644291341304779	0.0	244.0	371.0	0.0	0.0	0.0	0.0	0.0	0.0	null	null	null	null	null	null	null	null	null	null	null	null	null	null	null	null	null	null	null	
Fri Jun 02 17:51:00 UTC 2017	1.0	null	2712.6982421875	null	null	0.0	null	null	31.712846755981445	null	null	null	null	0.0	0.0	0.1002499982714653	0.051750000566244125	0.04699999839067459	0.9835000038146973	0.6443260908126831	0.0	244.0	371.0	0.0	0.0	0.0	0.0	0.0	0.0	null	null	null	null	null	null	null	null	null	null	null	null	null	null	null	null	null	null	null	
Fri Jun 02 17:50:00 UTC 2017	1.0	null	2712.6982421875	null	null	0.0	null	null	31.712846755981445	null	null	null	null	0.0	0.0	0.06499999761581421	0.048250000923871994	0.04699999839067459	0.9912499785423279	0.644306480884552	0.0	244.0	371.0	0.0	0.0	0.0	0.0	0.0	0.0	null	null	null	null	null	null	null	null	null	null	null	null	null	null	null	null	null	null	null	
Fri Jun 02 17:49:00 UTC 2017	1.0	null	3076.724609375	null	null	0.0	null	null	31.712846755981445	null	null	null	null	0.0	0.0	0.08250000327825546	0.0507499985396862	0.0494999997317791	0.9912499785423279	0.6443055272102356	0.0	244.0	371.0	0.0	0.0	0.0	0.0	0.0	0.0	null	null	null	null	null	null	null	null	null	null	null	null	null	null	null	null	null	null	null	
Fri Jun 02 17:48:00 UTC 2017	1.0	null	2681.81005859375	null	null	0.0	null	null	31.712846755981445	null	null	null	null	0.0	0.0	0.06800000369548798	0.04724999889731407	0.04500000178813934	0.9915000200271606	0.644262969493866	0.0	244.0	371.0	0.0	0.0	0.0	0.0	0.0	0.0	null	null	null	null	null	null	null	null	null	null	null	null	null	null	null	null	null	null	null	
Fri Jun 02 17:47:00 UTC 2017	1.0	null	2464.3603515625	null	null	0.0	null	null	31.712846755981445	null	null	null	null	0.0	0.0	0.07225000113248825	0.0507499985396862	0.050999999046325684	0.9915000200271606	0.6465365886688232	0.0	244.0	371.0	0.0	0.0	0.0	0.0	0.0	0.0	null	null	null	null	null	null	null	null	null	null	null	null	null	null	null	null	null	null	null	
Fri Jun 02 17:46:00 UTC 2017	1.0	null	2967.17919921875	null	null	0.0	null	null	31.712846755981445	null	null	null	null	0.0	0.0	0.06624999642372131	0.05274999886751175	0.045249998569488525	0.9912499785423279	0.6451725363731384	0.0	244.0	371.0	0.0	0.0	0.0	0.0	0.0	0.0	null	null	null	null	null	null	null	null	null	null	null	null	null	null	null	null	null	null	null	
Fri Jun 02 17:45:00 UTC 2017	1.0	null	2967.17919921875	null	null	0.0	null	null	31.712846755981445	null	null	null	null	0.0	0.0	0.07850000262260437	0.04675000160932541	0.04450000077486038	0.9915000200271606	0.6442286968231201	0.0	244.0	371.0	0.0	0.0	0.0	0.0	0.0	0.0	null	null	null	null	null	null	null	null	null	null	null	null	null	null	null	null	null	null	null	
Fri Jun 02 17:44:00 UTC 2017	1.0	null	2967.17919921875	null	null	0.0	null	null	66.81735229492188	null	null	null	null	0.0	0.0	0.07349999994039536	0.05624999850988388	0.051500000059604645	0.9917500019073486	0.6441905498504639	0.0	244.0	371.0	0.0	0.0	0.0	0.0	0.0	0.0	null	null	null	null	null	null	null	null	null	null	null	null	null	null	null	null	null	null	null	
Fri Jun 02 17:43:00 UTC 2017	0.0	null	2967.17919921875	null	null	0.0	null	null	45.64508819580078	null	null	null	null	0.0	0.0	0.07925000041723251	0.045499999076128006	0.04500000178813934	0.9915000200271606	0.6441646218299866	0.0	244.0	371.0	0.0	0.0	0.0	0.0	0.0	0.0	null	null	null	null	null	null	null	null	null	null	null	null	null	null	null	null	null	null	null	
Fri Jun 02 17:42:00 UTC 2017	1.0	null	2566.680419921875	null	null	0.0	null	null	40.31869125366211	null	null	null	null	0.0	0.0	0.07100000232458115	0.05925000086426735	0.048500001430511475	0.9915000200271606	0.6441617012023926	0.0	244.0	371.0	0.0	0.0	0.0	0.0	0.0	0.0	null	null	null	null	null	null	null	null	null	null	null	null	null	null	null	null	null	null	null	
Fri Jun 02 17:41:00 UTC 2017	1.0	null	3130.9375	null	null	0.0	null	null	40.31869125366211	null	null	null	null	0.0	0.0	0.09350000321865082	0.05050000175833702	0.04625000059604645	0.9909999966621399	0.644156277179718	0.0	244.0	371.0	0.0	0.0	0.0	0.0	0.0	0.0	null	null	null	null	null	null	null	null	null	null	null	null	null	null	null	null	null	null	null	
Fri Jun 02 17:40:00 UTC 2017	1.0	null	2699.236083984375	null	null	0.0	null	null	40.31869125366211	null	null	null	null	0.0	0.0	0.07649999856948853	0.045249998569488525	0.048500001430511475	0.9867500066757202	0.6452727913856506	0.0	244.0	371.0	0.0	0.0	0.0	0.0	0.0	0.0	null	null	null	null	null	null	null	null	null	null	null	null	null	null	null	null	null	null	null	
Fri Jun 02 17:39:00 UTC 2017	1.0	null	2457.773681640625	null	null	0.0	null	null	35.81941223144531	null	null	null	null	0.0	0.0	0.06024999916553497	0.05400000140070915	0.04450000077486038	0.9915000200271606	0.6441205739974976	0.0	244.0	371.0	0.0	0.0	0.0	0.0	0.0	0.0	null	null	null	null	null	null	null	null	null	null	null	null	null	null	null	null	null	null	null	
Fri Jun 02 17:38:00 UTC 2017	1.0	null	3283.576171875	null	null	0.0	null	null	35.146202087402344	null	null	null	null	0.0	0.0	0.07724999636411667	0.05299999937415123	0.04975000023841858	0.9912499785423279	0.6445662975311279	0.0	244.0	371.0	0.0	0.0	0.0	0.0	0.0	0.0	null	null	null	null	null	null	null	null	null	null	null	null	null	null	null	null	null	null	null	
Fri Jun 02 17:37:00 UTC 2017	1.0	null	2338.96142578125	null	null	0.0	null	null	86.51185607910156	null	null	null	null	0.0	0.0	0.07750000059604645	0.05225000157952309	0.04399999976158142	0.9912499785423279	0.6441019773483276	0.0	244.0	371.0	0.0	0.0	0.0	0.0	0.0	0.0	null	null	null	null	null	null	null	null	null	null	null	null	null	null	null	null	null	null	null	
Fri Jun 02 17:36:00 UTC 2017	1.0	null	2514.759521484375	null	null	0.0	null	null	86.51185607910156	null	null	null	null	0.0	0.0	0.06424999982118607	0.05050000175833702	0.050999999046325684	0.9900000095367432	0.6440853476524353	0.0	244.0	371.0	0.0	0.0	0.0	0.0	0.0	0.0	null	null	null	null	null	null	null	null	null	null	null	null	null	null	null	null	null	null	null	
Fri Jun 02 17:35:00 UTC 2017	1.0	null	2442.647705078125	null	null	0.0	null	null	34.748939514160156	null	null	null	null	0.0	0.0	0.07175000011920929	0.04574999958276749	0.04349999874830246	0.9915000200271606	0.6440858244895935	0.0	244.0	371.0	0.0	0.0	0.0	0.0	0.0	0.0	null	null	null	null	null	null	null	null	null	null	null	null	null	null	null	null	null	null	null	
Fri Jun 02 17:34:00 UTC 2017	1.0	null	2442.647705078125	null	null	0.0	null	null	45.33546447753906	null	null	null	null	0.0	null	0.07124999910593033	0.051500000059604645	0.05274999886751175	0.9909999966621399	0.644056499004364	0.0	244.0	371.0	0.0	0.0	0.0	0.0	0.0	0.0	null	null	null	null	null	null	null	null	null	null	null	null	null	null	null	null	null	null	null	
Fri Jun 02 17:33:00 UTC 2017	1.0	null	3192.92578125	null	null	0.0	null	null	45.33546447753906	null	null	null	null	0.0	null	0.08399999886751175	0.050999999046325684	0.042750000953674316	0.9915000200271606	0.6440349817276001	0.0	244.0	371.0	0.0	0.0	0.0	0.0	0.0	0.0	null	null	null	null	null	null	null	null	null	null	null	null	null	null	null	null	null	null	null	
Fri Jun 02 17:32:00 UTC 2017	1.0	null	2694.201171875	null	null	0.0	null	null	49.67851638793945	null	null	null	null	0.0	null	0.0689999982714653	0.04899999871850014	0.04625000059604645	0.9917500019073486	0.6458736658096313	0.0	244.0	371.0	0.0	0.0	0.0	0.0	0.0	0.0	null	null	null	null	null	null	null	null	null	null	null	null	null	null	null	null	null	null	null	
Fri Jun 02 17:31:00 UTC 2017	0.0	null	2552.900390625	null	null	0.0	null	null	63.07191848754883	null	null	null	null	0.0	null	0.0949999988079071	0.05000000074505806	0.05000000074505806	0.9915000200271606	0.6440598964691162	0.0	244.0	371.0	0.0	0.0	0.0	0.0	0.0	0.0	null	null	null	null	null	null	null	null	null	null	null	null	null	null	null	null	null	null	null	
Fri Jun 02 17:30:00 UTC 2017	0.0	null	2552.900390625	null	null	0.0	null	null	63.07191848754883	null	null	null	null	0.0	null	0.07400000095367432	0.0442500002682209	0.04899999871850014	0.9915000200271606	0.6440368890762329	0.0	244.0	371.0	0.0	0.0	0.0	0.0	0.0	0.0	null	null	null	null	null	null	null	null	null	null	null	null	null	null	null	null	null	null	null	
Fri Jun 02 17:29:00 UTC 2017	1.0	null	2552.900390625	null	null	0.0	null	null	63.07191848754883	null	null	null	null	0.0	null	0.06650000065565109	0.05624999850988388	0.04024999961256981	0.9915000200271606	0.6440178155899048	0.0	244.0	371.0	0.0	0.0	0.0	0.0	0.0	0.0	null	null	null	null	null	null	null	null	null	null	null	null	null	null	null	null	null	null	null	
Fri Jun 02 17:28:00 UTC 2017	0.0	null	2552.900390625	null	null	0.0	null	null	44.022979736328125	null	null	null	null	0.0	0.0	0.0820000022649765	0.04699999839067459	0.048250000923871994	0.9912499785423279	0.6440007090568542	0.0	244.0	371.0	0.0	0.0	0.0	0.0	0.0	0.0	null	null	null	null	null	null	null	null	null	null	null	null	null	null	null	null	null	null	null	
Fri Jun 02 17:27:00 UTC 2017	1.0	null	2308.89990234375	null	null	0.0	null	null	44.022979736328125	null	null	null	null	0.0	0.0	0.07524999976158142	0.05350000038743019	0.048250000923871994	0.9867500066757202	0.6439997553825378	0.0	244.0	371.0	0.0	0.0	0.0	0.0	0.0	0.0	null	null	null	null	null	null	null	null	null	null	null	null	null	null	null	null	null	null	null	
Fri Jun 02 17:26:00 UTC 2017	1.0	null	3058.707275390625	null	null	0.0	null	null	44.022979736328125	null	null	null	null	0.0	0.0	0.06800000369548798	0.05000000074505806	0.04450000077486038	0.9900000095367432	0.6439043283462524	0.0	244.0	371.0	0.0	0.0	0.0	0.0	0.0	0.0	null	null	null	null	null	null	null	null	null	null	null	null	null	null	null	null	null	null	null	
Fri Jun 02 17:25:00 UTC 2017	1.0	null	3058.707275390625	null	null	0.0	null	null	44.022979736328125	null	null	null	null	0.0	null	0.07699999958276749	0.0494999997317791	0.04924999922513962	0.9882500171661377	0.6460791230201721	0.0	244.0	371.0	0.0	0.0	0.0	0.0	0.0	0.0	null	null	null	null	null	null	null	null	null	null	null	null	null	null	null	null	null	null	null	
Fri Jun 02 17:24:00 UTC 2017	1.0	null	2417.149658203125	null	null	0.0	null	null	44.022979736328125	null	null	null	null	0.0	0.0	0.07150000333786011	0.05050000175833702	0.04675000160932541	0.9912499785423279	0.6461823582649231	0.0	244.0	371.0	0.0	0.0	0.0	0.0	0.0	0.0	null	null	null	null	null	null	null	null	null	null	null	null	null	null	null	null	null	null	null	
Fri Jun 02 17:23:00 UTC 2017	2.0	null	2417.149658203125	null	null	0.0	null	null	44.022979736328125	null	null	null	null	0.0	0.0	0.07124999910593033	0.04500000178813934	0.04399999976158142	0.9915000200271606	0.644350528717041	0.0	244.0	371.0	0.0	0.0	0.0	0.0	0.0	0.0	null	null	null	null	null	null	null	null	null	null	null	null	null	null	null	null	null	null	null	
Fri Jun 02 17:22:00 UTC 2017	1.0	null	2417.149658203125	null	null	0.0	null	null	47.41841125488281	null	null	null	null	0.0	null	0.06750000268220901	0.051500000059604645	0.051249999552965164	0.9917500019073486	0.6438514590263367	0.0	244.0	371.0	0.0	0.0	0.0	0.0	0.0	0.0	null	null	null	null	null	null	null	null	null	null	null	null	null	null	null	null	null	null	null	
Fri Jun 02 17:21:00 UTC 2017	1.0	null	2417.149658203125	null	null	0.0	null	null	47.41841125488281	null	null	null	null	0.0	0.0	0.10324999690055847	0.04699999839067459	0.042500000447034836	0.9919999837875366	0.6438505053520203	0.0	244.0	371.0	0.0	0.0	0.0	0.0	0.0	0.0	null	null	null	null	null	null	null	null	null	null	null	null	null	null	null	null	null	null	null	
Fri Jun 02 17:20:00 UTC 2017	0.0	null	2417.149658203125	null	null	0.9120832085609436	null	null	35.42326354980469	null	null	null	null	0.0	0.0	0.07800000160932541	0.05050000175833702	0.05000000074505806	0.9917500019073486	0.6438294649124146	0.0	244.0	371.0	0.0	0.0	0.0	0.0	0.0	0.0	null	null	null	null	null	null	null	null	null	null	null	null	null	null	null	null	null	null	null	
Fri Jun 02 17:19:00 UTC 2017	0.0	null	2575.985595703125	null	null	0.0	null	null	35.42326354980469	null	null	null	null	0.0	0.0	0.07999999821186066	0.05000000074505806	0.04924999922513962	0.9917500019073486	0.6460943222045898	0.0	244.0	371.0	0.0	0.0	0.0	0.0	0.0	0.0	null	null	null	null	null	null	null	null	null	null	null	null	null	null	null	null	null	null	null	
Fri Jun 02 17:18:00 UTC 2017	1.0	null	2575.985595703125	null	null	0.0	null	null	35.42326354980469	null	null	null	null	0.0	0.0	0.07975000143051147	0.04749999940395355	0.048250000923871994	0.9912499785423279	0.646091878414154	0.0	244.0	371.0	0.0	0.0	0.0	0.0	0.0	0.0	null	null	null	null	null	null	null	null	null	null	null	null	null	null	null	null	null	null	null	
Fri Jun 02 17:17:00 UTC 2017	1.0	null	2564.1044921875	null	null	0.0	null	null	47.992942810058594	null	null	null	null	0.0	0.0	0.07400000095367432	0.050999999046325684	0.04574999958276749	0.9904999732971191	0.6443216800689697	0.0	244.0	371.0	0.0	0.0	0.0	0.0	0.0	0.0	null	null	null	null	null	null	null	null	null	null	null	null	null	null	null	null	null	null	null	
Fri Jun 02 17:16:00 UTC 2017	1.0	null	2564.1044921875	null	null	0.0	null	null	33.15908432006836	null	null	null	null	0.0	0.0	0.06875000149011612	0.05274999886751175	0.04349999874830246	0.9915000200271606	0.6437638998031616	0.0	244.0	371.0	0.0	0.0	0.0	0.0	0.0	0.0	null	null	null	null	null	null	null	null	null	null	null	null	null	null	null	null	null	null	null	
Fri Jun 02 17:15:00 UTC 2017	1.0	null	2564.1044921875	null	null	1.238464117050171	null	null	33.15908432006836	null	null	null	null	0.0	0.0	0.07850000262260437	0.05000000074505806	0.0507499985396862	0.9915000200271606	0.6459886431694031	0.0	244.0	371.0	0.0	0.0	0.0	0.0	0.0	0.0	null	null	null	null	null	null	null	null	null	null	null	null	null	null	null	null	null	null	null	
Fri Jun 02 17:14:00 UTC 2017	1.0	null	2564.1044921875	null	null	1.238464117050171	null	null	40.502010345458984	null	null	null	null	0.0	0.0	0.07599999755620956	0.048500001430511475	0.048250000923871994	0.9915000200271606	0.6437501907348633	0.0	244.0	371.0	0.0	0.0	0.0	0.0	0.0	0.0	null	null	null	null	null	null	null	null	null	null	null	null	null	null	null	null	null	null	null	
Fri Jun 02 17:13:00 UTC 2017	1.0	null	2564.1044921875	null	null	1.238464117050171	null	null	35.258384704589844	null	null	null	null	0.0	0.0	0.07625000178813934	0.048500001430511475	0.045499999076128006	0.9872499704360962	0.6459514498710632	0.0	244.0	371.0	0.0	0.0	0.0	0.0	0.0	0.0	null	null	null	null	null	null	null	null	null	null	null	null	null	null	null	null	null	null	null	
Fri Jun 02 17:12:00 UTC 2017	1.0	null	2564.1044921875	null	null	1.238464117050171	null	null	54.75337219238281	null	null	null	null	0.0	0.0	0.07000000029802322	0.04924999922513962	0.051500000059604645	0.9872499704360962	0.6460869312286377	0.0	244.0	371.0	0.0	0.0	0.0	0.0	0.0	0.0	null	null	null	null	null	null	null	null	null	null	null	null	null	null	null	null	null	null	null	
Fri Jun 02 17:11:00 UTC 2017	1.0	null	2564.1044921875	null	null	0.0	null	null	54.75337219238281	null	null	null	null	0.0	0.0	0.10000000149011612	0.04874999821186066	0.04574999958276749	0.9915000200271606	0.6459940075874329	0.0	244.0	371.0	0.0	0.0	0.0	0.0	0.0	0.0	null	null	null	null	null	null	null	null	null	null	null	null	null	null	null	null	null	null	null	
Fri Jun 02 17:10:00 UTC 2017	1.0	null	2920.510986328125	null	null	0.0	null	null	46.91926193237305	null	null	null	null	0.0	0.0	0.07699999958276749	0.05375000089406967	0.04749999940395355	0.9909999966621399	0.6436880826950073	0.0	244.0	371.0	0.0	0.0	0.0	0.0	0.0	0.0	null	null	null	null	null	null	null	null	null	null	null	null	null	null	null	null	null	null	null	
Fri Jun 02 17:09:00 UTC 2017	0.0	null	2920.510986328125	null	null	0.0	null	null	45.725223541259766	null	null	null	null	0.0	0.0	0.07199999690055847	0.05249999836087227	0.04924999922513962	0.9890000224113464	0.6436934471130371	0.0	244.0	371.0	0.0	0.0	0.0	0.0	0.0	0.0	null	null	null	null	null	null	null	null	null	null	null	null	null	null	null	null	null	null	null	
Fri Jun 02 17:08:00 UTC 2017	1.0	null	2920.510986328125	null	null	0.0	null	null	48.79185485839844	null	null	null	null	0.0	0.0	0.06650000065565109	0.04675000160932541	0.04724999889731407	0.9879999756813049	0.6443480849266052	0.0	244.0	371.0	0.0	0.0	0.0	0.0	0.0	0.0	null	null	null	null	null	null	null	null	null	null	null	null	null	null	null	null	null	null	null	
Fri Jun 02 17:07:00 UTC 2017	1.0	null	2920.510986328125	null	null	0.0	null	null	48.79185485839844	null	null	null	null	0.0	0.0	0.07625000178813934	0.04699999839067459	0.04399999976158142	0.9900000095367432	0.6436508893966675	0.0	244.0	371.0	0.0	0.0	0.0	0.0	0.0	0.0	null	null	null	null	null	null	null	null	null	null	null	null	null	null	null	null	null	null	null	
Fri Jun 02 17:06:00 UTC 2017	1.0	null	2920.510986328125	null	null	0.0	null	null	48.79185485839844	null	null	null	null	0.0	0.0	0.07400000095367432	0.04924999922513962	0.048500001430511475	0.9902499914169312	0.6459235548973083	0.0	244.0	371.0	0.0	0.0	0.0	0.0	0.0	0.0	null	null	null	null	null	null	null	null	null	null	null	null	null	null	null	null	null	null	null	
Fri Jun 02 17:05:00 UTC 2017	1.0	null	2920.510986328125	null	null	0.0	null	null	35.977500915527344	null	null	null	null	0.0	0.0	0.07074999809265137	0.05700000002980232	0.05375000089406967	0.9915000200271606	0.6436469554901123	0.0	244.0	371.0	0.0	0.0	0.0	0.0	0.0	0.0	null	null	null	null	null	null	null	null	null	null	null	null	null	null	null	null	null	null	null	
Fri Jun 02 17:04:00 UTC 2017	0.0	null	2920.510986328125	null	null	0.0	null	null	35.977500915527344	null	null	null	null	0.0	0.0	0.07750000059604645	0.04399999976158142	0.04774999991059303	0.9915000200271606	0.6449978351593018	0.0	244.0	371.0	0.0	0.0	0.0	0.0	0.0	0.0	null	null	null	null	null	null	null	null	null	null	null	null	null	null	null	null	null	null	null	
Fri Jun 02 17:03:00 UTC 2017	0.0	null	2920.510986328125	null	null	0.0	null	null	35.977500915527344	null	null	null	null	0.0	0.0	0.06975000351667404	0.05649999901652336	0.04374999925494194	0.9909999966621399	0.6436043977737427	0.0	244.0	371.0	0.0	0.0	0.0	0.0	0.0	0.0	null	null	null	null	null	null	null	null	null	null	null	null	null	null	null	null	null	null	null	
Fri Jun 02 17:02:00 UTC 2017	1.0	null	2920.510986328125	null	null	0.0	null	null	35.977500915527344	null	null	null	null	0.0	0.0	0.07275000214576721	0.04774999991059303	0.04899999871850014	0.9825000166893005	0.6435872912406921	0.0	244.0	371.0	0.0	0.0	0.0	0.0	0.0	0.0	null	null	null	null	null	null	null	null	null	null	null	null	null	null	null	null	null	null	null	
Fri Jun 02 17:01:00 UTC 2017	1.0	null	2920.510986328125	null	null	0.0	null	null	35.977500915527344	null	null	null	null	0.0	0.0	0.09749999642372131	0.04774999991059303	0.048500001430511475	0.9917500019073486	0.6435799598693848	0.0	244.0	371.0	0.0	0.0	0.0	0.0	0.0	0.0	null	null	null	null	null	null	null	null	null	null	null	null	null	null	null	null	null	null	null	
Fri Jun 02 17:00:00 UTC 2017	1.0	null	2892.7919921875	null	null	0.0	null	null	56.40457534790039	null	null	null	null	0.0	0.0	0.07699999958276749	0.04699999839067459	0.05000000074505806	0.9892500042915344	0.6435525417327881	0.0	244.0	371.0	0.0	0.0	0.0	0.0	0.0	0.0	null	null	null	null	null	null	null	null	null	null	null	null	null	null	null	null	null	null	null	
Fri Jun 02 16:59:00 UTC 2017	1.0	null	2854.1962890625	null	null	0.0	null	null	56.40457534790039	null	null	null	null	0.0	0.0	0.06875000149011612	0.05575000122189522	0.04500000178813934	0.9912499785423279	0.6435486078262329	0.0	244.0	371.0	0.0	0.0	0.0	0.0	0.0	0.0	null	null	null	null	null	null	null	null	null	null	null	null	null	null	null	null	null	null	null	
Fri Jun 02 16:58:00 UTC 2017	1.0	null	2854.1962890625	null	null	0.0	null	null	56.40457534790039	null	null	null	null	0.0	0.0	0.07199999690055847	0.048250000923871994	0.04774999991059303	0.9912499785423279	0.6435731053352356	0.0	244.0	371.0	0.0	0.0	0.0	0.0	0.0	0.0	null	null	null	null	null	null	null	null	null	null	null	null	null	null	null	null	null	null	null	
Fri Jun 02 16:57:00 UTC 2017	1.0	null	2854.1962890625	null	null	0.0	null	null	56.40457534790039	null	null	null	null	0.0	0.0	0.07150000333786011	0.05324999988079071	0.04874999821186066	0.9879999756813049	0.6435109376907349	0.0	244.0	371.0	0.0	0.0	0.0	0.0	0.0	0.0	null	null	null	null	null	null	null	null	null	null	null	null	null	null	null	null	null	null	null	
Fri Jun 02 16:56:00 UTC 2017	1.0	null	2854.1962890625	null	null	0.0	null	null	56.40457534790039	null	null	null	null	0.0	0.0	0.08174999803304672	0.045499999076128006	0.051500000059604645	0.9892500042915344	0.6434933543205261	0.0	244.0	371.0	0.0	0.0	0.0	0.0	0.0	0.0	null	null	null	null	null	null	null	null	null	null	null	null	null	null	null	null	null	null	null	
Fri Jun 02 16:55:00 UTC 2017	1.0	null	2854.1962890625	null	null	0.0	null	null	56.40457534790039	null	null	null	null	0.0	null	0.0625	0.054999999701976776	0.04075000062584877	0.9912499785423279	0.6446005702018738	0.0	244.0	371.0	0.0	0.0	0.0	0.0	0.0	0.0	null	null	null	null	null	null	null	null	null	null	null	null	null	null	null	null	null	null	null	
Fri Jun 02 16:54:00 UTC 2017	0.0	null	2854.1962890625	null	null	0.0	null	null	56.40457534790039	null	null	null	null	0.0	null	0.07824999839067459	0.04475000128149986	0.0494999997317791	0.9907500147819519	0.6434644460678101	0.0	244.0	371.0	0.0	0.0	0.0	0.0	0.0	0.0	null	null	null	null	null	null	null	null	null	null	null	null	null	null	null	null	null	null	null	
Fri Jun 02 16:53:00 UTC 2017	1.0	null	2373.21630859375	null	null	0.0	null	null	56.40457534790039	null	null	null	null	0.0	null	0.07124999910593033	0.050999999046325684	0.052000001072883606	0.9915000200271606	0.6434488296508789	0.0	244.0	371.0	0.0	0.0	0.0	0.0	0.0	0.0	null	null	null	null	null	null	null	null	null	null	null	null	null	null	null	null	null	null	null	
Fri Jun 02 16:52:00 UTC 2017	1.0	null	3421.8974609375	null	null	0.0	null	null	55.00304412841797	null	null	null	null	0.0	null	0.0767500028014183	0.05249999836087227	0.04874999821186066	0.9865000247955322	0.6457317471504211	0.0	244.0	371.0	0.0	0.0	0.0	0.0	0.0	0.0	null	null	null	null	null	null	null	null	null	null	null	null	null	null	null	null	null	null	null	
Fri Jun 02 16:51:00 UTC 2017	1.0	null	2675.615478515625	null	null	0.0	null	null	55.00304412841797	null	null	null	null	0.0	null	0.0989999994635582	0.051249999552965164	0.04475000128149986	0.9869999885559082	0.6434223651885986	0.0	244.0	371.0	0.0	0.0	0.0	0.0	0.0	0.0	null	null	null	null	null	null	null	null	null	null	null	null	null	null	null	null	null	null	null	
Fri Jun 02 16:50:00 UTC 2017	0.0	null	2675.615478515625	null	null	0.0	null	null	55.00304412841797	null	null	null	null	0.0	null	0.06724999845027924	0.045499999076128006	0.04650000110268593	0.9907500147819519	0.6434170007705688	0.0	244.0	371.0	0.0	0.0	0.0	0.0	0.0	0.0	null	null	null	null	null	null	null	null	null	null	null	null	null	null	null	null	null	null	null	
Fri Jun 02 16:49:00 UTC 2017	1.0	null	2675.615478515625	null	null	0.0	null	null	43.109840393066406	null	null	null	null	0.0	null	0.07649999856948853	0.057500001043081284	0.04874999821186066	0.9915000200271606	0.6456921100616455	0.0	244.0	371.0	0.0	0.0	0.0	0.0	0.0	0.0	null	null	null	null	null	null	null	null	null	null	null	null	null	null	null	null	null	null	null	
Fri Jun 02 16:48:00 UTC 2017	1.0	null	2675.615478515625	null	null	0.0	null	null	45.02268600463867	null	null	null	null	0.0	null	0.08174999803304672	0.045249998569488525	0.052000001072883606	0.9909999966621399	0.6442967057228088	0.0	244.0	371.0	0.0	0.0	0.0	0.0	0.0	0.0	null	null	null	null	null	null	null	null	null	null	null	null	null	null	null	null	null	null	null	
Fri Jun 02 16:47:00 UTC 2017	1.0	null	2497.435791015625	null	null	0.0	null	null	45.02268600463867	null	null	null	null	0.0	null	0.06449999660253525	0.0507499985396862	0.04675000160932541	0.9912499785423279	0.6433837413787842	0.0	244.0	371.0	0.0	0.0	0.0	0.0	0.0	0.0	null	null	null	null	null	null	null	null	null	null	null	null	null	null	null	null	null	null	null	
Fri Jun 02 16:46:00 UTC 2017	1.0	null	2497.435791015625	null	null	0.0	null	null	45.02268600463867	null	null	null	null	0.0	0.0	0.07850000262260437	0.04800000041723251	0.04774999991059303	0.9915000200271606	0.6433959603309631	0.0	244.0	371.0	0.0	0.0	0.0	0.0	0.0	0.0	null	null	null	null	null	null	null	null	null	null	null	null	null	null	null	null	null	null	null	
Fri Jun 02 16:45:00 UTC 2017	1.0	null	2497.435791015625	null	null	0.0	null	null	59.997432708740234	null	null	null	null	0.0	null	0.06849999725818634	0.057750001549720764	0.04574999958276749	0.9917500019073486	0.643371045589447	0.0	244.0	371.0	0.0	0.0	0.0	0.0	0.0	0.0	null	null	null	null	null	null	null	null	null	null	null	null	null	null	null	null	null	null	null	
Fri Jun 02 16:44:00 UTC 2017	1.0	null	2497.435791015625	null	null	0.0	null	null	44.03705596923828	null	null	null	null	0.0	null	0.07325000315904617	0.04774999991059303	0.04975000023841858	0.9912499785423279	0.6455859541893005	0.0	244.0	371.0	0.0	0.0	0.0	0.0	0.0	0.0	null	null	null	null	null	null	null	null	null	null	null	null	null	null	null	null	null	null	null	
Fri Jun 02 16:43:00 UTC 2017	1.0	null	2804.27099609375	null	null	0.0	null	null	44.03705596923828	null	null	null	null	0.0	null	0.07975000143051147	0.05324999988079071	0.045249998569488525	0.9915000200271606	0.6433759331703186	0.0	244.0	371.0	0.0	0.0	0.0	0.0	0.0	0.0	null	null	null	null	null	null	null	null	null	null	null	null	null	null	null	null	null	null	null	
Fri Jun 02 16:42:00 UTC 2017	1.0	null	2590.2802734375	null	null	0.0	null	null	45.19928741455078	null	null	null	null	0.0	null	0.07450000196695328	0.05000000074505806	0.04724999889731407	0.9909999966621399	0.6433734893798828	0.0	244.0	371.0	0.0	0.0	0.0	0.0	0.0	0.0	null	null	null	null	null	null	null	null	null	null	null	null	null	null	null	null	null	null	null	
Fri Jun 02 16:41:00 UTC 2017	2.0	null	2427.38427734375	null	null	0.0	null	null	37.81855773925781	null	null	null	null	0.0	null	0.09425000101327896	0.05299999937415123	0.04975000023841858	0.9912499785423279	0.6433656215667725	0.0	244.0	371.0	0.0	0.0	0.0	0.0	0.0	0.0	null	null	null	null	null	null	null	null	null	null	null	null	null	null	null	null	null	null	null	
Fri Jun 02 16:40:00 UTC 2017	1.0	null	3188.680419921875	null	null	0.0	null	null	5356.42431640625	null	null	null	null	0.0	null	0.07150000333786011	0.05649999901652336	0.0507499985396862	0.9915000200271606	0.6433475613594055	0.0	244.0	371.0	0.0	0.0	0.0	0.0	0.0	0.0	null	null	null	null	null	null	null	null	null	null	null	null	null	null	null	null	null	null	null	
Fri Jun 02 16:39:00 UTC 2017	1.0	null	8630673.0	null	null	142196.75	null	null	5356.42431640625	null	null	null	null	673256.875	1656329.125	0.0820000022649765	0.0625	0.06575000286102295	0.9810000061988831	0.6433475613594055	0.0	244.0	371.0	0.0	0.0	0.0	0.0	0.0	0.0	null	null	null	null	null	null	null	null	null	null	null	null	null	null	null	null	null	null	null	
Fri Jun 02 16:38:00 UTC 2017	69.0	null	8630673.0	null	null	142196.75	null	null	19600.501953125	null	null	null	null	1392398.0	1950859.5	0.06949999928474426	0.15800000727176666	0.15974999964237213	0.9567499756813049	0.6434311866760254	0.0	244.0	371.0	0.0	0.0	0.0	0.0	0.0	0.0	null	null	null	null	null	null	null	null	null	null	null	null	null	null	null	null	null	null	null	
Fri Jun 02 16:37:00 UTC 2017	396.0	null	8499971.0	null	null	139405.125	null	null	19600.501953125	null	null	null	null	1392398.0	1950859.5	0.07649999856948853	0.14800000190734863	0.15449999272823334	0.9572499990463257	0.6432227492332458	600.0	244.0	371.0	0.0	0.0	0.0	0.0	0.0	0.0	null	null	null	null	null	null	null	null	null	null	null	null	null	null	null	null	null	null	null	
Fri Jun 02 16:36:00 UTC 2017	385.0	null	8659945.0	null	null	152149.40625	null	null	22270.365234375	null	null	null	null	2092179.375	1480820.375	0.06475000083446503	0.15974999964237213	0.16200000047683716	0.9549999833106995	0.6429536938667297	600.0	244.0	371.0	0.0	0.0	0.0	0.0	0.0	0.0	null	null	null	null	null	null	null	null	null	null	null	null	null	null	null	null	null	null	null	
Fri Jun 02 16:35:00 UTC 2017	389.0	null	9013533.0	null	null	152149.40625	null	null	24084.548828125	null	null	null	null	1806889.25	1755491.0	0.06925000250339508	0.1497499942779541	0.16249999403953552	0.9547500014305115	0.6427315473556519	600.0	244.0	371.0	0.0	0.0	0.0	0.0	0.0	0.0	null	null	null	null	null	null	null	null	null	null	null	null	null	null	null	null	null	null	null	
Fri Jun 02 16:34:00 UTC 2017	411.0	null	8836692.0	null	null	142815.5	null	null	24084.548828125	null	null	null	null	1675658.375	1690273.375	0.07374999672174454	0.15424999594688416	0.15725000202655792	0.9542499780654907	0.642597496509552	500.0	244.0	371.0	0.0	0.0	0.0	0.0	0.0	0.0	null	null	null	null	null	null	null	null	null	null	null	null	null	null	null	null	null	null	null	
Fri Jun 02 16:33:00 UTC 2017	394.0	null	8755269.0	null	null	142815.5	null	null	24084.548828125	null	null	null	null	1675658.375	1690273.375	0.08150000125169754	0.1574999988079071	0.1655000001192093	0.9555000066757202	0.6424345374107361	500.0	244.0	371.0	0.0	0.0	0.0	0.0	0.0	0.0	null	null	null	null	null	null	null	null	null	null	null	null	null	null	null	null	null	null	null	
Fri Jun 02 16:32:00 UTC 2017	395.0	null	9209342.0	null	null	142815.5	null	null	22492.84375	null	null	null	null	1862540.25	1690273.375	0.06300000101327896	0.13975000381469727	0.14749999344348907	0.956250011920929	0.6447556614875793	500.0	244.0	371.0	0.0	0.0	0.0	0.0	0.0	0.0	null	null	null	null	null	null	null	null	null	null	null	null	null	null	null	null	null	null	null	
Fri Jun 02 16:31:00 UTC 2017	400.0	null	9209342.0	null	null	156233.59375	null	null	22635.658203125	null	null	null	null	1734455.0	1763997.125	0.09700000286102295	0.1407500058412552	0.1547500044107437	0.9542499780654907	0.6442487835884094	400.0	244.0	371.0	0.0	0.0	0.0	0.0	0.0	0.0	null	null	null	null	null	null	null	null	null	null	null	null	null	null	null	null	null	null	null	
Fri Jun 02 16:30:00 UTC 2017	400.0	null	9209342.0	null	null	156233.59375	null	null	22635.658203125	null	null	null	null	1807320.875	1871845.0	0.07850000262260437	0.1432500034570694	0.15600000321865082	0.9547500014305115	0.6416757106781006	400.0	244.0	371.0	0.0	0.0	0.0	0.0	0.0	0.0	null	null	null	null	null	null	null	null	null	null	null	null	null	null	null	null	null	null	null	
Fri Jun 02 16:29:00 UTC 2017	402.0	null	9003080.0	null	null	156233.59375	null	null	22635.658203125	null	null	null	null	1760677.125	1871845.0	0.06400000303983688	0.14174999296665192	0.14249999821186066	0.9545000195503235	0.641529381275177	400.0	244.0	371.0	0.0	0.0	0.0	0.0	0.0	0.0	null	null	null	null	null	null	null	null	null	null	null	null	null	null	null	null	null	null	null	
Fri Jun 02 16:28:00 UTC 2017	405.0	null	8987412.0	null	null	156233.59375	null	null	22635.658203125	null	null	null	null	1780827.0	null	0.07724999636411667	0.13175000250339508	0.15074999630451202	0.9542499780654907	0.6412920951843262	350.0	244.0	371.0	0.0	0.0	0.0	0.0	0.0	0.0	null	null	null	null	null	null	null	null	null	null	null	null	null	null	null	null	null	null	null	
Fri Jun 02 16:27:00 UTC 2017	400.0	null	8864537.0	null	null	137887.28125	null	null	22635.658203125	null	null	null	null	1775169.25	1757522.625	0.07800000160932541	0.1367499977350235	0.1445000022649765	0.9557499885559082	0.642168402671814	350.0	244.0	371.0	0.0	0.0	0.0	0.0	0.0	0.0	null	null	null	null	null	null	null	null	null	null	null	null	null	null	null	null	null	null	null	
Fri Jun 02 16:26:00 UTC 2017	396.0	null	8735020.0	null	null	152793.046875	null	null	21444.580078125	null	null	null	null	1775169.25	1757522.625	0.06424999982118607	0.1262499988079071	0.1420000046491623	0.9559999704360962	0.6407822966575623	350.0	244.0	371.0	0.0	0.0	0.0	0.0	0.0	0.0	null	null	null	null	null	null	null	null	null	null	null	null	null	null	null	null	null	null	null	
Fri Jun 02 16:25:00 UTC 2017	399.0	null	8735020.0	null	null	140971.828125	null	null	22086.681640625	null	null	null	null	1847463.875	1757522.625	0.07050000131130219	0.12325000017881393	0.14100000262260437	0.9557499885559082	0.6404803991317749	300.0	244.0	371.0	0.0	0.0	0.0	0.0	0.0	0.0	null	null	null	null	null	null	null	null	null	null	null	null	null	null	null	null	null	null	null	
Fri Jun 02 16:24:00 UTC 2017	400.0	null	8735020.0	null	null	140971.828125	null	null	22086.681640625	null	null	null	null	1645095.625	1459651.375	0.0754999965429306	0.11649999767541885	0.13824999332427979	0.956250011920929	0.642544150352478	300.0	244.0	371.0	0.0	0.0	0.0	0.0	0.0	0.0	null	null	null	null	null	null	null	null	null	null	null	null	null	null	null	null	null	null	null	
Fri Jun 02 16:23:00 UTC 2017	384.0	null	8735020.0	null	null	140971.828125	null	null	22086.681640625	null	null	null	null	1645095.625	1459651.375	0.07850000262260437	0.11675000190734863	0.13699999451637268	0.9559999704360962	0.6398996114730835	300.0	244.0	371.0	0.0	0.0	0.0	0.0	0.0	0.0	null	null	null	null	null	null	null	null	null	null	null	null	null	null	null	null	null	null	null	
Fri Jun 02 16:22:00 UTC 2017	397.0	null	8735020.0	null	null	140971.828125	null	null	22086.681640625	null	null	null	null	1645095.625	1459651.375	0.06575000286102295	0.11749999970197678	0.13975000381469727	0.9570000171661377	0.6394974589347839	250.0	244.0	371.0	0.0	0.0	0.0	0.0	0.0	0.0	null	null	null	null	null	null	null	null	null	null	null	null	null	null	null	null	null	null	null	
Fri Jun 02 16:21:00 UTC 2017	392.0	null	8191240.5	null	null	119474.0546875	null	null	21710.322265625	null	null	null	null	1645095.625	1459651.375	0.09974999725818634	0.1067499965429306	0.13699999451637268	0.9577500224113464	0.6410303711891174	250.0	244.0	371.0	0.0	0.0	0.0	0.0	0.0	0.0	null	null	null	null	null	null	null	null	null	null	null	null	null	null	null	null	null	null	null	
Fri Jun 02 16:20:00 UTC 2017	374.0	null	7676155.0	null	null	119474.0546875	null	null	19663.93359375	null	null	null	null	1645095.625	1459651.375	0.07724999636411667	0.10949999839067459	0.12200000137090683	0.9582499861717224	0.6385712623596191	250.0	244.0	371.0	0.0	0.0	0.0	0.0	0.0	0.0	null	null	null	null	null	null	null	null	null	null	null	null	null	null	null	null	null	null	null	
Fri Jun 02 16:19:00 UTC 2017	378.0	null	7676155.0	null	null	119474.0546875	null	null	19663.93359375	null	null	null	null	1645095.625	1459651.375	0.07575000077486038	0.09799999743700027	0.12549999356269836	0.9599999785423279	0.6384059190750122	200.0	244.0	371.0	0.0	0.0	0.0	0.0	0.0	0.0	null	null	null	null	null	null	null	null	null	null	null	null	null	null	null	null	null	null	null	
Fri Jun 02 16:18:00 UTC 2017	362.0	null	6286555.0	null	null	119557.40625	null	null	19663.93359375	null	null	null	null	1425160.625	1106430.875	0.07524999976158142	0.10300000011920929	0.12725000083446503	0.9607499837875366	0.638796329498291	200.0	244.0	371.0	0.0	0.0	0.0	0.0	0.0	0.0	null	null	null	null	null	null	null	null	null	null	null	null	null	null	null	null	null	null	null	
Fri Jun 02 16:17:00 UTC 2017	337.0	null	6286555.0	null	null	60683.3359375	null	null	11317.10546875	null	null	null	null	1425160.625	1106430.875	0.07225000113248825	0.08874999731779099	0.11574999988079071	0.9639999866485596	0.6378647685050964	200.0	244.0	371.0	0.0	0.0	0.0	0.0	0.0	0.0	null	null	null	null	null	null	null	null	null	null	null	null	null	null	null	null	null	null	null	
Fri Jun 02 16:16:00 UTC 2017	321.0	null	4686977.5	null	null	60683.3359375	null	null	11317.10546875	null	null	null	null	1061228.875	836662.3125	0.06449999660253525	0.0949999988079071	0.11599999666213989	0.9660000205039978	0.6388007402420044	150.0	244.0	371.0	0.0	0.0	0.0	0.0	0.0	0.0	null	null	null	null	null	null	null	null	null	null	null	null	null	null	null	null	null	null	null	
Fri Jun 02 16:15:00 UTC 2017	289.0	null	4686977.5	null	null	60683.3359375	null	null	11317.10546875	null	null	null	null	1061228.875	836662.3125	0.07599999755620956	0.08550000190734863	0.1042499989271164	0.968999981880188	0.6329891681671143	150.0	244.0	371.0	0.0	0.0	0.0	0.0	0.0	0.0	null	null	null	null	null	null	null	null	null	null	null	null	null	null	null	null	null	null	null	
Fri Jun 02 16:14:00 UTC 2017	252.0	null	2183926.75	null	null	60683.3359375	null	null	11317.10546875	null	null	null	null	822706.875	836662.3125	0.06925000250339508	0.0754999965429306	0.0989999994635582	0.972000002861023	0.6204100251197815	150.0	244.0	371.0	0.0	0.0	0.0	0.0	0.0	0.0	null	null	null	null	null	null	null	null	null	null	null	null	null	null	null	null	null	null	null	
Fri Jun 02 16:13:00 UTC 2017	257.0	null	2183926.75	null	null	60683.3359375	null	null	11317.10546875	null	null	null	null	768949.75	754385.8125	0.07450000196695328	0.08250000327825546	0.09525000303983688	0.9727500081062317	0.5895169973373413	100.0	244.0	371.0	0.0	0.0	0.0	0.0	0.0	0.0	null	null	null	null	null	null	null	null	null	null	null	null	null	null	null	null	null	null	null	
Fri Jun 02 16:12:00 UTC 2017	259.0	null	2183926.75	null	null	45040.0078125	null	null	11139.134765625	null	null	null	null	465928.09375	419329.53125	0.07874999940395355	0.07750000059604645	0.09624999761581421	0.9742500185966492	0.5817620158195496	100.0	244.0	371.0	0.0	0.0	0.0	0.0	0.0	0.0	null	null	null	null	null	null	null	null	null	null	null	null	null	null	null	null	null	null	null	
Fri Jun 02 16:11:00 UTC 2017	201.0	null	2183926.75	null	null	27092.306640625	null	null	5888.7587890625	null	null	null	null	465928.09375	419329.53125	0.09049999713897705	0.0754999965429306	0.07649999856948853	0.9764999747276306	0.5747649669647217	100.0	244.0	371.0	0.0	0.0	0.0	0.0	0.0	0.0	null	null	null	null	null	null	null	null	null	null	null	null	null	null	null	null	null	null	null	
Fri Jun 02 16:10:00 UTC 2017	153.0	null	442527.1875	null	null	20896.73828125	null	null	5888.7587890625	null	null	null	null	146662.984375	172320.296875	0.08049999922513962	0.06400000303983688	0.07150000333786011	0.9762499928474426	0.5729331374168396	50.0	244.0	371.0	0.0	0.0	0.0	0.0	0.0	0.0	null	null	null	null	null	null	null	null	null	null	null	null	null	null	null	null	null	null	null	
Fri Jun 02 16:09:00 UTC 2017	138.0	null	442527.1875	null	null	10698.0546875	null	null	2417.488525390625	null	null	null	null	146662.984375	172320.296875	0.06424999982118607	0.07400000095367432	0.07124999910593033	0.9829999804496765	0.5658010244369507	50.0	244.0	371.0	0.0	0.0	0.0	0.0	0.0	0.0	null	null	null	null	null	null	null	null	null	null	null	null	null	null	null	null	null	null	null	
Fri Jun 02 16:08:00 UTC 2017	93.0	null	442527.1875	null	null	10698.0546875	null	null	2417.488525390625	null	null	null	null	146662.984375	172320.296875	0.07774999737739563	0.057999998331069946	0.05849999934434891	0.9857500195503235	0.5565372109413147	50.0	244.0	371.0	0.0	0.0	0.0	0.0	0.0	0.0	null	null	null	null	null	null	null	null	null	null	null	null	null	null	null	null	null	null	null	
Fri Jun 02 16:07:00 UTC 2017	66.0	null	442527.1875	null	null	10642.7392578125	null	null	2417.488525390625	null	null	null	null	148290.046875	172320.296875	0.07050000131130219	0.060499999672174454	0.061250001192092896	0.9872499704360962	0.5562049746513367	20.0	244.0	371.0	0.0	0.0	0.0	0.0	0.0	0.0	null	null	null	null	null	null	null	null	null	null	null	null	null	null	null	null	null	null	null	
Fri Jun 02 16:06:00 UTC 2017	66.0	null	442527.1875	null	null	5914.626953125	null	null	2261.479248046875	null	null	null	null	102824.0390625	116015.5703125	0.06975000351667404	0.05375000089406967	0.06024999916553497	0.987500011920929	0.5556080937385559	20.0	244.0	371.0	0.0	0.0	0.0	0.0	0.0	0.0	null	null	null	null	null	null	null	null	null	null	null	null	null	null	null	null	null	null	null	
Fri Jun 02 16:05:00 UTC 2017	53.0	null	442527.1875	null	null	5914.626953125	null	null	641.4430541992188	null	null	null	null	61201.44140625	69384.9453125	0.07325000315904617	0.05525000020861626	0.04874999821186066	0.9862499833106995	0.5579257607460022	20.0	244.0	371.0	0.0	0.0	0.0	0.0	0.0	0.0	null	null	null	null	null	null	null	null	null	null	null	null	null	null	null	null	null	null	null	
Fri Jun 02 16:04:00 UTC 2017	42.0	null	199495.734375	null	null	2064.798095703125	null	null	641.4430541992188	null	null	null	null	61201.44140625	69384.9453125	0.08124999701976776	0.05624999850988388	0.057500001043081284	0.9894999861717224	0.554959774017334	10.0	244.0	371.0	0.0	0.0	0.0	0.0	0.0	0.0	null	null	null	null	null	null	null	null	null	null	null	null	null	null	null	null	null	null	null	
Fri Jun 02 16:03:00 UTC 2017	33.0	null	199495.734375	null	null	2064.798095703125	null	null	641.4430541992188	null	null	null	null	46435.99609375	32734.708984375	0.06724999845027924	0.04749999940395355	0.05000000074505806	0.9890000224113464	0.5608001947402954	10.0	244.0	371.0	0.0	0.0	0.0	0.0	0.0	0.0	null	null	null	null	null	null	null	null	null	null	null	null	null	null	null	null	null	null	null	
Fri Jun 02 16:02:00 UTC 2017	26.0	null	199495.734375	null	null	2064.798095703125	null	null	641.4430541992188	null	null	null	null	46435.99609375	32734.708984375	0.07850000262260437	0.04975000023841858	0.054249998182058334	0.9857500195503235	0.5629177689552307	10.0	244.0	371.0	0.0	0.0	0.0	0.0	0.0	0.0	null	null	null	null	null	null	null	null	null	null	null	null	null	null	null	null	null	null	null	
Fri Jun 02 16:01:00 UTC 2017	20.0	null	199495.734375	null	null	2064.798095703125	null	null	641.4430541992188	null	null	null	null	46435.99609375	32734.708984375	0.10199999809265137	0.05874999985098839	0.051249999552965164	0.9904999732971191	0.56660395860672	5.0	244.0	371.0	0.0	0.0	0.0	0.0	0.0	0.0	null	null	null	null	null	null	null	null	null	null	null	null	null	null	null	null	null	null	null	
Fri Jun 02 16:00:00 UTC 2017	18.0	null	142294.359375	null	null	2064.798095703125	null	null	302.55633544921875	null	null	null	null	35546.84765625	null	0.07124999910593033	0.05324999988079071	0.05025000125169754	0.9865000247955322	0.5693820118904114	5.0	244.0	371.0	0.0	0.0	0.0	0.0	0.0	0.0	null	null	null	null	null	null	null	null	null	null	null	null	null	null	null	null	null	null	null	
Fri Jun 02 15:59:00 UTC 2017	14.0	null	142294.359375	null	null	1906.81591796875	null	null	302.55633544921875	null	null	null	null	35546.84765625	null	0.06975000351667404	0.05249999836087227	0.05025000125169754	0.9854999780654907	0.572493314743042	5.0	244.0	371.0	0.0	0.0	0.0	0.0	0.0	0.0	null	null	null	null	null	null	null	null	null	null	null	null	null	null	null	null	null	null	null	
Fri Jun 02 15:58:00 UTC 2017	12.0	null	29346.1796875	null	null	789.5416870117188	null	null	302.55633544921875	null	null	null	null	25583.544921875	41720.40234375	0.0677499994635582	0.052000001072883606	0.0494999997317791	0.9902499914169312	0.5771609544754028	3.0	244.0	371.0	0.0	0.0	0.0	0.0	0.0	0.0	null	null	null	null	null	null	null	null	null	null	null	null	null	null	null	null	null	null	null	
Fri Jun 02 15:57:00 UTC 2017	12.0	null	29346.1796875	null	null	789.5416870117188	null	null	302.55633544921875	null	null	null	null	25583.544921875	41720.40234375	0.07524999976158142	0.04899999871850014	0.051750000566244125	0.987500011920929	0.5773414969444275	3.0	244.0	371.0	0.0	0.0	0.0	0.0	0.0	0.0	null	null	null	null	null	null	null	null	null	null	null	null	null	null	null	null	null	null	null	
Fri Jun 02 15:56:00 UTC 2017	6.0	null	211041.84375	null	null	2496.73486328125	null	null	677.0419921875	null	null	null	null	25583.544921875	41720.40234375	0.0729999989271164	0.05575000122189522	0.07249999791383743	0.9904999732971191	0.5785524249076843	3.0	244.0	371.0	0.0	0.0	0.0	0.0	0.0	0.0	null	null	null	null	null	null	null	null	null	null	null	null	null	null	null	null	null	null	null	
Fri Jun 02 15:55:00 UTC 2017	16.0	null	211041.84375	null	null	2496.73486328125	null	null	677.0419921875	null	null	null	null	25583.544921875	41720.40234375	0.07874999940395355	0.05274999886751175	0.054999999701976776	0.9884999990463257	0.5798299312591553	5.0	244.0	371.0	0.0	0.0	0.0	0.0	0.0	0.0	null	null	null	null	null	null	null	null	null	null	null	null	null	null	null	null	null	null	null	
Fri Jun 02 15:54:00 UTC 2017	19.0	null	194481.0625	null	null	2496.73486328125	null	null	654.1528930664062	null	null	null	null	25583.544921875	41720.40234375	0.07074999809265137	0.05299999937415123	0.05350000038743019	0.9902499914169312	0.5837367177009583	5.0	227.0	348.0	0.0	0.0	0.0	0.0	0.0	0.0	null	null	null	null	null	null	null	null	null	null	null	null	null	null	null	null	null	null	null	
Fri Jun 02 15:53:00 UTC 2017	18.0	null	208457.609375	null	null	2496.73486328125	null	null	654.1528930664062	null	null	null	null	34059.21875	41720.40234375	0.08924999833106995	0.054749999195337296	0.045249998569488525	0.9897500276565552	0.5885398983955383	5.0	210.0	324.0	0.0	0.0	0.0	0.0	0.0	0.0	null	null	null	null	null	null	null	null	null	null	null	null	null	null	null	null	null	null	null	
Fri Jun 02 15:52:00 UTC 2017	20.0	null	162725.15625	null	null	2496.73486328125	null	null	654.1528930664062	null	null	null	null	26389.69140625	null	0.07774999737739563	0.054749999195337296	0.05025000125169754	0.9857500195503235	0.5891475677490234	5.0	194.0	299.0	0.0	0.0	0.0	0.0	0.0	0.0	null	null	null	null	null	null	null	null	null	null	null	null	null	null	null	null	null	null	null	
Fri Jun 02 15:51:00 UTC 2017	16.0	null	162725.15625	null	null	2843.91357421875	null	null	683.9434814453125	null	null	null	null	30802.40625	62416.0078125	0.1042499989271164	0.05249999836087227	0.0507499985396862	0.9900000095367432	0.5928171277046204	5.0	177.0	275.0	0.0	0.0	0.0	0.0	0.0	0.0	null	null	null	null	null	null	null	null	null	null	null	null	null	null	null	null	null	null	null	
Fri Jun 02 15:50:00 UTC 2017	17.0	null	208189.3125	null	null	2843.91357421875	null	null	683.9434814453125	null	null	null	null	30802.40625	62416.0078125	0.07625000178813934	0.052000001072883606	0.05350000038743019	0.9887499809265137	0.590818464756012	5.0	177.0	275.0	0.0	0.0	0.0	0.0	0.0	0.0	null	null	null	null	null	null	null	null	null	null	null	null	null	null	null	null	null	null	null	
Fri Jun 02 15:49:00 UTC 2017	23.0	null	197371.46875	null	null	2843.91357421875	null	null	683.9434814453125	null	null	null	null	18953.119140625	73135.46875	0.08250000327825546	0.04724999889731407	0.04724999889731407	0.9804999828338623	0.5884718894958496	5.0	159.0	252.0	0.0	0.0	0.0	0.0	0.0	0.0	null	null	null	null	null	null	null	null	null	null	null	null	null	null	null	null	null	null	null	
Fri Jun 02 15:48:00 UTC 2017	17.0	null	212078.609375	null	null	2469.58984375	null	null	636.8312377929688	null	null	null	null	24623.318359375	38505.33203125	0.07199999690055847	0.05324999988079071	0.050999999046325684	0.9904999732971191	0.5923009514808655	5.0	143.0	227.0	0.0	0.0	0.0	0.0	0.0	0.0	null	null	null	null	null	null	null	null	null	null	null	null	null	null	null	null	null	null	null	
Fri Jun 02 15:47:00 UTC 2017	19.0	null	186052.671875	null	null	2391.0986328125	null	null	647.8359985351562	null	null	null	null	24623.318359375	38505.33203125	0.07599999755620956	0.04975000023841858	0.05225000157952309	0.9862499833106995	0.5934609770774841	5.0	127.0	202.0	0.0	0.0	0.0	0.0	0.0	0.0	null	null	null	null	null	null	null	null	null	null	null	null	null	null	null	null	null	null	null	
Fri Jun 02 15:46:00 UTC 2017	23.0	null	160334.84375	null	null	2391.0986328125	null	null	647.8359985351562	null	null	null	null	24623.318359375	38505.33203125	0.07124999910593033	0.05824999883770943	0.05274999886751175	0.9902499914169312	0.5980014204978943	5.0	110.0	180.0	0.0	0.0	0.0	0.0	0.0	0.0	null	null	null	null	null	null	null	null	null	null	null	null	null	null	null	null	null	null	null	
Fri Jun 02 15:45:00 UTC 2017	18.0	null	160334.84375	null	null	1196.917236328125	null	null	647.8359985351562	null	null	null	null	26304.55859375	38505.33203125	0.08049999922513962	0.05525000020861626	0.04774999991059303	0.9900000095367432	0.5992104411125183	5.0	96.0	155.0	0.0	0.0	0.0	0.0	0.0	0.0	null	null	null	null	null	null	null	null	null	null	null	null	null	null	null	null	null	null	null	
Fri Jun 02 15:44:00 UTC 2017	17.0	null	157827.015625	null	null	1196.917236328125	null	null	647.8359985351562	null	null	null	null	32709.42578125	null	0.06650000065565109	0.051500000059604645	0.0507499985396862	0.9904999732971191	0.6018363237380981	5.0	78.0	130.0	0.0	0.0	0.0	0.0	0.0	0.0	null	null	null	null	null	null	null	null	null	null	null	null	null	null	null	null	null	null	null	
Fri Jun 02 15:43:00 UTC 2017	19.0	null	157827.015625	null	null	1196.917236328125	null	null	647.8359985351562	null	null	null	null	32709.42578125	null	0.07724999636411667	0.04650000110268593	0.05000000074505806	0.9907500147819519	0.5993919372558594	5.0	61.0	102.0	0.0	0.0	0.0	0.0	0.0	0.0	null	null	null	null	null	null	null	null	null	null	null	null	null	null	null	null	null	null	null	
Fri Jun 02 15:42:00 UTC 2017	18.0	null	2618.495849609375	null	null	1196.917236328125	null	null	410.2494812011719	null	null	null	null	32709.42578125	null	0.06849999725818634	0.0560000017285347	0.05575000122189522	0.9904999732971191	0.5963354706764221	5.0	43.0	75.0	0.0	0.0	0.0	0.0	0.0	0.0	null	null	null	null	null	null	null	null	null	null	null	null	null	null	null	null	null	null	null	
Fri Jun 02 15:41:00 UTC 2017	15.0	null	2618.495849609375	null	null	1196.917236328125	null	null	410.2494812011719	null	null	null	null	30979.703125	15763.9775390625	0.09974999725818634	0.05375000089406967	0.04874999821186066	0.9909999966621399	0.5916374921798706	5.0	27.0	50.0	0.0	0.0	0.0	0.0	0.0	0.0	null	null	null	null	null	null	null	null	null	null	null	null	null	null	null	null	null	null	null	
Fri Jun 02 15:40:00 UTC 2017	17.0	null	2618.495849609375	null	null	1196.917236328125	null	null	410.2494812011719	null	null	null	null	17194.564453125	15763.9775390625	0.06949999928474426	0.051750000566244125	0.04500000178813934	0.9867500066757202	0.5928650498390198	3.0	17.0	33.0	0.0	0.0	0.0	0.0	0.0	0.0	null	null	null	null	null	null	null	null	null	null	null	null	null	null	null	null	null	null	null	
Fri Jun 02 15:39:00 UTC 2017	15.0	null	2618.495849609375	null	null	286.33148193359375	null	null	72.24616241455078	null	null	null	null	0.0	0.0	0.07400000095367432	0.045249998569488525	0.054999999701976776	0.984000027179718	0.5862574577331543	3.0	9.0	17.0	0.0	0.0	0.0	0.0	0.0	0.0	null	null	null	null	null	null	null	null	null	null	null	null	null	null	null	null	null	null	null	
Fri Jun 02 15:38:00 UTC 2017	5.0	null	2618.495849609375	null	null	31.59749984741211	null	null	72.24616241455078	null	null	null	null	0.0	0.0	0.07500000298023224	0.05050000175833702	0.07850000262260437	0.9912499785423279	0.5877140164375305	3.0	null	null	null	null	null	null	null	null	null	null	null	null	null	null	null	null	null	null	null	null	null	null	null	null	null	null	null	
Fri Jun 02 15:37:00 UTC 2017	1.0	null	null	null	null	0.5320969820022583	null	null	40.127925872802734	null	null	null	null	0.0	0.0	0.07349999994039536	0.051249999552965164	0.051249999552965164	0.9909999966621399	0.5861194729804993	0.0	null	null	null	null	null	null	null	null	null	null	null	null	null	null	null	null	null	null	null	null	null	null	null	null	null	null	null	
Fri Jun 02 15:36:00 UTC 2017	1.0	null	null	null	null	1.019279956817627	null	null	65.67266845703125	null	null	null	null	0.0	0.0	0.0742499977350235	0.04650000110268593	0.2082500010728836	0.9900000095367432	0.5954430103302002	0.0	null	null	null	null	null	null	null	null	null	null	null	null	null	null	null	null	null	null	null	null	null	null	null	null	null	null	null	
Fri Jun 02 15:35:00 UTC 2017	1.0	null	null	null	null	null	null	null	null	null	null	null	null	null	null	null	null	null	null	null	0.0	null	null	null	null	null	null	null	null	null	null	null	null	null	null	null	null	null	null	null	null	null	null	null	null	null	null	null	
