_DATE	cpuusage_middle	memusage_middle	network_middle	cpuusage_server	memusage_server	network_server	cpuusage_cassandra	memusage_cassandra	network_cassandra	cpuusage_edge1	cpuusage_edge2	memusage_edge1	memusage_edge2	network_edge1	network_edge2	nodecpu61	nodecpu62	nodecpu63	nodecpu64	nodemem64	locustusers	status_200_count1	status_200_count4	status_500_count1	status_500_count4	status_0_count1	status_0_count4	status_other_count1	status_other_count4	percentile_viewfeedresponsetime_edge	percentile_addfeedresponsetime_edge	percentile_deletefeedresponsetime_edge	percentile_fetch_middle	percentile_fetchfeeds_middle	percentile_fetchfeeds_middle	percentile_sub_middle	percentile_unsub_middle	cpuusage_stress1	cpuusage_stress10	cpuusage_stress11	cpuusage_stress2	cpuusage_stress3	cpuusage_stress4	cpuusage_stress5	cpuusage_stress6	cpuusage_stress7	cpuusage_stress8	cpuusage_stress9	
Fri Jun 02 15:35:00 UTC 2017	1.0	null	null	null	null	null	null	null	null	null	null	null	null	null	null	null	null	null	null	null	0.0	0.0	0.0	2298.0	2372.0	0.0	0.0	0.0	0.0	null	null	null	null	null	null	null	null	null	null	null	null	null	null	null	null	null	null	null	
Fri Jun 02 15:36:00 UTC 2017	1.0	6.88017408E8	null	0.0	2.4997888E7	1.019279956817627	8.0	4.60263424E8	65.67266845703125	1.0	1.0	5.26118912E8	5.3112832E8	0.0	0.0	0.0742499977350235	0.04650000110268593	0.2082500010728836	0.9900000095367432	0.5954430103302002	0.0	0.0	0.0	2298.0	2372.0	0.0	0.0	0.0	0.0	null	null	null	null	null	null	null	null	null	null	434.0	0.0	421.0	364.0	0.0	0.0	435.0	388.0	396.0	
Fri Jun 02 15:37:00 UTC 2017	1.0	6.87005696E8	null	0.0	2.4997888E7	0.5320969820022583	4.0	4.60304384E8	40.127925872802734	1.0	1.0	5.25017088E8	5.31042304E8	0.0	0.0	0.07349999994039536	0.051249999552965164	0.051249999552965164	0.9909999966621399	0.5861194729804993	0.0	0.0	0.0	2298.0	2372.0	0.0	0.0	0.0	0.0	null	null	null	null	null	null	null	null	330.0	329.0	341.0	324.0	333.0	328.0	342.0	336.0	329.0	333.0	335.0	
Fri Jun 02 15:38:00 UTC 2017	5.0	6.87005696E8	2618.495849609375	0.0	2.4997888E7	31.59749984741211	3.0	4.60312576E8	72.24616241455078	0.0	0.0	5.25938688E8	5.30956288E8	0.0	0.0	0.07500000298023224	0.05050000175833702	0.07850000262260437	0.9912499785423279	0.5877140164375305	3.0	0.0	0.0	2298.0	2372.0	0.0	0.0	0.0	0.0	null	null	null	null	null	null	null	null	337.0	335.0	335.0	334.0	337.0	339.0	336.0	335.0	333.0	328.0	331.0	
Fri Jun 02 15:39:00 UTC 2017	15.0	6.88181248E8	2618.495849609375	0.0	2.5014272E7	286.33148193359375	4.0	4.60312576E8	72.24616241455078	2.0	2.0	5.24435456E8	5.30538496E8	0.0	0.0	0.07400000095367432	0.045249998569488525	0.054999999701976776	0.984000027179718	0.5862574577331543	3.0	0.0	0.0	2298.0	2372.0	0.0	0.0	0.0	0.0	null	null	null	null	null	null	null	null	328.0	330.0	328.0	330.0	330.0	329.0	338.0	331.0	330.0	333.0	327.0	
Fri Jun 02 15:40:00 UTC 2017	17.0	7.31959296E8	2618.495849609375	0.0	2.502656E7	1196.917236328125	5.0	4.621312E8	410.2494812011719	7.0	2.0	5.33901312E8	5.3045248E8	17194.564453125	15763.9775390625	0.06949999928474426	0.051750000566244125	0.04500000178813934	0.9867500066757202	0.5928650498390198	3.0	0.0	0.0	2298.0	2372.0	0.0	0.0	0.0	0.0	null	null	null	null	null	null	null	null	325.0	327.0	332.0	332.0	335.0	329.0	324.0	328.0	335.0	343.0	329.0	
Fri Jun 02 15:41:00 UTC 2017	15.0	7.33605888E8	2618.495849609375	0.0	2.5042944E7	1196.917236328125	20.0	4.66948096E8	410.2494812011719	8.0	3.0	5.80333568E8	5.31480576E8	30979.703125	15763.9775390625	0.09974999725818634	0.05375000089406967	0.04874999821186066	0.9909999966621399	0.5916374921798706	5.0	0.0	0.0	2298.0	2372.0	0.0	0.0	0.0	0.0	null	null	null	null	null	null	null	null	335.0	333.0	328.0	328.0	328.0	333.0	346.0	331.0	331.0	330.0	332.0	
Fri Jun 02 15:42:00 UTC 2017	18.0	7.70924544E8	2618.495849609375	0.0	2.5059328E7	1196.917236328125	12.0	4.69393408E8	410.2494812011719	4.0	5.0	5.80292608E8	5.61270784E8	32709.42578125	null	0.06849999725818634	0.0560000017285347	0.05575000122189522	0.9904999732971191	0.5963354706764221	5.0	0.0	0.0	2298.0	2372.0	0.0	0.0	0.0	0.0	null	null	null	null	null	null	null	null	331.0	334.0	333.0	332.0	330.0	337.0	342.0	339.0	329.0	328.0	327.0	
Fri Jun 02 15:43:00 UTC 2017	19.0	7.88017152E8	157827.015625	0.0	2.5088E7	1196.917236328125	6.0	4.69405696E8	647.8359985351562	6.0	5.0	5.82189056E8	5.61139712E8	32709.42578125	null	0.07724999636411667	0.04650000110268593	0.05000000074505806	0.9907500147819519	0.5993919372558594	5.0	0.0	0.0	2298.0	2372.0	0.0	0.0	0.0	0.0	null	null	null	null	null	null	null	null	332.0	331.0	326.0	333.0	335.0	336.0	337.0	333.0	332.0	335.0	325.0	
Fri Jun 02 15:44:00 UTC 2017	17.0	8.1829888E8	157827.015625	0.0	2.5088E7	1196.917236328125	7.0	4.69413888E8	647.8359985351562	4.0	7.0	5.81926912E8	5.61106944E8	32709.42578125	null	0.06650000065565109	0.051500000059604645	0.0507499985396862	0.9904999732971191	0.6018363237380981	5.0	0.0	0.0	2298.0	2372.0	0.0	0.0	0.0	0.0	null	null	null	null	null	null	null	null	334.0	330.0	328.0	332.0	330.0	332.0	335.0	334.0	330.0	325.0	330.0	
Fri Jun 02 15:45:00 UTC 2017	18.0	7.76704E8	160334.84375	0.0	2.5096192E7	1196.917236328125	8.0	4.6952448E8	647.8359985351562	5.0	10.0	5.8191872E8	5.69319424E8	26304.55859375	38505.33203125	0.08049999922513962	0.05525000020861626	0.04774999991059303	0.9900000095367432	0.5992104411125183	5.0	0.0	0.0	2298.0	2372.0	0.0	0.0	0.0	0.0	null	null	null	null	null	null	null	null	332.0	329.0	330.0	329.0	331.0	335.0	331.0	330.0	332.0	333.0	329.0	
Fri Jun 02 15:46:00 UTC 2017	23.0	7.64895232E8	160334.84375	0.0	2.5096192E7	2391.0986328125	10.0	4.69823488E8	647.8359985351562	4.0	4.0	5.82029312E8	5.63040256E8	24623.318359375	38505.33203125	0.07124999910593033	0.05824999883770943	0.05274999886751175	0.9902499914169312	0.5980014204978943	5.0	0.0	0.0	2298.0	2372.0	0.0	0.0	0.0	0.0	null	null	null	null	null	null	null	null	336.0	333.0	330.0	332.0	331.0	331.0	334.0	333.0	331.0	334.0	329.0	
Fri Jun 02 15:47:00 UTC 2017	19.0	7.45652224E8	186052.671875	0.0	2.5096192E7	2391.0986328125	6.0	4.69753856E8	647.8359985351562	3.0	5.0	5.82959104E8	5.6297472E8	24623.318359375	38505.33203125	0.07599999755620956	0.04975000023841858	0.05225000157952309	0.9862499833106995	0.5934609770774841	5.0	0.0	0.0	2298.0	2372.0	0.0	0.0	0.0	0.0	null	null	null	null	null	null	null	null	329.0	325.0	329.0	326.0	327.0	331.0	333.0	327.0	326.0	327.0	334.0	
Fri Jun 02 15:48:00 UTC 2017	17.0	7.1671808E8	212078.609375	0.0	2.5096192E7	2469.58984375	6.0	4.69778432E8	636.8312377929688	8.0	6.0	5.88836864E8	5.77724416E8	24623.318359375	38505.33203125	0.07199999690055847	0.05324999988079071	0.050999999046325684	0.9904999732971191	0.5923009514808655	5.0	0.0	0.0	2298.0	2372.0	0.0	0.0	0.0	0.0	null	null	null	null	null	null	null	null	328.0	329.0	330.0	331.0	327.0	330.0	330.0	332.0	335.0	336.0	330.0	
Fri Jun 02 15:49:00 UTC 2017	23.0	7.0363136E8	197371.46875	0.0	2.5096192E7	2843.91357421875	6.0	4.69786624E8	683.9434814453125	3.0	5.0	5.84704E8	5.77642496E8	18953.119140625	73135.46875	0.08250000327825546	0.04724999889731407	0.04724999889731407	0.9804999828338623	0.5884718894958496	5.0	0.0	0.0	2298.0	2372.0	0.0	0.0	0.0	0.0	null	null	null	null	null	null	null	null	330.0	330.0	323.0	330.0	330.0	332.0	330.0	329.0	328.0	328.0	330.0	
Fri Jun 02 15:50:00 UTC 2017	17.0	7.22788352E8	208189.3125	0.0	2.5096192E7	2843.91357421875	6.0	4.69889024E8	683.9434814453125	4.0	9.0	5.84564736E8	5.77646592E8	30802.40625	62416.0078125	0.07625000178813934	0.052000001072883606	0.05350000038743019	0.9887499809265137	0.590818464756012	5.0	0.0	0.0	2298.0	2372.0	0.0	0.0	0.0	0.0	null	null	null	null	null	null	null	null	335.0	323.0	334.0	332.0	333.0	331.0	331.0	330.0	330.0	333.0	328.0	
Fri Jun 02 15:51:00 UTC 2017	16.0	7.20093184E8	162725.15625	0.0	2.5096192E7	2843.91357421875	8.0	4.70085632E8	683.9434814453125	6.0	6.0	6.05822976E8	5.77622016E8	30802.40625	62416.0078125	0.1042499989271164	0.05249999836087227	0.0507499985396862	0.9900000095367432	0.5928171277046204	5.0	0.0	0.0	2298.0	2372.0	0.0	0.0	0.0	0.0	null	null	null	null	null	null	null	null	327.0	334.0	330.0	331.0	329.0	329.0	330.0	330.0	330.0	328.0	334.0	
Fri Jun 02 15:52:00 UTC 2017	20.0	7.13551872E8	162725.15625	0.0	2.5104384E7	2496.73486328125	7.0	4.70122496E8	654.1528930664062	4.0	4.0	6.0573696E8	5.77540096E8	26389.69140625	null	0.07774999737739563	0.054749999195337296	0.05025000125169754	0.9857500195503235	0.5891475677490234	5.0	0.0	0.0	2298.0	2372.0	0.0	0.0	0.0	0.0	null	null	null	null	null	null	null	null	333.0	331.0	328.0	332.0	334.0	331.0	328.0	328.0	335.0	330.0	330.0	
Fri Jun 02 15:53:00 UTC 2017	18.0	6.85580288E8	208457.609375	0.0	2.5104384E7	2496.73486328125	6.0	4.7013888E8	654.1528930664062	5.0	4.0	6.05696E8	5.77470464E8	34059.21875	41720.40234375	0.08924999833106995	0.054749999195337296	0.045249998569488525	0.9897500276565552	0.5885398983955383	5.0	0.0	0.0	2298.0	2372.0	0.0	0.0	0.0	0.0	null	null	null	null	null	null	null	null	331.0	330.0	334.0	327.0	332.0	329.0	329.0	333.0	329.0	330.0	331.0	
Fri Jun 02 15:54:00 UTC 2017	19.0	6.73984512E8	194481.0625	0.0	2.5104384E7	2496.73486328125	6.0	4.7007744E8	654.1528930664062	5.0	7.0	6.05609984E8	5.8689536E8	25583.544921875	41720.40234375	0.07074999809265137	0.05299999937415123	0.05350000038743019	0.9902499914169312	0.5837367177009583	5.0	0.0	0.0	2298.0	2372.0	0.0	0.0	0.0	0.0	null	null	null	null	null	null	null	null	333.0	331.0	331.0	332.0	327.0	337.0	335.0	331.0	331.0	329.0	329.0	
Fri Jun 02 15:55:00 UTC 2017	16.0	6.4094208E8	211041.84375	0.0	2.5104384E7	2496.73486328125	7.0	4.70196224E8	677.0419921875	6.0	6.0	6.045696E8	5.86817536E8	25583.544921875	41720.40234375	0.07874999940395355	0.05274999886751175	0.054999999701976776	0.9884999990463257	0.5798299312591553	5.0	0.0	0.0	2298.0	2372.0	0.0	0.0	0.0	0.0	null	null	null	null	null	null	null	null	332.0	333.0	331.0	332.0	330.0	333.0	330.0	328.0	329.0	329.0	334.0	
Fri Jun 02 15:56:00 UTC 2017	6.0	6.17312256E8	211041.84375	0.0	2.5104384E7	2496.73486328125	7.0	4.71113728E8	677.0419921875	2.0	3.0	6.05495296E8	5.8673152E8	25583.544921875	41720.40234375	0.0729999989271164	0.05575000122189522	0.07249999791383743	0.9904999732971191	0.5785524249076843	3.0	0.0	0.0	2298.0	2372.0	0.0	0.0	0.0	0.0	null	null	null	null	null	null	null	null	329.0	331.0	331.0	331.0	336.0	328.0	332.0	333.0	336.0	335.0	333.0	
Fri Jun 02 15:57:00 UTC 2017	12.0	6.06961664E8	29346.1796875	0.0	2.5104384E7	789.5416870117188	4.0	4.71023616E8	302.55633544921875	4.0	5.0	6.04401664E8	5.87030528E8	25583.544921875	41720.40234375	0.07524999976158142	0.04899999871850014	0.051750000566244125	0.987500011920929	0.5773414969444275	3.0	0.0	0.0	2298.0	2372.0	0.0	0.0	0.0	0.0	null	null	null	null	null	null	null	null	330.0	334.0	332.0	331.0	330.0	333.0	329.0	329.0	333.0	331.0	331.0	
Fri Jun 02 15:58:00 UTC 2017	12.0	5.86981376E8	29346.1796875	0.0	2.5104384E7	789.5416870117188	5.0	4.71027712E8	302.55633544921875	4.0	3.0	6.05335552E8	5.87067392E8	25583.544921875	41720.40234375	0.0677499994635582	0.052000001072883606	0.0494999997317791	0.9902499914169312	0.5771609544754028	3.0	0.0	0.0	2298.0	2372.0	0.0	0.0	0.0	0.0	null	null	null	null	null	null	null	null	330.0	333.0	329.0	339.0	330.0	330.0	331.0	332.0	330.0	335.0	327.0	
Fri Jun 02 15:59:00 UTC 2017	14.0	5.67005184E8	142294.359375	0.0	2.5104384E7	1906.81591796875	5.0	4.71027712E8	302.55633544921875	4.0	3.0	6.0524544E8	5.8650624E8	35546.84765625	null	0.06975000351667404	0.05249999836087227	0.05025000125169754	0.9854999780654907	0.572493314743042	5.0	0.0	0.0	2298.0	2372.0	0.0	0.0	0.0	0.0	null	null	null	null	null	null	null	null	329.0	325.0	329.0	329.0	329.0	325.0	328.0	326.0	330.0	329.0	335.0	
Fri Jun 02 16:00:00 UTC 2017	18.0	5.39254784E8	142294.359375	0.0	2.5104384E7	2064.798095703125	6.0	4.7112192E8	302.55633544921875	4.0	4.0	6.0420096E8	5.86645504E8	35546.84765625	null	0.07124999910593033	0.05324999988079071	0.05025000125169754	0.9865000247955322	0.5693820118904114	5.0	0.0	0.0	2298.0	2372.0	0.0	0.0	0.0	0.0	null	null	null	null	null	null	null	null	337.0	335.0	333.0	329.0	332.0	334.0	334.0	336.0	331.0	332.0	333.0	
Fri Jun 02 16:01:00 UTC 2017	20.0	5.09116416E8	199495.734375	0.0	2.5104384E7	2064.798095703125	7.0	4.71343104E8	641.4430541992188	6.0	7.0	6.16660992E8	5.86436608E8	46435.99609375	32734.708984375	0.10199999809265137	0.05874999985098839	0.051249999552965164	0.9904999732971191	0.56660395860672	5.0	0.0	0.0	2298.0	2372.0	0.0	0.0	0.0	0.0	null	null	null	null	null	null	null	null	329.0	331.0	331.0	333.0	331.0	329.0	330.0	330.0	332.0	335.0	333.0	
Fri Jun 02 16:02:00 UTC 2017	26.0	4.84610048E8	199495.734375	0.0	2.5104384E7	2064.798095703125	6.0	4.7126528E8	641.4430541992188	3.0	6.0	6.17578496E8	5.8988544E8	46435.99609375	32734.708984375	0.07850000262260437	0.04975000023841858	0.054249998182058334	0.9857500195503235	0.5629177689552307	10.0	0.0	0.0	2298.0	2372.0	0.0	0.0	0.0	0.0	null	null	null	null	null	null	null	null	332.0	325.0	328.0	328.0	329.0	330.0	329.0	329.0	331.0	327.0	330.0	
Fri Jun 02 16:03:00 UTC 2017	33.0	4.45407232E8	199495.734375	1.0	2.5104384E7	2064.798095703125	9.0	4.73260032E8	641.4430541992188	5.0	8.0	6.1650944E8	5.89492224E8	46435.99609375	32734.708984375	0.06724999845027924	0.04749999940395355	0.05000000074505806	0.9890000224113464	0.5608001947402954	10.0	0.0	0.0	2298.0	2372.0	0.0	0.0	0.0	0.0	null	null	null	null	null	null	null	null	330.0	334.0	333.0	329.0	328.0	329.0	329.0	331.0	328.0	334.0	330.0	
Fri Jun 02 16:04:00 UTC 2017	42.0	4.17947648E8	199495.734375	1.0	2.5104384E7	2064.798095703125	14.0	4.73780224E8	641.4430541992188	7.0	11.0	6.16452096E8	5.8947584E8	61201.44140625	69384.9453125	0.08124999701976776	0.05624999850988388	0.057500001043081284	0.9894999861717224	0.554959774017334	10.0	0.0	0.0	2298.0	2372.0	0.0	0.0	0.0	0.0	null	null	null	null	null	null	null	null	328.0	329.0	330.0	329.0	334.0	329.0	329.0	331.0	330.0	326.0	329.0	
Fri Jun 02 16:05:00 UTC 2017	53.0	4.19651584E8	442527.1875	1.0	2.5104384E7	5914.626953125	10.0	4.73899008E8	641.4430541992188	5.0	9.0	6.17357312E8	5.89430784E8	61201.44140625	69384.9453125	0.07325000315904617	0.05525000020861626	0.04874999821186066	0.9862499833106995	0.5579257607460022	20.0	0.0	0.0	2298.0	2372.0	0.0	0.0	0.0	0.0	null	null	null	null	null	null	null	null	328.0	327.0	325.0	329.0	326.0	328.0	325.0	325.0	324.0	326.0	326.0	
Fri Jun 02 16:06:00 UTC 2017	66.0	4.155392E8	442527.1875	2.0	2.5104384E7	5914.626953125	16.0	4.74128384E8	2261.479248046875	11.0	17.0	6.24254976E8	5.89381632E8	102824.0390625	116015.5703125	0.06975000351667404	0.05375000089406967	0.06024999916553497	0.987500011920929	0.5556080937385559	20.0	0.0	0.0	2298.0	2372.0	0.0	0.0	0.0	0.0	null	null	null	null	null	null	null	null	322.0	326.0	326.0	325.0	326.0	326.0	329.0	328.0	326.0	327.0	324.0	
Fri Jun 02 16:07:00 UTC 2017	66.0	4.2113024E8	442527.1875	2.0	2.5104384E7	10642.7392578125	21.0	4.7497216E8	2417.488525390625	13.0	21.0	6.24160768E8	5.7837568E8	148290.046875	172320.296875	0.07050000131130219	0.060499999672174454	0.061250001192092896	0.9872499704360962	0.5562049746513367	20.0	0.0	0.0	2298.0	2372.0	0.0	0.0	0.0	0.0	null	null	null	null	null	null	null	null	325.0	326.0	325.0	321.0	330.0	326.0	323.0	322.0	325.0	323.0	324.0	
Fri Jun 02 16:08:00 UTC 2017	93.0	4.2033152E8	442527.1875	3.0	2.5104384E7	10698.0546875	15.0	4.74996736E8	2417.488525390625	16.0	15.0	6.21027328E8	5.78445312E8	146662.984375	172320.296875	0.07774999737739563	0.057999998331069946	0.05849999934434891	0.9857500195503235	0.5565372109413147	50.0	0.0	0.0	2298.0	2372.0	0.0	0.0	0.0	0.0	null	null	null	null	null	null	null	null	328.0	324.0	323.0	328.0	324.0	325.0	324.0	330.0	324.0	327.0	326.0	
Fri Jun 02 16:09:00 UTC 2017	138.0	4.90606592E8	442527.1875	5.0	2.5993216E7	10698.0546875	29.0	4.75869184E8	2417.488525390625	34.0	27.0	6.15092224E8	5.96742144E8	146662.984375	172320.296875	0.06424999982118607	0.07400000095367432	0.07124999910593033	0.9829999804496765	0.5658010244369507	50.0	0.0	0.0	2298.0	2372.0	0.0	0.0	0.0	0.0	null	null	null	null	null	null	null	null	322.0	319.0	319.0	319.0	320.0	320.0	319.0	319.0	321.0	319.0	322.0	
Fri Jun 02 16:10:00 UTC 2017	153.0	5.33561344E8	442527.1875	6.0	2.5874432E7	20896.73828125	37.0	4.7673344E8	5888.7587890625	36.0	29.0	6.2058496E8	5.92605184E8	146662.984375	172320.296875	0.08049999922513962	0.06400000303983688	0.07150000333786011	0.9762499928474426	0.5729331374168396	50.0	0.0	0.0	2298.0	2372.0	0.0	0.0	0.0	0.0	null	null	null	null	null	null	null	null	311.0	312.0	313.0	314.0	311.0	314.0	316.0	317.0	318.0	316.0	312.0	
Fri Jun 02 16:11:00 UTC 2017	201.0	5.61717248E8	2183926.75	7.0	2.5874432E7	27092.306640625	40.0	4.84143104E8	5888.7587890625	32.0	36.0	6.27810304E8	5.66603776E8	465928.09375	419329.53125	0.09049999713897705	0.0754999965429306	0.07649999856948853	0.9764999747276306	0.5747649669647217	100.0	0.0	0.0	2298.0	2372.0	0.0	0.0	0.0	0.0	null	null	null	null	null	null	null	null	315.0	314.0	313.0	318.0	314.0	315.0	307.0	311.0	312.0	310.0	310.0	
Fri Jun 02 16:12:00 UTC 2017	259.0	6.23140864E8	2183926.75	11.0	2.6570752E7	45040.0078125	62.0	4.84397056E8	11139.134765625	53.0	53.0	5.7438208E8	5.1853312E8	465928.09375	419329.53125	0.07874999940395355	0.07750000059604645	0.09624999761581421	0.9742500185966492	0.5817620158195496	100.0	0.0	0.0	2298.0	2372.0	0.0	0.0	0.0	0.0	null	null	null	null	null	null	null	null	303.0	303.0	306.0	303.0	305.0	300.0	304.0	306.0	302.0	309.0	306.0	
Fri Jun 02 16:13:00 UTC 2017	257.0	6.82262528E8	2183926.75	15.0	2.6677248E7	60683.3359375	62.0	4.89713664E8	11317.10546875	58.0	51.0	4.74963968E8	4.37420032E8	768949.75	754385.8125	0.07450000196695328	0.08250000327825546	0.09525000303983688	0.9727500081062317	0.5895169973373413	100.0	0.0	0.0	2298.0	2372.0	0.0	0.0	0.0	0.0	null	null	null	null	null	null	null	null	302.0	297.0	300.0	299.0	301.0	303.0	298.0	298.0	298.0	296.0	300.0	
Fri Jun 02 16:14:00 UTC 2017	252.0	8.9921536E8	2183926.75	16.0	2.6677248E7	60683.3359375	59.0	4.89869312E8	11317.10546875	66.0	48.0	4.16448512E8	3.8854656E8	822706.875	836662.3125	0.06925000250339508	0.0754999965429306	0.0989999994635582	0.972000002861023	0.6204100251197815	150.0	0.0	0.0	2298.0	2372.0	0.0	0.0	0.0	0.0	null	null	null	null	null	null	null	null	297.0	303.0	295.0	300.0	295.0	295.0	303.0	306.0	303.0	299.0	295.0	
Fri Jun 02 16:15:00 UTC 2017	289.0	1.034817536E9	4686977.5	17.0	2.7353088E7	60683.3359375	74.0	4.9303552E8	11317.10546875	74.0	62.0	3.82943232E8	3.64736512E8	1061228.875	836662.3125	0.07599999755620956	0.08550000190734863	0.1042499989271164	0.968999981880188	0.6329891681671143	150.0	0.0	0.0	2298.0	2372.0	0.0	0.0	0.0	0.0	null	null	null	null	null	null	null	null	298.0	299.0	299.0	299.0	299.0	301.0	299.0	295.0	298.0	300.0	299.0	
Fri Jun 02 16:16:00 UTC 2017	321.0	1.073340416E9	4686977.5	21.0	2.8880896E7	60683.3359375	87.0	4.9666048E8	11317.10546875	86.0	60.0	3.7986304E8	3.61578496E8	1061228.875	836662.3125	0.06449999660253525	0.0949999988079071	0.11599999666213989	0.9660000205039978	0.6388007402420044	150.0	0.0	0.0	2298.0	2372.0	0.0	0.0	0.0	0.0	null	null	null	null	null	null	null	null	292.0	292.0	296.0	295.0	292.0	292.0	294.0	297.0	295.0	293.0	292.0	
Fri Jun 02 16:17:00 UTC 2017	337.0	1.076645888E9	6286555.0	22.0	2.8962816E7	60683.3359375	75.0	4.99499008E8	11317.10546875	86.0	62.0	3.80198912E8	3.6149248E8	1425160.625	1106430.875	0.07225000113248825	0.08874999731779099	0.11574999988079071	0.9639999866485596	0.6378647685050964	200.0	0.0	0.0	2298.0	2372.0	0.0	0.0	0.0	0.0	null	null	null	null	null	null	null	null	290.0	291.0	287.0	289.0	290.0	288.0	289.0	290.0	291.0	289.0	287.0	
Fri Jun 02 16:18:00 UTC 2017	362.0	1.07790336E9	6286555.0	25.0	2.9028352E7	119557.40625	87.0	5.03025664E8	19663.93359375	104.0	85.0	3.82623744E8	3.6524032E8	1425160.625	1106430.875	0.07524999976158142	0.10300000011920929	0.12725000083446503	0.9607499837875366	0.638796329498291	200.0	0.0	0.0	2298.0	2372.0	0.0	0.0	0.0	0.0	null	null	null	null	null	null	null	null	286.0	286.0	285.0	288.0	286.0	286.0	286.0	287.0	285.0	286.0	286.0	
Fri Jun 02 16:19:00 UTC 2017	378.0	1.079185408E9	7676155.0	28.0	2.9118464E7	119474.0546875	83.0	5.05413632E8	19663.93359375	102.0	82.0	3.84811008E8	3.67501312E8	1645095.625	1459651.375	0.07575000077486038	0.09799999743700027	0.12549999356269836	0.9599999785423279	0.6384059190750122	200.0	0.0	0.0	2298.0	2372.0	0.0	0.0	0.0	0.0	null	null	null	null	null	null	null	null	281.0	282.0	284.0	280.0	281.0	283.0	283.0	283.0	282.0	282.0	279.0	
Fri Jun 02 16:20:00 UTC 2017	374.0	1.077743616E9	7676155.0	28.0	3.0015488E7	119474.0546875	80.0	5.05622528E8	19663.93359375	100.0	89.0	3.856384E8	3.67149056E8	1645095.625	1459651.375	0.07724999636411667	0.10949999839067459	0.12200000137090683	0.9582499861717224	0.6385712623596191	250.0	0.0	0.0	2298.0	2372.0	0.0	0.0	0.0	0.0	null	null	null	null	null	null	null	null	283.0	279.0	278.0	280.0	281.0	282.0	277.0	280.0	279.0	279.0	281.0	
Fri Jun 02 16:21:00 UTC 2017	392.0	1.078259712E9	8191240.5	29.0	2.99008E7	119474.0546875	94.0	5.10394368E8	21710.322265625	114.0	95.0	3.89701632E8	3.76406016E8	1645095.625	1459651.375	0.09974999725818634	0.1067499965429306	0.13699999451637268	0.9577500224113464	0.6410303711891174	250.0	0.0	0.0	2298.0	2372.0	0.0	0.0	0.0	0.0	null	null	null	null	null	null	null	null	282.0	277.0	282.0	281.0	281.0	281.0	283.0	280.0	280.0	285.0	284.0	
Fri Jun 02 16:22:00 UTC 2017	397.0	1.078304768E9	8735020.0	32.0	2.9229056E7	140971.828125	101.0	5.1349504E8	22086.681640625	118.0	102.0	3.95956224E8	3.74034432E8	1645095.625	1459651.375	0.06575000286102295	0.11749999970197678	0.13975000381469727	0.9570000171661377	0.6394974589347839	250.0	0.0	0.0	2298.0	2372.0	0.0	0.0	0.0	0.0	null	null	null	null	null	null	null	null	278.0	280.0	279.0	277.0	278.0	280.0	280.0	283.0	280.0	280.0	277.0	
Fri Jun 02 16:23:00 UTC 2017	384.0	1.079857152E9	8735020.0	32.0	2.9986816E7	140971.828125	93.0	5.1539968E8	22086.681640625	115.0	101.0	3.94235904E8	3.7423104E8	1645095.625	1459651.375	0.07850000262260437	0.11675000190734863	0.13699999451637268	0.9559999704360962	0.6398996114730835	300.0	0.0	0.0	2298.0	2372.0	0.0	0.0	0.0	0.0	null	null	null	null	null	null	null	null	278.0	281.0	278.0	283.0	283.0	279.0	280.0	277.0	280.0	280.0	280.0	
Fri Jun 02 16:24:00 UTC 2017	400.0	1.080414208E9	8735020.0	31.0	3.0785536E7	140971.828125	93.0	5.17455872E8	22086.681640625	123.0	106.0	4.04045824E8	3.78855424E8	1645095.625	1459651.375	0.0754999965429306	0.11649999767541885	0.13824999332427979	0.956250011920929	0.642544150352478	300.0	0.0	0.0	2298.0	2372.0	0.0	0.0	0.0	0.0	null	null	null	null	null	null	null	null	278.0	276.0	280.0	277.0	280.0	281.0	280.0	281.0	278.0	283.0	278.0	
Fri Jun 02 16:25:00 UTC 2017	399.0	1.08070912E9	8735020.0	32.0	3.002368E7	140971.828125	93.0	5.19593984E8	22086.681640625	123.0	110.0	4.06745088E8	3.821568E8	1847463.875	1757522.625	0.07050000131130219	0.12325000017881393	0.14100000262260437	0.9557499885559082	0.6404803991317749	300.0	0.0	0.0	2298.0	2372.0	0.0	0.0	0.0	0.0	null	null	null	null	null	null	null	null	280.0	281.0	277.0	279.0	277.0	277.0	281.0	279.0	280.0	277.0	278.0	
Fri Jun 02 16:26:00 UTC 2017	396.0	1.080246272E9	8735020.0	32.0	2.9925376E7	152793.046875	93.0	5.2168704E8	21444.580078125	122.0	107.0	4.08743936E8	3.8897664E8	1775169.25	1757522.625	0.06424999982118607	0.1262499988079071	0.1420000046491623	0.9559999704360962	0.6407822966575623	350.0	0.0	0.0	2298.0	2372.0	0.0	0.0	0.0	0.0	null	null	null	null	null	null	null	null	275.0	274.0	276.0	277.0	281.0	280.0	280.0	280.0	278.0	279.0	278.0	
Fri Jun 02 16:27:00 UTC 2017	400.0	1.080516608E9	8864537.0	31.0	2.9970432E7	137887.28125	93.0	5.24517376E8	22635.658203125	127.0	110.0	4.12925952E8	3.92167424E8	1775169.25	1757522.625	0.07800000160932541	0.1367499977350235	0.1445000022649765	0.9557499885559082	0.642168402671814	350.0	0.0	0.0	2298.0	2372.0	0.0	0.0	0.0	0.0	null	null	null	null	null	null	null	null	279.0	281.0	280.0	279.0	279.0	277.0	277.0	279.0	279.0	280.0	282.0	
Fri Jun 02 16:28:00 UTC 2017	405.0	1.080152064E9	8987412.0	32.0	3.0109696E7	156233.59375	94.0	5.26594048E8	22635.658203125	126.0	117.0	4.135936E8	3.93506816E8	1780827.0	null	0.07724999636411667	0.13175000250339508	0.15074999630451202	0.9542499780654907	0.6412920951843262	350.0	0.0	0.0	2298.0	2372.0	0.0	0.0	0.0	0.0	null	null	null	null	null	null	null	null	274.0	275.0	275.0	277.0	276.0	277.0	278.0	279.0	276.0	276.0	276.0	
Fri Jun 02 16:29:00 UTC 2017	402.0	1.080446976E9	9003080.0	32.0	3.0851072E7	156233.59375	94.0	5.28580608E8	22635.658203125	134.0	119.0	4.2684416E8	3.9477248E8	1760677.125	1871845.0	0.06400000303983688	0.14174999296665192	0.14249999821186066	0.9545000195503235	0.641529381275177	400.0	0.0	0.0	2298.0	2372.0	0.0	0.0	0.0	0.0	null	null	null	null	null	null	null	null	277.0	276.0	278.0	277.0	275.0	277.0	279.0	275.0	276.0	278.0	275.0	
Fri Jun 02 16:30:00 UTC 2017	400.0	1.080803328E9	9209342.0	33.0	2.9401088E7	156233.59375	98.0	5.30604032E8	22635.658203125	131.0	127.0	4.4910592E8	4.02857984E8	1807320.875	1871845.0	0.07850000262260437	0.1432500034570694	0.15600000321865082	0.9547500014305115	0.6416757106781006	400.0	0.0	0.0	2298.0	2372.0	0.0	0.0	0.0	0.0	null	null	null	null	null	null	null	null	276.0	278.0	277.0	276.0	277.0	276.0	274.0	277.0	279.0	279.0	277.0	
Fri Jun 02 16:31:00 UTC 2017	400.0	1.082544128E9	9209342.0	32.0	3.0089216E7	156233.59375	97.0	5.32688896E8	22635.658203125	124.0	123.0	4.63466496E8	4.1007104E8	1734455.0	1763997.125	0.09700000286102295	0.1407500058412552	0.1547500044107437	0.9542499780654907	0.6442487835884094	400.0	0.0	0.0	2298.0	2372.0	0.0	0.0	0.0	0.0	null	null	null	null	null	null	null	null	278.0	279.0	276.0	279.0	279.0	278.0	278.0	279.0	279.0	275.0	278.0	
Fri Jun 02 16:32:00 UTC 2017	395.0	1.081249792E9	9209342.0	32.0	3.0089216E7	142815.5	94.0	5.34761472E8	22492.84375	118.0	120.0	4.7618048E8	4.1285632E8	1862540.25	1690273.375	0.06300000101327896	0.13975000381469727	0.14749999344348907	0.956250011920929	0.6447556614875793	500.0	0.0	0.0	2298.0	2372.0	0.0	0.0	0.0	0.0	null	null	null	null	null	null	null	null	278.0	280.0	282.0	278.0	277.0	280.0	277.0	278.0	280.0	279.0	278.0	
Fri Jun 02 16:33:00 UTC 2017	394.0	1.08142592E9	8755269.0	32.0	3.0789632E7	142815.5	99.0	5.37493504E8	24084.548828125	119.0	133.0	4.88972288E8	4.18906112E8	1675658.375	1690273.375	0.08150000125169754	0.1574999988079071	0.1655000001192093	0.9555000066757202	0.6424345374107361	500.0	0.0	0.0	2298.0	2372.0	0.0	0.0	0.0	0.0	null	null	null	null	null	null	null	null	280.0	280.0	276.0	283.0	279.0	279.0	281.0	279.0	278.0	281.0	279.0	
Fri Jun 02 16:34:00 UTC 2017	411.0	1.081331712E9	8836692.0	32.0	3.0789632E7	142815.5	97.0	5.395456E8	24084.548828125	125.0	131.0	5.01858304E8	4.3300864E8	1675658.375	1690273.375	0.07374999672174454	0.15424999594688416	0.15725000202655792	0.9542499780654907	0.642597496509552	500.0	0.0	0.0	2298.0	2372.0	0.0	0.0	0.0	0.0	null	null	null	null	null	null	null	null	279.0	282.0	278.0	280.0	279.0	277.0	275.0	283.0	280.0	276.0	276.0	
Fri Jun 02 16:35:00 UTC 2017	389.0	1.081737216E9	9013533.0	33.0	2.998272E7	152149.40625	95.0	5.41585408E8	24084.548828125	143.0	116.0	5.18656E8	4.47561728E8	1806889.25	1755491.0	0.06925000250339508	0.1497499942779541	0.16249999403953552	0.9547500014305115	0.6427315473556519	600.0	0.0	0.0	2298.0	2372.0	0.0	0.0	0.0	0.0	null	null	null	null	null	null	null	null	277.0	281.0	279.0	278.0	275.0	274.0	276.0	277.0	278.0	277.0	279.0	
Fri Jun 02 16:36:00 UTC 2017	385.0	1.082273792E9	8659945.0	31.0	2.9995008E7	152149.40625	93.0	5.44735232E8	22270.365234375	135.0	107.0	5.28764928E8	4.59886592E8	2092179.375	1480820.375	0.06475000083446503	0.15974999964237213	0.16200000047683716	0.9549999833106995	0.6429536938667297	600.0	0.0	0.0	2298.0	2372.0	0.0	0.0	0.0	0.0	null	null	null	null	null	null	null	null	279.0	280.0	276.0	279.0	279.0	279.0	278.0	280.0	278.0	278.0	277.0	
Fri Jun 02 16:37:00 UTC 2017	396.0	1.08300288E9	8499971.0	31.0	2.9888512E7	139405.125	85.0	5.46660352E8	19600.501953125	88.0	128.0	5.3856256E8	4.71392256E8	1392398.0	1950859.5	0.07649999856948853	0.14800000190734863	0.15449999272823334	0.9572499990463257	0.6432227492332458	600.0	0.0	0.0	2298.0	2372.0	0.0	0.0	0.0	0.0	null	null	null	null	null	null	null	null	277.0	279.0	282.0	281.0	280.0	276.0	279.0	279.0	279.0	279.0	281.0	
Fri Jun 02 16:38:00 UTC 2017	69.0	1.08177408E9	8630673.0	32.0	2.9949952E7	142196.75	84.0	5.49462016E8	19600.501953125	102.0	109.0	5.46029568E8	4.83897344E8	1392398.0	1950859.5	0.06949999928474426	0.15800000727176666	0.15974999964237213	0.9567499756813049	0.6434311866760254	0.0	0.0	0.0	2298.0	2372.0	0.0	0.0	0.0	0.0	null	null	null	null	null	null	null	null	282.0	280.0	277.0	276.0	279.0	278.0	275.0	277.0	279.0	279.0	276.0	
Fri Jun 02 16:39:00 UTC 2017	1.0	1.082658816E9	8630673.0	7.0	2.5399296E7	142196.75	14.0	5.4943744E8	5356.42431640625	32.0	14.0	5.53680896E8	4.86047744E8	673256.875	1656329.125	0.0820000022649765	0.0625	0.06575000286102295	0.9810000061988831	0.6433475613594055	0.0	0.0	0.0	2298.0	2372.0	0.0	0.0	0.0	0.0	null	null	null	null	null	null	null	null	321.0	319.0	321.0	311.0	315.0	318.0	320.0	321.0	324.0	317.0	316.0	
Fri Jun 02 16:40:00 UTC 2017	1.0	1.082658816E9	3188.680419921875	0.0	2.5399296E7	0.0	3.0	5.49527552E8	5356.42431640625	1.0	2.0	5.5359488E8	4.85896192E8	0.0	null	0.07150000333786011	0.05649999901652336	0.0507499985396862	0.9915000200271606	0.6433475613594055	0.0	0.0	0.0	2298.0	2372.0	0.0	0.0	0.0	0.0	null	null	null	null	null	null	null	null	332.0	332.0	336.0	335.0	333.0	337.0	333.0	336.0	329.0	336.0	336.0	
Fri Jun 02 16:41:00 UTC 2017	2.0	1.082658816E9	2427.38427734375	0.0	2.5399296E7	0.0	6.0	5.51559168E8	37.81855773925781	2.0	3.0	5.54512384E8	4.8582656E8	0.0	null	0.09425000101327896	0.05299999937415123	0.04975000023841858	0.9912499785423279	0.6433656215667725	0.0	0.0	0.0	2298.0	2372.0	0.0	0.0	0.0	0.0	null	null	null	null	null	null	null	null	335.0	336.0	329.0	335.0	336.0	331.0	337.0	333.0	337.0	331.0	335.0	
Fri Jun 02 16:42:00 UTC 2017	1.0	1.082679296E9	2590.2802734375	0.0	2.5399296E7	0.0	3.0	5.51559168E8	45.19928741455078	1.0	1.0	5.5341056E8	4.85736448E8	0.0	null	0.07450000196695328	0.05000000074505806	0.04724999889731407	0.9909999966621399	0.6433734893798828	0.0	0.0	0.0	2298.0	2372.0	0.0	0.0	0.0	0.0	null	null	null	null	null	null	null	null	334.0	328.0	332.0	333.0	330.0	333.0	330.0	332.0	334.0	331.0	331.0	
Fri Jun 02 16:43:00 UTC 2017	1.0	1.082679296E9	2804.27099609375	0.0	2.5399296E7	0.0	4.0	5.51559168E8	44.03705596923828	1.0	1.0	5.54336256E8	4.85646336E8	0.0	null	0.07975000143051147	0.05324999988079071	0.045249998569488525	0.9915000200271606	0.6433759331703186	0.0	0.0	0.0	2298.0	2372.0	0.0	0.0	0.0	0.0	null	null	null	null	null	null	null	null	331.0	336.0	334.0	335.0	335.0	335.0	335.0	330.0	332.0	335.0	333.0	
Fri Jun 02 16:44:00 UTC 2017	1.0	1.082679296E9	2497.435791015625	0.0	2.5399296E7	0.0	2.0	5.51559168E8	44.03705596923828	2.0	1.0	5.53238528E8	4.85556224E8	0.0	null	0.07325000315904617	0.04774999991059303	0.04975000023841858	0.9912499785423279	0.6455859541893005	0.0	0.0	0.0	2298.0	2372.0	0.0	0.0	0.0	0.0	null	null	null	null	null	null	null	null	334.0	333.0	335.0	331.0	329.0	332.0	334.0	337.0	333.0	331.0	333.0	
Fri Jun 02 16:45:00 UTC 2017	1.0	1.081667584E9	2497.435791015625	0.0	2.5399296E7	0.0	2.0	5.5164928E8	59.997432708740234	0.0	0.0	5.54164224E8	4.85466112E8	0.0	null	0.06849999725818634	0.057750001549720764	0.04574999958276749	0.9917500019073486	0.643371045589447	0.0	0.0	0.0	2298.0	2372.0	0.0	0.0	0.0	0.0	null	null	null	null	null	null	null	null	334.0	336.0	331.0	331.0	333.0	338.0	335.0	333.0	334.0	334.0	334.0	
Fri Jun 02 16:46:00 UTC 2017	1.0	1.082679296E9	2497.435791015625	0.0	2.5399296E7	0.0	3.0	5.51788544E8	45.02268600463867	0.0	0.0	5.54074112E8	4.85376E8	0.0	0.0	0.07850000262260437	0.04800000041723251	0.04774999991059303	0.9915000200271606	0.6433959603309631	0.0	0.0	0.0	2298.0	2372.0	0.0	0.0	0.0	0.0	null	null	null	null	null	null	null	null	336.0	334.0	334.0	337.0	333.0	333.0	333.0	335.0	333.0	335.0	333.0	
Fri Jun 02 16:47:00 UTC 2017	1.0	1.081667584E9	2497.435791015625	0.0	2.5399296E7	0.0	2.0	5.5179264E8	45.02268600463867	1.0	0.0	5.5402496E8	4.85224448E8	0.0	null	0.06449999660253525	0.0507499985396862	0.04675000160932541	0.9912499785423279	0.6433837413787842	0.0	0.0	0.0	2298.0	2372.0	0.0	0.0	0.0	0.0	null	null	null	null	null	null	null	null	330.0	334.0	334.0	334.0	335.0	333.0	332.0	333.0	334.0	333.0	332.0	
Fri Jun 02 16:48:00 UTC 2017	1.0	1.081667584E9	2675.615478515625	0.0	2.5399296E7	0.0	2.0	5.5179264E8	45.02268600463867	2.0	0.0	5.52947712E8	4.8513024E8	0.0	null	0.08174999803304672	0.045249998569488525	0.052000001072883606	0.9909999966621399	0.6442967057228088	0.0	0.0	0.0	2298.0	2372.0	0.0	0.0	0.0	0.0	null	null	null	null	null	null	null	null	336.0	334.0	334.0	334.0	331.0	335.0	337.0	333.0	334.0	333.0	333.0	
Fri Jun 02 16:49:00 UTC 2017	1.0	1.082679296E9	2675.615478515625	0.0	2.5399296E7	0.0	2.0	5.5179264E8	43.109840393066406	0.0	0.0	5.52853504E8	4.85040128E8	0.0	null	0.07649999856948853	0.057500001043081284	0.04874999821186066	0.9915000200271606	0.6456921100616455	0.0	0.0	0.0	2298.0	2372.0	0.0	0.0	0.0	0.0	null	null	null	null	null	null	null	null	334.0	335.0	331.0	332.0	336.0	333.0	331.0	336.0	335.0	334.0	334.0	
Fri Jun 02 16:50:00 UTC 2017	0.0	1.081667584E9	2675.615478515625	0.0	2.5399296E7	0.0	2.0	5.51882752E8	55.00304412841797	0.0	0.0	5.52763392E8	4.84950016E8	0.0	null	0.06724999845027924	0.045499999076128006	0.04650000110268593	0.9907500147819519	0.6434170007705688	0.0	0.0	0.0	2298.0	2372.0	0.0	0.0	0.0	0.0	null	null	null	null	null	null	null	null	332.0	331.0	334.0	333.0	333.0	332.0	336.0	334.0	333.0	334.0	333.0	
Fri Jun 02 16:51:00 UTC 2017	1.0	1.082679296E9	2675.615478515625	0.0	2.5399296E7	0.0	3.0	5.52009728E8	55.00304412841797	0.0	0.0	5.5267328E8	4.84859904E8	0.0	null	0.0989999994635582	0.051249999552965164	0.04475000128149986	0.9869999885559082	0.6434223651885986	0.0	0.0	0.0	2298.0	2372.0	0.0	0.0	0.0	0.0	null	null	null	null	null	null	null	null	333.0	331.0	331.0	329.0	332.0	332.0	332.0	330.0	332.0	332.0	332.0	
Fri Jun 02 16:52:00 UTC 2017	1.0	1.082679296E9	3421.8974609375	0.0	2.5399296E7	0.0	2.0	5.52009728E8	55.00304412841797	0.0	0.0	5.5257088E8	4.84769792E8	0.0	null	0.0767500028014183	0.05249999836087227	0.04874999821186066	0.9865000247955322	0.6457317471504211	0.0	0.0	0.0	2298.0	2372.0	0.0	0.0	0.0	0.0	null	null	null	null	null	null	null	null	332.0	332.0	334.0	334.0	335.0	330.0	331.0	338.0	333.0	336.0	333.0	
Fri Jun 02 16:53:00 UTC 2017	1.0	1.082679296E9	2373.21630859375	0.0	2.5399296E7	0.0	8.0	5.53828352E8	56.40457534790039	0.0	1.0	5.52480768E8	4.84683776E8	0.0	null	0.07124999910593033	0.050999999046325684	0.052000001072883606	0.9915000200271606	0.6434488296508789	0.0	0.0	0.0	2298.0	2372.0	0.0	0.0	0.0	0.0	null	null	null	null	null	null	null	null	331.0	331.0	334.0	333.0	334.0	332.0	338.0	334.0	334.0	335.0	331.0	
Fri Jun 02 16:54:00 UTC 2017	0.0	1.082679296E9	2854.1962890625	0.0	2.5399296E7	0.0	3.0	5.53832448E8	56.40457534790039	1.0	1.0	5.53394176E8	4.84589568E8	0.0	null	0.07824999839067459	0.04475000128149986	0.0494999997317791	0.9907500147819519	0.6434644460678101	0.0	0.0	0.0	2298.0	2372.0	0.0	0.0	0.0	0.0	null	null	null	null	null	null	null	null	333.0	333.0	330.0	334.0	330.0	334.0	333.0	332.0	333.0	334.0	335.0	
Fri Jun 02 16:55:00 UTC 2017	1.0	1.081667584E9	2854.1962890625	0.0	2.5399296E7	0.0	2.0	5.5392256E8	56.40457534790039	0.0	0.0	5.53304064E8	4.84499456E8	0.0	null	0.0625	0.054999999701976776	0.04075000062584877	0.9912499785423279	0.6446005702018738	0.0	0.0	0.0	2298.0	2372.0	0.0	0.0	0.0	0.0	null	null	null	null	null	null	null	null	334.0	335.0	336.0	334.0	335.0	336.0	334.0	333.0	331.0	331.0	334.0	
Fri Jun 02 16:56:00 UTC 2017	1.0	1.082679296E9	2854.1962890625	0.0	2.5399296E7	0.0	3.0	5.54057728E8	56.40457534790039	1.0	0.0	5.53213952E8	4.84409344E8	0.0	0.0	0.08174999803304672	0.045499999076128006	0.051500000059604645	0.9892500042915344	0.6434933543205261	0.0	0.0	0.0	2298.0	2372.0	0.0	0.0	0.0	0.0	null	null	null	null	null	null	null	null	338.0	335.0	330.0	334.0	337.0	335.0	329.0	332.0	332.0	333.0	330.0	
Fri Jun 02 16:57:00 UTC 2017	1.0	1.081667584E9	2854.1962890625	0.0	2.5399296E7	0.0	14.0	5.55311104E8	56.40457534790039	0.0	1.0	5.53127936E8	4.84315136E8	0.0	0.0	0.07150000333786011	0.05324999988079071	0.04874999821186066	0.9879999756813049	0.6435109376907349	0.0	0.0	0.0	2298.0	2372.0	0.0	0.0	0.0	0.0	null	null	null	null	null	null	null	null	330.0	333.0	333.0	335.0	329.0	331.0	335.0	330.0	337.0	331.0	333.0	
Fri Jun 02 16:58:00 UTC 2017	1.0	1.082679296E9	2854.1962890625	0.0	2.5399296E7	0.0	3.0	5.5621632E8	56.40457534790039	1.0	0.0	5.52034304E8	4.8422912E8	0.0	0.0	0.07199999690055847	0.048250000923871994	0.04774999991059303	0.9912499785423279	0.6435731053352356	0.0	0.0	0.0	2298.0	2372.0	0.0	0.0	0.0	0.0	null	null	null	null	null	null	null	null	332.0	331.0	331.0	333.0	335.0	335.0	335.0	336.0	333.0	333.0	334.0	
Fri Jun 02 16:59:00 UTC 2017	1.0	1.081667584E9	2854.1962890625	0.0	2.5399296E7	0.0	2.0	5.5621632E8	56.40457534790039	0.0	0.0	5.52955904E8	4.84134912E8	0.0	0.0	0.06875000149011612	0.05575000122189522	0.04500000178813934	0.9912499785423279	0.6435486078262329	0.0	0.0	0.0	2298.0	2372.0	0.0	0.0	0.0	0.0	null	null	null	null	null	null	null	null	333.0	331.0	334.0	334.0	335.0	333.0	330.0	329.0	333.0	332.0	331.0	
Fri Jun 02 17:00:00 UTC 2017	1.0	1.08167168E9	2892.7919921875	0.0	2.5399296E7	0.0	2.0	5.56306432E8	56.40457534790039	0.0	0.0	5.5185408E8	4.840448E8	0.0	0.0	0.07699999958276749	0.04699999839067459	0.05000000074505806	0.9892500042915344	0.6435525417327881	0.0	0.0	0.0	2298.0	2372.0	0.0	0.0	0.0	0.0	null	null	null	null	null	null	null	null	333.0	336.0	337.0	333.0	331.0	335.0	336.0	334.0	334.0	333.0	337.0	
Fri Jun 02 17:01:00 UTC 2017	1.0	1.08167168E9	2920.510986328125	0.0	2.5399296E7	0.0	3.0	5.564416E8	35.977500915527344	0.0	0.0	5.5277568E8	4.83954688E8	0.0	0.0	0.09749999642372131	0.04774999991059303	0.048500001430511475	0.9917500019073486	0.6435799598693848	0.0	0.0	0.0	2298.0	2372.0	0.0	0.0	0.0	0.0	null	null	null	null	null	null	null	null	333.0	330.0	332.0	336.0	336.0	337.0	332.0	333.0	334.0	335.0	331.0	
Fri Jun 02 17:02:00 UTC 2017	1.0	1.082683392E9	2920.510986328125	0.0	2.5399296E7	0.0	3.0	5.564416E8	35.977500915527344	0.0	0.0	5.51677952E8	4.83864576E8	0.0	0.0	0.07275000214576721	0.04774999991059303	0.04899999871850014	0.9825000166893005	0.6435872912406921	0.0	0.0	0.0	2298.0	2372.0	0.0	0.0	0.0	0.0	null	null	null	null	null	null	null	null	331.0	330.0	328.0	330.0	330.0	330.0	331.0	330.0	332.0	330.0	333.0	
Fri Jun 02 17:03:00 UTC 2017	0.0	1.08167168E9	2920.510986328125	0.0	2.5399296E7	0.0	2.0	5.564416E8	35.977500915527344	0.0	0.0	5.52599552E8	4.83766272E8	0.0	0.0	0.06975000351667404	0.05649999901652336	0.04374999925494194	0.9909999966621399	0.6436043977737427	0.0	0.0	0.0	2298.0	2372.0	0.0	0.0	0.0	0.0	null	null	null	null	null	null	null	null	331.0	338.0	336.0	333.0	337.0	330.0	337.0	336.0	333.0	337.0	335.0	
Fri Jun 02 17:04:00 UTC 2017	0.0	1.082683392E9	2920.510986328125	0.0	2.5399296E7	0.0	3.0	5.564416E8	35.977500915527344	0.0	0.0	5.51497728E8	4.8367616E8	0.0	0.0	0.07750000059604645	0.04399999976158142	0.04774999991059303	0.9915000200271606	0.6449978351593018	0.0	0.0	0.0	2298.0	2372.0	0.0	0.0	0.0	0.0	null	null	null	null	null	null	null	null	338.0	332.0	332.0	334.0	333.0	335.0	335.0	334.0	335.0	331.0	334.0	
Fri Jun 02 17:05:00 UTC 2017	1.0	1.08167168E9	2920.510986328125	0.0	2.5399296E7	0.0	2.0	5.56531712E8	35.977500915527344	0.0	0.0	5.52419328E8	4.83586048E8	0.0	0.0	0.07074999809265137	0.05700000002980232	0.05375000089406967	0.9915000200271606	0.6436469554901123	0.0	0.0	0.0	2298.0	2372.0	0.0	0.0	0.0	0.0	null	null	null	null	null	null	null	null	332.0	335.0	337.0	335.0	335.0	335.0	332.0	335.0	332.0	338.0	332.0	
Fri Jun 02 17:06:00 UTC 2017	1.0	1.082683392E9	2920.510986328125	0.0	2.5399296E7	0.0	5.0	5.56675072E8	48.79185485839844	0.0	0.0	5.51317504E8	4.83495936E8	0.0	0.0	0.07400000095367432	0.04924999922513962	0.048500001430511475	0.9902499914169312	0.6459235548973083	0.0	0.0	0.0	2298.0	2372.0	0.0	0.0	0.0	0.0	null	null	null	null	null	null	null	null	338.0	337.0	334.0	334.0	334.0	334.0	336.0	330.0	337.0	332.0	333.0	
Fri Jun 02 17:07:00 UTC 2017	1.0	1.08167168E9	2920.510986328125	0.0	2.5399296E7	0.0	4.0	5.56679168E8	48.79185485839844	0.0	0.0	5.522432E8	4.8340992E8	0.0	0.0	0.07625000178813934	0.04699999839067459	0.04399999976158142	0.9900000095367432	0.6436508893966675	0.0	0.0	0.0	2298.0	2372.0	0.0	0.0	0.0	0.0	null	null	null	null	null	null	null	null	335.0	331.0	331.0	336.0	334.0	334.0	331.0	333.0	333.0	332.0	330.0	
Fri Jun 02 17:08:00 UTC 2017	1.0	1.082683392E9	2920.510986328125	0.0	2.5399296E7	0.0	3.0	5.56679168E8	48.79185485839844	0.0	0.0	5.51141376E8	4.8340992E8	0.0	0.0	0.06650000065565109	0.04675000160932541	0.04724999889731407	0.9879999756813049	0.6443480849266052	0.0	0.0	0.0	2298.0	2372.0	0.0	0.0	0.0	0.0	null	null	null	null	null	null	null	null	332.0	335.0	335.0	335.0	334.0	332.0	333.0	333.0	334.0	335.0	332.0	
Fri Jun 02 17:09:00 UTC 2017	0.0	1.08167168E9	2920.510986328125	0.0	2.5399296E7	0.0	2.0	5.56679168E8	45.725223541259766	1.0	1.0	5.5105536E8	4.83319808E8	0.0	0.0	0.07199999690055847	0.05249999836087227	0.04924999922513962	0.9890000224113464	0.6436934471130371	0.0	0.0	0.0	2298.0	2372.0	0.0	0.0	0.0	0.0	null	null	null	null	null	null	null	null	329.0	331.0	330.0	331.0	334.0	332.0	330.0	336.0	331.0	331.0	335.0	
Fri Jun 02 17:10:00 UTC 2017	1.0	1.082683392E9	2920.510986328125	0.0	2.5399296E7	0.0	8.0	5.57654016E8	46.91926193237305	0.0	0.0	5.52071168E8	4.83229696E8	0.0	0.0	0.07699999958276749	0.05375000089406967	0.04749999940395355	0.9909999966621399	0.6436880826950073	0.0	0.0	0.0	2298.0	2372.0	0.0	0.0	0.0	0.0	null	null	null	null	null	null	null	null	334.0	333.0	335.0	334.0	331.0	337.0	339.0	329.0	331.0	335.0	335.0	
Fri Jun 02 17:11:00 UTC 2017	1.0	1.082687488E9	2564.1044921875	0.0	2.5399296E7	0.0	3.0	5.57867008E8	54.75337219238281	0.0	0.0	5.5197696E8	4.83078144E8	0.0	0.0	0.10000000149011612	0.04874999821186066	0.04574999958276749	0.9915000200271606	0.6459940075874329	0.0	0.0	0.0	2298.0	2372.0	0.0	0.0	0.0	0.0	null	null	null	null	null	null	null	null	336.0	335.0	338.0	336.0	335.0	334.0	331.0	333.0	339.0	334.0	331.0	
Fri Jun 02 17:12:00 UTC 2017	1.0	1.081675776E9	2564.1044921875	0.0	2.5399296E7	1.238464117050171	2.0	5.57514752E8	54.75337219238281	0.0	0.0	5.51886848E8	4.82988032E8	0.0	0.0	0.07000000029802322	0.04924999922513962	0.051500000059604645	0.9872499704360962	0.6460869312286377	0.0	0.0	0.0	2298.0	2372.0	0.0	0.0	0.0	0.0	null	null	null	null	null	null	null	null	337.0	331.0	329.0	330.0	331.0	335.0	331.0	337.0	334.0	329.0	333.0	
Fri Jun 02 17:13:00 UTC 2017	1.0	1.082687488E9	2564.1044921875	0.0	2.5399296E7	1.238464117050171	3.0	5.57514752E8	35.258384704589844	0.0	0.0	5.5078912E8	4.8289792E8	0.0	0.0	0.07625000178813934	0.048500001430511475	0.045499999076128006	0.9872499704360962	0.6459514498710632	0.0	0.0	0.0	2298.0	2372.0	0.0	0.0	0.0	0.0	null	null	null	null	null	null	null	null	326.0	337.0	337.0	337.0	336.0	326.0	336.0	330.0	333.0	335.0	333.0	
Fri Jun 02 17:14:00 UTC 2017	1.0	1.081675776E9	2564.1044921875	0.0	2.5399296E7	1.238464117050171	2.0	5.57514752E8	40.502010345458984	0.0	0.0	5.51706624E8	4.82803712E8	0.0	0.0	0.07599999755620956	0.048500001430511475	0.048250000923871994	0.9915000200271606	0.6437501907348633	0.0	0.0	0.0	2298.0	2372.0	0.0	0.0	0.0	0.0	null	null	null	null	null	null	null	null	334.0	334.0	334.0	332.0	334.0	330.0	334.0	336.0	330.0	330.0	334.0	
Fri Jun 02 17:15:00 UTC 2017	1.0	1.082687488E9	2564.1044921875	0.0	2.5399296E7	1.238464117050171	3.0	5.57604864E8	33.15908432006836	0.0	0.0	5.506048E8	4.827136E8	0.0	0.0	0.07850000262260437	0.05000000074505806	0.0507499985396862	0.9915000200271606	0.6459886431694031	0.0	0.0	0.0	2298.0	2372.0	0.0	0.0	0.0	0.0	null	null	null	null	null	null	null	null	334.0	336.0	335.0	335.0	333.0	337.0	337.0	334.0	338.0	335.0	331.0	
Fri Jun 02 17:16:00 UTC 2017	1.0	1.081675776E9	2564.1044921875	0.0	2.5399296E7	0.0	3.0	5.57723648E8	33.15908432006836	0.0	0.0	5.50518784E8	4.82623488E8	0.0	0.0	0.06875000149011612	0.05274999886751175	0.04349999874830246	0.9915000200271606	0.6437638998031616	0.0	0.0	0.0	2298.0	2372.0	0.0	0.0	0.0	0.0	null	null	null	null	null	null	null	null	330.0	333.0	332.0	334.0	332.0	330.0	335.0	330.0	334.0	332.0	336.0	
Fri Jun 02 17:17:00 UTC 2017	1.0	1.082687488E9	2564.1044921875	0.0	2.5399296E7	0.0	2.0	5.57723648E8	47.992942810058594	0.0	0.0	5.51436288E8	4.82533376E8	0.0	0.0	0.07400000095367432	0.050999999046325684	0.04574999958276749	0.9904999732971191	0.6443216800689697	0.0	0.0	0.0	2298.0	2372.0	0.0	0.0	0.0	0.0	null	null	null	null	null	null	null	null	335.0	336.0	337.0	333.0	335.0	335.0	335.0	335.0	334.0	334.0	333.0	
Fri Jun 02 17:18:00 UTC 2017	1.0	1.082687488E9	2575.985595703125	0.0	2.5399296E7	0.0	2.0	5.57723648E8	35.42326354980469	0.0	0.0	5.51346176E8	4.82439168E8	0.0	0.0	0.07975000143051147	0.04749999940395355	0.048250000923871994	0.9912499785423279	0.646091878414154	0.0	0.0	0.0	2298.0	2372.0	0.0	0.0	0.0	0.0	null	null	null	null	null	null	null	null	335.0	331.0	333.0	333.0	331.0	333.0	333.0	337.0	331.0	337.0	334.0	
Fri Jun 02 17:19:00 UTC 2017	0.0	1.081675776E9	2575.985595703125	0.0	2.5399296E7	0.0	2.0	5.57723648E8	35.42326354980469	0.0	0.0	5.50244352E8	4.82349056E8	0.0	0.0	0.07999999821186066	0.05000000074505806	0.04924999922513962	0.9917500019073486	0.6460943222045898	0.0	0.0	0.0	2298.0	2372.0	0.0	0.0	0.0	0.0	null	null	null	null	null	null	null	null	337.0	333.0	333.0	335.0	335.0	339.0	333.0	333.0	338.0	334.0	332.0	
Fri Jun 02 17:20:00 UTC 2017	0.0	1.081675776E9	2417.149658203125	0.0	2.5399296E7	0.9120832085609436	5.0	5.58514176E8	35.42326354980469	0.0	0.0	5.51145472E8	4.82234368E8	0.0	0.0	0.07800000160932541	0.05050000175833702	0.05000000074505806	0.9917500019073486	0.6438294649124146	0.0	0.0	0.0	2298.0	2372.0	0.0	0.0	0.0	0.0	null	null	null	null	null	null	null	null	333.0	338.0	334.0	338.0	339.0	332.0	336.0	331.0	335.0	330.0	339.0	
Fri Jun 02 17:21:00 UTC 2017	1.0	1.082687488E9	2417.149658203125	0.0	2.5399296E7	0.0	3.0	5.58641152E8	47.41841125488281	0.0	0.0	5.50019072E8	4.8211968E8	0.0	0.0	0.10324999690055847	0.04699999839067459	0.042500000447034836	0.9919999837875366	0.6438505053520203	0.0	0.0	0.0	2298.0	2372.0	0.0	0.0	0.0	0.0	null	null	null	null	null	null	null	null	333.0	334.0	337.0	332.0	332.0	339.0	334.0	337.0	336.0	339.0	334.0	
Fri Jun 02 17:22:00 UTC 2017	1.0	1.081675776E9	2417.149658203125	0.0	2.5399296E7	0.0	2.0	5.58641152E8	47.41841125488281	0.0	0.0	5.49904384E8	4.82004992E8	0.0	null	0.06750000268220901	0.051500000059604645	0.051249999552965164	0.9917500019073486	0.6438514590263367	0.0	0.0	0.0	2298.0	2372.0	0.0	0.0	0.0	0.0	null	null	null	null	null	null	null	null	335.0	338.0	332.0	335.0	335.0	332.0	335.0	333.0	339.0	331.0	333.0	
Fri Jun 02 17:23:00 UTC 2017	2.0	1.082687488E9	2417.149658203125	0.0	2.5399296E7	0.0	2.0	5.58641152E8	44.022979736328125	0.0	0.0	5.497856E8	4.81890304E8	0.0	0.0	0.07124999910593033	0.04500000178813934	0.04399999976158142	0.9915000200271606	0.644350528717041	0.0	0.0	0.0	2298.0	2372.0	0.0	0.0	0.0	0.0	null	null	null	null	null	null	null	null	333.0	331.0	334.0	336.0	333.0	334.0	336.0	334.0	333.0	337.0	335.0	
Fri Jun 02 17:24:00 UTC 2017	1.0	1.081679872E9	2417.149658203125	0.0	2.5399296E7	0.0	3.0	5.58678016E8	44.022979736328125	0.0	0.0	5.49670912E8	4.8177152E8	0.0	0.0	0.07150000333786011	0.05050000175833702	0.04675000160932541	0.9912499785423279	0.6461823582649231	0.0	0.0	0.0	2298.0	2372.0	0.0	0.0	0.0	0.0	null	null	null	null	null	null	null	null	333.0	332.0	336.0	331.0	333.0	338.0	331.0	332.0	333.0	331.0	337.0	
Fri Jun 02 17:25:00 UTC 2017	1.0	1.081683968E9	3058.707275390625	0.0	2.5399296E7	0.0	2.0	5.58768128E8	44.022979736328125	0.0	0.0	5.49552128E8	4.81656832E8	0.0	null	0.07699999958276749	0.0494999997317791	0.04924999922513962	0.9882500171661377	0.6460791230201721	0.0	0.0	0.0	2298.0	2372.0	0.0	0.0	0.0	0.0	null	null	null	null	null	null	null	null	332.0	330.0	330.0	334.0	334.0	329.0	331.0	333.0	333.0	334.0	332.0	
Fri Jun 02 17:26:00 UTC 2017	1.0	1.08269568E9	3058.707275390625	0.0	2.5399296E7	0.0	3.0	5.58903296E8	44.022979736328125	0.0	0.0	5.4943744E8	4.81542144E8	0.0	0.0	0.06800000369548798	0.05000000074505806	0.04450000077486038	0.9900000095367432	0.6439043283462524	0.0	0.0	0.0	2298.0	2372.0	0.0	0.0	0.0	0.0	null	null	null	null	null	null	null	null	334.0	333.0	330.0	330.0	335.0	334.0	335.0	334.0	333.0	333.0	334.0	
Fri Jun 02 17:27:00 UTC 2017	1.0	1.08269568E9	2308.89990234375	0.0	2.5399296E7	0.0	3.0	5.58903296E8	44.022979736328125	1.0	0.0	5.50375424E8	4.81427456E8	0.0	0.0	0.07524999976158142	0.05350000038743019	0.048250000923871994	0.9867500066757202	0.6439997553825378	0.0	0.0	0.0	2298.0	2372.0	0.0	0.0	0.0	0.0	null	null	null	null	null	null	null	null	335.0	336.0	332.0	335.0	334.0	331.0	330.0	334.0	331.0	335.0	333.0	
Fri Jun 02 17:28:00 UTC 2017	0.0	1.08269568E9	2552.900390625	0.0	2.5399296E7	0.0	2.0	5.58903296E8	44.022979736328125	1.0	0.0	5.49249024E8	4.81308672E8	0.0	0.0	0.0820000022649765	0.04699999839067459	0.048250000923871994	0.9912499785423279	0.6440007090568542	0.0	0.0	0.0	2298.0	2372.0	0.0	0.0	0.0	0.0	null	null	null	null	null	null	null	null	332.0	334.0	334.0	334.0	330.0	336.0	335.0	336.0	334.0	333.0	335.0	
Fri Jun 02 17:29:00 UTC 2017	1.0	1.081683968E9	2552.900390625	0.0	2.5399296E7	0.0	3.0	5.62601984E8	63.07191848754883	0.0	0.0	5.49138432E8	4.81189888E8	0.0	null	0.06650000065565109	0.05624999850988388	0.04024999961256981	0.9915000200271606	0.6440178155899048	0.0	0.0	0.0	2298.0	2372.0	0.0	0.0	0.0	0.0	null	null	null	null	null	null	null	null	330.0	334.0	333.0	335.0	334.0	334.0	334.0	334.0	333.0	336.0	333.0	
Fri Jun 02 17:30:00 UTC 2017	0.0	1.082703872E9	2552.900390625	0.0	2.5399296E7	0.0	5.0	5.62696192E8	63.07191848754883	0.0	0.0	5.50039552E8	4.81083392E8	0.0	null	0.07400000095367432	0.0442500002682209	0.04899999871850014	0.9915000200271606	0.6440368890762329	0.0	0.0	0.0	2298.0	2372.0	0.0	0.0	0.0	0.0	null	null	null	null	null	null	null	null	335.0	333.0	333.0	336.0	336.0	338.0	334.0	334.0	335.0	335.0	335.0	
Fri Jun 02 17:31:00 UTC 2017	0.0	1.08169216E9	2552.900390625	0.0	2.5399296E7	0.0	3.0	5.62819072E8	63.07191848754883	0.0	1.0	5.48913152E8	4.81009664E8	0.0	null	0.0949999988079071	0.05000000074505806	0.05000000074505806	0.9915000200271606	0.6440598964691162	0.0	0.0	0.0	2298.0	2372.0	0.0	0.0	0.0	0.0	null	null	null	null	null	null	null	null	332.0	333.0	335.0	335.0	333.0	332.0	334.0	333.0	332.0	334.0	334.0	
Fri Jun 02 17:32:00 UTC 2017	1.0	1.08169216E9	2694.201171875	0.0	2.5399296E7	0.0	3.0	5.62827264E8	49.67851638793945	0.0	0.0	5.49810176E8	4.80899072E8	0.0	null	0.0689999982714653	0.04899999871850014	0.04625000059604645	0.9917500019073486	0.6458736658096313	0.0	0.0	0.0	2298.0	2372.0	0.0	0.0	0.0	0.0	null	null	null	null	null	null	null	null	337.0	336.0	332.0	337.0	335.0	336.0	335.0	334.0	332.0	335.0	337.0	
Fri Jun 02 17:33:00 UTC 2017	1.0	1.081696256E9	3192.92578125	0.0	2.5399296E7	0.0	2.0	5.62827264E8	45.33546447753906	0.0	1.0	5.48683776E8	4.80784384E8	0.0	null	0.08399999886751175	0.050999999046325684	0.042750000953674316	0.9915000200271606	0.6440349817276001	0.0	0.0	0.0	2298.0	2372.0	0.0	0.0	0.0	0.0	null	null	null	null	null	null	null	null	334.0	332.0	329.0	331.0	331.0	334.0	335.0	333.0	333.0	335.0	334.0	
Fri Jun 02 17:34:00 UTC 2017	1.0	1.081696256E9	2442.647705078125	0.0	2.5399296E7	0.0	2.0	5.62827264E8	45.33546447753906	0.0	0.0	5.49576704E8	4.80669696E8	0.0	null	0.07124999910593033	0.051500000059604645	0.05274999886751175	0.9909999966621399	0.644056499004364	0.0	0.0	0.0	2298.0	2372.0	0.0	0.0	0.0	0.0	null	null	null	null	null	null	null	null	334.0	331.0	333.0	336.0	334.0	333.0	336.0	335.0	330.0	336.0	335.0	
Fri Jun 02 17:35:00 UTC 2017	1.0	1.082707968E9	2442.647705078125	0.0	2.5399296E7	0.0	2.0	5.62917376E8	34.748939514160156	0.0	0.0	5.49462016E8	4.80669696E8	0.0	0.0	0.07175000011920929	0.04574999958276749	0.04349999874830246	0.9915000200271606	0.6440858244895935	0.0	0.0	0.0	2298.0	2372.0	0.0	0.0	0.0	0.0	null	null	null	null	null	null	null	null	333.0	336.0	336.0	334.0	334.0	335.0	333.0	334.0	335.0	332.0	334.0	
Fri Jun 02 17:36:00 UTC 2017	1.0	1.082707968E9	2514.759521484375	0.0	2.5399296E7	0.0	3.0	5.6303616E8	86.51185607910156	0.0	0.0	5.4833152E8	4.80493568E8	0.0	0.0	0.06424999982118607	0.05050000175833702	0.050999999046325684	0.9900000095367432	0.6440853476524353	0.0	0.0	0.0	2298.0	2372.0	0.0	0.0	0.0	0.0	null	null	null	null	null	null	null	null	333.0	331.0	331.0	335.0	332.0	332.0	333.0	334.0	335.0	332.0	333.0	
Fri Jun 02 17:37:00 UTC 2017	1.0	1.082707968E9	2338.96142578125	0.0	2.5399296E7	0.0	2.0	5.6303616E8	86.51185607910156	0.0	0.0	5.48216832E8	4.8037888E8	0.0	0.0	0.07750000059604645	0.05225000157952309	0.04399999976158142	0.9912499785423279	0.6441019773483276	0.0	0.0	0.0	2298.0	2372.0	0.0	0.0	0.0	0.0	null	null	null	null	null	null	null	null	333.0	337.0	336.0	333.0	337.0	334.0	332.0	334.0	331.0	331.0	334.0	
Fri Jun 02 17:38:00 UTC 2017	1.0	1.082707968E9	3283.576171875	0.0	2.5399296E7	0.0	4.0	5.6303616E8	35.146202087402344	0.0	0.0	5.49113856E8	4.80260096E8	0.0	0.0	0.07724999636411667	0.05299999937415123	0.04975000023841858	0.9912499785423279	0.6445662975311279	0.0	0.0	0.0	2298.0	2372.0	0.0	0.0	0.0	0.0	null	null	null	null	null	null	null	null	336.0	332.0	329.0	335.0	333.0	333.0	336.0	336.0	333.0	334.0	334.0	
Fri Jun 02 17:39:00 UTC 2017	1.0	1.082707968E9	2457.773681640625	0.0	2.5399296E7	0.0	2.0	5.6303616E8	35.81941223144531	1.0	0.0	5.48102144E8	4.80149504E8	0.0	0.0	0.06024999916553497	0.05400000140070915	0.04450000077486038	0.9915000200271606	0.6441205739974976	0.0	0.0	0.0	2298.0	2372.0	0.0	0.0	0.0	0.0	null	null	null	null	null	null	null	null	330.0	334.0	335.0	333.0	333.0	333.0	334.0	331.0	334.0	336.0	329.0	
Fri Jun 02 17:40:00 UTC 2017	1.0	1.082707968E9	2699.236083984375	0.0	2.5399296E7	0.0	4.0	5.63134464E8	40.31869125366211	0.0	0.0	5.48999168E8	4.80038912E8	0.0	0.0	0.07649999856948853	0.045249998569488525	0.048500001430511475	0.9867500066757202	0.6452727913856506	0.0	0.0	0.0	2298.0	2372.0	0.0	0.0	0.0	0.0	null	null	null	null	null	null	null	null	334.0	333.0	331.0	331.0	332.0	335.0	331.0	332.0	331.0	330.0	331.0	
Fri Jun 02 17:41:00 UTC 2017	1.0	1.082707968E9	3130.9375	0.0	2.5399296E7	0.0	4.0	5.63306496E8	40.31869125366211	0.0	0.0	5.47872768E8	4.79924224E8	0.0	0.0	0.09350000321865082	0.05050000175833702	0.04625000059604645	0.9909999966621399	0.644156277179718	0.0	0.0	0.0	2298.0	2372.0	0.0	0.0	0.0	0.0	null	null	null	null	null	null	null	null	334.0	333.0	331.0	333.0	335.0	333.0	333.0	333.0	334.0	332.0	334.0	
Fri Jun 02 17:42:00 UTC 2017	1.0	1.082707968E9	2566.680419921875	0.0	2.5399296E7	0.0	2.0	5.63306496E8	40.31869125366211	3.0	1.0	5.47790848E8	4.79809536E8	0.0	0.0	0.07100000232458115	0.05925000086426735	0.048500001430511475	0.9915000200271606	0.6441617012023926	0.0	0.0	0.0	2298.0	2372.0	0.0	0.0	0.0	0.0	null	null	null	null	null	null	null	null	335.0	334.0	335.0	337.0	334.0	334.0	336.0	335.0	335.0	334.0	335.0	
Fri Jun 02 17:43:00 UTC 2017	0.0	1.082707968E9	2967.17919921875	0.0	2.5399296E7	0.0	2.0	5.63306496E8	45.64508819580078	1.0	2.0	5.4767616E8	4.79748096E8	0.0	0.0	0.07925000041723251	0.045499999076128006	0.04500000178813934	0.9915000200271606	0.6441646218299866	0.0	0.0	0.0	2298.0	2372.0	0.0	0.0	0.0	0.0	null	null	null	null	null	null	null	null	333.0	335.0	334.0	334.0	335.0	334.0	334.0	335.0	332.0	334.0	333.0	
Fri Jun 02 17:44:00 UTC 2017	1.0	1.081696256E9	2967.17919921875	0.0	2.5399296E7	0.0	2.0	5.63306496E8	66.81735229492188	0.0	0.0	5.48573184E8	4.79633408E8	0.0	0.0	0.07349999994039536	0.05624999850988388	0.051500000059604645	0.9917500019073486	0.6441905498504639	0.0	0.0	0.0	2298.0	2372.0	0.0	0.0	0.0	0.0	null	null	null	null	null	null	null	null	335.0	334.0	332.0	333.0	333.0	334.0	331.0	334.0	335.0	332.0	332.0	
Fri Jun 02 17:45:00 UTC 2017	1.0	1.082707968E9	2967.17919921875	0.0	2.5399296E7	0.0	2.0	5.63396608E8	31.712846755981445	0.0	0.0	5.48458496E8	4.7951872E8	0.0	0.0	0.07850000262260437	0.04675000160932541	0.04450000077486038	0.9915000200271606	0.6442286968231201	0.0	0.0	0.0	2298.0	2372.0	0.0	0.0	0.0	0.0	null	null	null	null	null	null	null	null	335.0	338.0	336.0	339.0	332.0	333.0	334.0	330.0	336.0	337.0	333.0	
Fri Jun 02 17:46:00 UTC 2017	1.0	1.081696256E9	2967.17919921875	0.0	2.5399296E7	0.0	3.0	5.6352768E8	31.712846755981445	0.0	0.0	5.47328E8	4.79404032E8	0.0	0.0	0.06624999642372131	0.05274999886751175	0.045249998569488525	0.9912499785423279	0.6451725363731384	0.0	0.0	0.0	2298.0	2372.0	0.0	0.0	0.0	0.0	null	null	null	null	null	null	null	null	332.0	335.0	335.0	331.0	335.0	335.0	336.0	333.0	333.0	332.0	332.0	
Fri Jun 02 17:47:00 UTC 2017	1.0	1.081696256E9	2464.3603515625	0.0	2.5399296E7	0.0	2.0	5.6352768E8	31.712846755981445	0.0	0.0	5.47213312E8	4.79285248E8	0.0	0.0	0.07225000113248825	0.0507499985396862	0.050999999046325684	0.9915000200271606	0.6465365886688232	0.0	0.0	0.0	2298.0	2372.0	0.0	0.0	0.0	0.0	null	null	null	null	null	null	null	null	333.0	336.0	333.0	338.0	333.0	334.0	334.0	330.0	332.0	333.0	334.0	
Fri Jun 02 17:48:00 UTC 2017	1.0	1.081696256E9	2681.81005859375	0.0	2.5399296E7	0.0	2.0	5.6352768E8	31.712846755981445	1.0	2.0	5.47115008E8	4.79186944E8	0.0	0.0	0.06800000369548798	0.04724999889731407	0.04500000178813934	0.9915000200271606	0.644262969493866	0.0	0.0	0.0	2298.0	2372.0	0.0	0.0	0.0	0.0	null	null	null	null	null	null	null	null	336.0	335.0	335.0	333.0	331.0	333.0	334.0	336.0	337.0	335.0	331.0	
Fri Jun 02 17:49:00 UTC 2017	1.0	1.081704448E9	3076.724609375	0.0	2.5399296E7	0.0	2.0	5.6352768E8	31.712846755981445	0.0	0.0	5.48012032E8	4.79072256E8	0.0	0.0	0.08250000327825546	0.0507499985396862	0.0494999997317791	0.9912499785423279	0.6443055272102356	0.0	0.0	0.0	2298.0	2372.0	0.0	0.0	0.0	0.0	null	null	null	null	null	null	null	null	333.0	334.0	331.0	334.0	336.0	337.0	331.0	334.0	334.0	335.0	336.0	
Fri Jun 02 17:50:00 UTC 2017	1.0	1.081704448E9	2712.6982421875	0.0	2.5399296E7	0.0	2.0	5.63621888E8	31.712846755981445	0.0	0.0	5.46885632E8	4.78953472E8	0.0	0.0	0.06499999761581421	0.048250000923871994	0.04699999839067459	0.9912499785423279	0.644306480884552	0.0	0.0	0.0	2298.0	2372.0	0.0	0.0	0.0	0.0	null	null	null	null	null	null	null	null	332.0	334.0	339.0	331.0	332.0	336.0	334.0	330.0	332.0	334.0	333.0	
Fri Jun 02 17:51:00 UTC 2017	1.0	1.08271616E9	2712.6982421875	0.0	2.5399296E7	0.0	3.0	5.63740672E8	31.712846755981445	2.0	2.0	5.47782656E8	4.78838784E8	0.0	0.0	0.1002499982714653	0.051750000566244125	0.04699999839067459	0.9835000038146973	0.6443260908126831	0.0	0.0	0.0	2298.0	2372.0	0.0	0.0	0.0	0.0	null	null	null	null	null	null	null	null	333.0	334.0	331.0	334.0	333.0	333.0	330.0	332.0	336.0	335.0	333.0	
Fri Jun 02 17:52:00 UTC 2017	1.0	1.08271616E9	2622.41796875	0.0	2.5399296E7	0.0	2.0	5.63740672E8	31.712846755981445	1.0	1.0	5.46656256E8	4.7872E8	0.0	0.0	0.07325000315904617	0.054249998182058334	0.04450000077486038	0.9912499785423279	0.644291341304779	0.0	0.0	0.0	2298.0	2372.0	0.0	0.0	0.0	0.0	null	null	null	null	null	null	null	null	332.0	333.0	336.0	333.0	334.0	334.0	334.0	333.0	333.0	334.0	330.0	
Fri Jun 02 17:53:00 UTC 2017	1.0	1.081704448E9	2622.41796875	0.0	2.5399296E7	0.0	3.0	5.63740672E8	44.61051559448242	0.0	1.0	5.46541568E8	4.78601216E8	0.0	null	0.07524999976158142	0.0494999997317791	0.04650000110268593	0.9915000200271606	0.6442198753356934	0.0	0.0	0.0	2298.0	2372.0	0.0	0.0	0.0	0.0	null	null	null	null	null	null	null	null	332.0	333.0	335.0	336.0	334.0	335.0	334.0	332.0	334.0	335.0	335.0	
Fri Jun 02 17:54:00 UTC 2017	1.0	1.081704448E9	2332.256103515625	0.0	2.5399296E7	0.0	2.0	5.63744768E8	35.429039001464844	0.0	0.0	5.47438592E8	4.78486528E8	0.0	null	0.0689999982714653	0.0442500002682209	0.052000001072883606	0.9915000200271606	0.6443182229995728	0.0	0.0	0.0	2298.0	2372.0	0.0	0.0	0.0	0.0	null	null	null	null	null	null	null	null	334.0	339.0	333.0	331.0	334.0	333.0	331.0	334.0	331.0	334.0	335.0	
Fri Jun 02 17:55:00 UTC 2017	0.0	1.081704448E9	3207.350341796875	0.0	2.5399296E7	0.0	3.0	5.6383488E8	35.429039001464844	0.0	0.0	5.46308096E8	4.78367744E8	0.0	null	0.07774999737739563	0.054499998688697815	0.04675000160932541	0.9915000200271606	0.6443280577659607	0.0	0.0	0.0	2298.0	2372.0	0.0	0.0	0.0	0.0	null	null	null	null	null	null	null	null	335.0	332.0	334.0	334.0	334.0	339.0	333.0	328.0	338.0	337.0	332.0	
Fri Jun 02 17:56:00 UTC 2017	0.0	1.081704448E9	2719.240234375	0.0	2.5399296E7	0.0	3.0	5.64047872E8	35.429039001464844	0.0	0.0	5.46189312E8	4.78257152E8	0.0	0.0	0.07175000011920929	0.0430000014603138	0.04650000110268593	0.9917500019073486	0.6443294882774353	0.0	0.0	0.0	2298.0	2372.0	0.0	0.0	0.0	0.0	null	null	null	null	null	null	null	null	336.0	337.0	334.0	339.0	336.0	334.0	339.0	335.0	332.0	334.0	338.0	
Fri Jun 02 17:57:00 UTC 2017	1.0	1.08271616E9	2719.240234375	0.0	2.5399296E7	1.3993024826049805	2.0	5.6395776E8	45.207298278808594	0.0	0.0	5.47078144E8	4.78138368E8	0.0	0.0	0.09825000166893005	0.054999999701976776	0.05375000089406967	0.9915000200271606	0.6455003023147583	0.0	0.0	0.0	2298.0	2372.0	0.0	0.0	0.0	0.0	null	null	null	null	null	null	null	null	334.0	333.0	338.0	333.0	334.0	331.0	331.0	333.0	338.0	331.0	331.0	
Fri Jun 02 17:58:00 UTC 2017	2.0	1.081704448E9	2719.240234375	0.0	2.5399296E7	30.383806228637695	2.0	5.6395776E8	45.207298278808594	0.0	0.0	5.4595584E8	4.78019584E8	0.0	0.0	0.06925000250339508	0.04600000008940697	0.07199999690055847	0.9912499785423279	0.6443730592727661	3.0	0.0	0.0	2298.0	2372.0	0.0	0.0	0.0	0.0	null	null	null	null	null	null	null	null	331.0	338.0	332.0	335.0	334.0	334.0	332.0	337.0	332.0	338.0	334.0	
Fri Jun 02 17:59:00 UTC 2017	6.0	1.08271616E9	2719.240234375	0.0	2.5399296E7	30.383806228637695	4.0	5.6395776E8	276.5873107910156	1.0	1.0	5.46865152E8	4.77908992E8	0.0	0.0	0.08624999970197678	0.051750000566244125	0.04450000077486038	0.9917500019073486	0.6443989872932434	3.0	0.0	0.0	2298.0	2372.0	0.0	0.0	0.0	0.0	null	null	null	null	null	null	null	null	334.0	332.0	333.0	330.0	334.0	338.0	332.0	331.0	334.0	329.0	333.0	
Fri Jun 02 18:00:00 UTC 2017	7.0	1.082720256E9	91889.4453125	0.0	2.5399296E7	30.383806228637695	5.0	5.65108736E8	276.5873107910156	2.0	1.0	5.46766848E8	4.80636928E8	23031.283203125	2982.20751953125	0.05999999865889549	0.05050000175833702	0.04899999871850014	0.9909999966621399	0.6461314558982849	3.0	0.0	0.0	2298.0	2372.0	0.0	0.0	0.0	0.0	null	null	null	null	null	null	null	null	334.0	336.0	334.0	332.0	334.0	333.0	333.0	335.0	334.0	334.0	335.0	
Fri Jun 02 18:01:00 UTC 2017	9.0	1.082720256E9	114433.640625	0.0	2.5399296E7	30.383806228637695	4.0	5.65231616E8	472.4744873046875	3.0	2.0	5.46656256E8	4.80301056E8	36577.1328125	5015.8115234375	0.10474999994039536	0.05299999937415123	0.05050000175833702	0.9909999966621399	0.6444625854492188	5.0	0.0	0.0	2298.0	2372.0	0.0	0.0	0.0	0.0	null	null	null	null	null	null	null	null	334.0	331.0	335.0	333.0	330.0	336.0	332.0	332.0	339.0	336.0	337.0	
Fri Jun 02 18:02:00 UTC 2017	10.0	1.082720256E9	154518.03125	0.0	2.5399296E7	1851.4285888671875	4.0	5.65239808E8	472.4744873046875	3.0	2.0	5.45533952E8	4.80186368E8	36577.1328125	5015.8115234375	0.0702499970793724	0.05225000157952309	0.0494999997317791	0.9909999966621399	0.6466373801231384	5.0	0.0	0.0	2298.0	2372.0	0.0	0.0	0.0	0.0	null	null	null	null	null	null	null	null	333.0	339.0	335.0	337.0	336.0	330.0	333.0	336.0	331.0	336.0	332.0	
Fri Jun 02 18:03:00 UTC 2017	8.0	1.08177408E9	154518.03125	0.0	2.5399296E7	1851.4285888671875	6.0	5.65243904E8	670.441162109375	4.0	1.0	5.45419264E8	4.80186368E8	47740.78125	14696.5439453125	0.07400000095367432	0.0560000017285347	0.04724999889731407	0.9907500147819519	0.6468746662139893	5.0	0.0	0.0	2298.0	2372.0	0.0	0.0	0.0	0.0	null	null	null	null	null	null	null	null	338.0	330.0	331.0	334.0	335.0	337.0	334.0	332.0	333.0	332.0	335.0	
Fri Jun 02 18:04:00 UTC 2017	14.0	1.079083008E9	157664.3125	0.0	2.5399296E7	2480.189208984375	5.0	5.65248E8	670.441162109375	3.0	1.0	5.45296384E8	4.8007168E8	49961.39453125	8058.94091796875	0.0689999982714653	0.05249999836087227	0.04975000023841858	0.9904999732971191	0.6446309089660645	10.0	0.0	0.0	2298.0	2372.0	0.0	0.0	0.0	0.0	null	null	null	null	null	null	null	null	333.0	334.0	330.0	333.0	330.0	332.0	332.0	331.0	335.0	331.0	331.0	
Fri Jun 02 18:05:00 UTC 2017	20.0	1.079148544E9	218507.796875	0.0	2.5399296E7	2480.189208984375	7.0	5.66411264E8	670.441162109375	6.0	7.0	5.46541568E8	4.79997952E8	49961.39453125	8058.94091796875	0.07175000011920929	0.05974999815225601	0.0507499985396862	0.9902499914169312	0.6458056569099426	10.0	0.0	0.0	2298.0	2372.0	0.0	0.0	0.0	0.0	null	null	null	null	null	null	null	null	330.0	329.0	336.0	330.0	335.0	336.0	329.0	330.0	333.0	332.0	330.0	
Fri Jun 02 18:06:00 UTC 2017	24.0	1.074941952E9	371501.5625	1.0	2.5399296E7	4805.5634765625	7.0	5.66603776E8	1257.1019287109375	6.0	4.0	5.4642688E8	4.79891456E8	109447.6953125	52454.69140625	0.06875000149011612	0.05299999937415123	0.0507499985396862	0.9894999861717224	0.6440560221672058	10.0	0.0	0.0	2298.0	2372.0	0.0	0.0	0.0	0.0	null	null	null	null	null	null	null	null	331.0	334.0	329.0	337.0	331.0	329.0	329.0	331.0	329.0	332.0	335.0	
Fri Jun 02 18:07:00 UTC 2017	29.0	1.071722496E9	423067.15625	1.0	2.5407488E7	4805.5634765625	7.0	5.66546432E8	1215.136474609375	6.0	4.0	5.46312192E8	4.79789056E8	109076.953125	52454.69140625	0.07074999809265137	0.05050000175833702	0.05249999836087227	0.984499990940094	0.6436826586723328	20.0	0.0	0.0	2298.0	2372.0	0.0	0.0	0.0	0.0	null	null	null	null	null	null	null	null	327.0	329.0	330.0	327.0	325.0	331.0	329.0	329.0	330.0	331.0	324.0	
Fri Jun 02 18:08:00 UTC 2017	41.0	1.068060672E9	570419.4375	2.0	2.5407488E7	4805.5634765625	10.0	5.66624256E8	1215.136474609375	8.0	5.0	5.4530048E8	4.79674368E8	109076.953125	52454.69140625	0.07774999737739563	0.05700000002980232	0.05299999937415123	0.9884999990463257	0.6456407308578491	20.0	0.0	0.0	2298.0	2372.0	0.0	0.0	0.0	0.0	null	null	null	null	null	null	null	null	330.0	325.0	330.0	327.0	328.0	328.0	329.0	329.0	329.0	329.0	332.0	
Fri Jun 02 18:09:00 UTC 2017	45.0	1.063923712E9	827403.0	3.0	2.5407488E7	10230.63671875	12.0	5.665792E8	1215.136474609375	13.0	7.0	5.45222656E8	4.79707136E8	227307.984375	89858.25	0.07249999791383743	0.05249999836087227	0.054499998688697815	0.9850000143051147	0.6452620625495911	20.0	0.0	0.0	2298.0	2372.0	0.0	0.0	0.0	0.0	null	null	null	null	null	null	null	null	328.0	326.0	326.0	329.0	327.0	326.0	328.0	324.0	325.0	326.0	324.0	
Fri Jun 02 18:10:00 UTC 2017	62.0	1.056514048E9	827403.0	3.0	2.5407488E7	11609.330078125	15.0	5.67504896E8	1215.136474609375	13.0	9.0	5.46545664E8	4.79748096E8	227307.984375	89858.25	0.06925000250339508	0.05824999883770943	0.0572500005364418	0.9869999885559082	0.6443417072296143	50.0	0.0	0.0	2298.0	2372.0	0.0	0.0	0.0	0.0	null	null	null	null	null	null	null	null	327.0	328.0	326.0	325.0	332.0	328.0	328.0	331.0	327.0	327.0	328.0	
Fri Jun 02 18:11:00 UTC 2017	94.0	1.049255936E9	1151796.125	4.0	2.5407488E7	11609.330078125	20.0	5.67463936E8	1215.136474609375	16.0	15.0	5.47282944E8	4.80309248E8	288006.71875	187944.96875	0.09974999725818634	0.057999998331069946	0.06849999725818634	0.9852499961853027	0.6410470008850098	50.0	0.0	0.0	2298.0	2372.0	0.0	0.0	0.0	0.0	null	null	null	null	null	null	null	null	328.0	326.0	328.0	325.0	324.0	324.0	329.0	324.0	325.0	323.0	328.0	
Fri Jun 02 18:12:00 UTC 2017	99.0	1.03124992E9	1151796.125	7.0	2.6898432E7	11609.330078125	25.0	5.6743936E8	5855.916015625	21.0	20.0	5.46168832E8	4.80227328E8	288006.71875	187944.96875	0.07175000011920929	0.06174999848008156	0.06975000351667404	0.9829999804496765	0.639246940612793	50.0	0.0	0.0	2298.0	2372.0	0.0	0.0	0.0	0.0	null	null	null	null	null	null	null	null	318.0	318.0	317.0	323.0	322.0	321.0	320.0	323.0	320.0	320.0	321.0	
Fri Jun 02 18:13:00 UTC 2017	115.0	1.02017024E9	1151796.125	7.0	2.75456E7	27892.0	27.0	5.69581568E8	5855.916015625	21.0	22.0	5.47160064E8	4.80776192E8	288006.71875	187944.96875	0.0807500034570694	0.057750001549720764	0.07000000029802322	0.9819999933242798	0.6379156708717346	100.0	0.0	0.0	2298.0	2372.0	0.0	0.0	0.0	0.0	null	null	null	null	null	null	null	null	320.0	322.0	320.0	319.0	316.0	320.0	319.0	319.0	322.0	317.0	319.0	
Fri Jun 02 18:14:00 UTC 2017	168.0	1.011879936E9	1151796.125	9.0	2.7611136E7	35202.23828125	36.0	5.69704448E8	5855.916015625	28.0	27.0	5.47213312E8	4.81144832E8	288006.71875	187944.96875	0.0637499988079071	0.07175000011920929	0.07999999821186066	0.9800000190734863	0.636958122253418	100.0	0.0	0.0	2298.0	2372.0	0.0	0.0	0.0	0.0	null	null	null	null	null	null	null	null	318.0	313.0	314.0	317.0	321.0	318.0	312.0	314.0	316.0	321.0	315.0	
Fri Jun 02 18:15:00 UTC 2017	192.0	1.000239104E9	1151796.125	12.0	2.7570176E7	35202.23828125	49.0	5.75422464E8	5855.916015625	39.0	44.0	5.47381248E8	4.82762752E8	804493.125	null	0.07750000059604645	0.06549999862909317	0.08974999934434891	0.9752500057220459	0.6354154944419861	100.0	0.0	0.0	2298.0	2372.0	0.0	0.0	0.0	0.0	null	null	null	null	null	null	null	null	310.0	309.0	313.0	308.0	306.0	309.0	314.0	311.0	308.0	304.0	311.0	
Fri Jun 02 18:16:00 UTC 2017	232.0	9.82966272E8	1151796.125	14.0	2.7598848E7	35202.23828125	53.0	5.80186112E8	11302.646484375	43.0	43.0	5.4900736E8	4.84081664E8	941836.875	null	0.0742499977350235	0.07824999839067459	0.0925000011920929	0.9732499718666077	0.6341683268547058	150.0	0.0	0.0	2298.0	2372.0	0.0	0.0	0.0	0.0	null	null	null	null	null	null	null	null	307.0	309.0	307.0	305.0	312.0	304.0	305.0	311.0	308.0	308.0	302.0	
Fri Jun 02 18:17:00 UTC 2017	280.0	9.70903552E8	4579745.5	18.0	2.7660288E7	35202.23828125	58.0	5.80186112E8	14466.328125	56.0	46.0	5.50662144E8	4.85883904E8	1065503.5	921902.375	0.06949999928474426	0.0807500034570694	0.10050000250339508	0.9710000157356262	0.6347901821136475	150.0	0.0	0.0	2298.0	2372.0	0.0	0.0	0.0	0.0	null	null	null	null	null	null	null	null	300.0	303.0	299.0	303.0	302.0	300.0	305.0	302.0	305.0	299.0	303.0	
Fri Jun 02 18:18:00 UTC 2017	286.0	1.0898432E9	5842549.5	21.0	2.9147136E7	84807.046875	70.0	5.80911104E8	16641.337890625	61.0	55.0	5.55388928E8	4.90913792E8	1065503.5	921902.375	0.06825000047683716	0.07575000077486038	0.10824999958276749	0.9662500023841858	0.6493685245513916	150.0	0.0	0.0	2298.0	2372.0	0.0	0.0	0.0	0.0	null	null	null	null	null	null	null	null	294.0	291.0	293.0	292.0	296.0	292.0	296.0	295.0	291.0	292.0	296.0	
Fri Jun 02 18:19:00 UTC 2017	275.0	1.09115392E9	5842549.5	21.0	2.787328E7	84999.546875	68.0	5.84691712E8	16641.337890625	60.0	49.0	5.60553984E8	4.94374912E8	1348829.75	null	0.07625000178813934	0.08025000244379044	0.10975000262260437	0.9605000019073486	0.6475650668144226	200.0	0.0	0.0	2298.0	2372.0	0.0	0.0	0.0	0.0	null	null	null	null	null	null	null	null	292.0	294.0	293.0	292.0	291.0	290.0	289.0	293.0	293.0	291.0	290.0	
Fri Jun 02 18:20:00 UTC 2017	311.0	1.077633024E9	5842549.5	21.0	2.8491776E7	84999.546875	68.0	5.87517952E8	16620.052734375	58.0	51.0	5.6408064E8	4.97799168E8	1348829.75	null	0.07275000214576721	0.0832500010728836	0.11150000244379044	0.965749979019165	0.646542489528656	200.0	0.0	0.0	2298.0	2372.0	0.0	0.0	0.0	0.0	null	null	null	null	null	null	null	null	295.0	295.0	293.0	294.0	295.0	295.0	294.0	295.0	292.0	292.0	294.0	
Fri Jun 02 18:21:00 UTC 2017	342.0	1.092395008E9	6566923.0	24.0	2.9876224E7	112200.203125	74.0	5.90184448E8	17725.73828125	69.0	55.0	5.70417152E8	5.00604928E8	1348829.75	null	0.10125000029802322	0.09324999898672104	0.11924999952316284	0.9622499942779541	0.6485514044761658	200.0	0.0	0.0	2298.0	2372.0	0.0	0.0	0.0	0.0	null	null	null	null	null	null	null	null	289.0	289.0	291.0	289.0	288.0	288.0	289.0	289.0	290.0	290.0	289.0	
Fri Jun 02 18:22:00 UTC 2017	346.0	1.092755456E9	6566923.0	26.0	2.9261824E7	110824.25	77.0	5.93440768E8	17640.73828125	69.0	57.0	5.73468672E8	5.0243584E8	1348829.75	null	0.07450000196695328	0.08574999868869781	0.11275000125169754	0.9607499837875366	0.6485660672187805	250.0	0.0	0.0	2298.0	2372.0	0.0	0.0	0.0	0.0	null	null	null	null	null	null	null	null	285.0	283.0	285.0	284.0	286.0	286.0	284.0	286.0	282.0	284.0	285.0	
Fri Jun 02 18:23:00 UTC 2017	375.0	1.0929152E9	7294221.0	27.0	2.9978624E7	103867.1328125	78.0	5.93580032E8	18965.17578125	72.0	66.0	5.7931776E8	5.07748352E8	1532374.5	1400738.5	0.06424999982118607	0.09674999862909317	0.12524999678134918	0.9582499861717224	0.6509752869606018	250.0	0.0	0.0	2298.0	2372.0	0.0	0.0	0.0	0.0	null	null	null	null	null	null	null	null	283.0	284.0	282.0	284.0	283.0	287.0	284.0	284.0	282.0	286.0	284.0	
Fri Jun 02 18:24:00 UTC 2017	367.0	1.092841472E9	7959703.5	29.0	3.0789632E7	116230.2421875	85.0	5.9598848E8	18965.17578125	78.0	72.0	5.8396672E8	5.1021824E8	1643956.625	1624169.125	0.07500000298023224	0.09674999862909317	0.12700000405311584	0.9585000276565552	0.6488684415817261	250.0	0.0	0.0	2298.0	2372.0	0.0	0.0	0.0	0.0	null	null	null	null	null	null	null	null	281.0	281.0	283.0	280.0	281.0	281.0	280.0	280.0	283.0	279.0	285.0	
Fri Jun 02 18:25:00 UTC 2017	351.0	1.093541888E9	7959703.5	28.0	3.0130176E7	118478.75	85.0	5.9848704E8	18965.17578125	76.0	67.0	5.87698176E8	5.14371584E8	1621720.625	1624169.125	0.07450000196695328	0.09925000369548798	0.13124999403953552	0.9592499732971191	0.6492965817451477	300.0	0.0	0.0	2298.0	2372.0	0.0	0.0	0.0	0.0	null	null	null	null	null	null	null	null	284.0	281.0	281.0	282.0	286.0	280.0	286.0	283.0	280.0	282.0	282.0	
Fri Jun 02 18:26:00 UTC 2017	374.0	1.09494272E9	7959703.5	28.0	3.0072832E7	118478.75	81.0	6.00711168E8	19322.763671875	74.0	69.0	5.94116608E8	5.18488064E8	1556710.25	1576517.25	0.0677499994635582	0.10450000315904617	0.12950000166893005	0.9610000252723694	0.6494296789169312	300.0	0.0	0.0	2298.0	2372.0	0.0	0.0	0.0	0.0	null	null	null	null	null	null	null	null	281.0	288.0	285.0	285.0	282.0	288.0	285.0	289.0	288.0	289.0	286.0	
Fri Jun 02 18:27:00 UTC 2017	394.0	1.093787648E9	7959703.5	28.0	3.0810112E7	118478.75	83.0	6.02722304E8	20048.470703125	77.0	77.0	5.9881472E8	5.24918784E8	1556710.25	1576517.25	0.08275000005960464	0.11649999767541885	0.132750004529953	0.9572499990463257	0.6497359275817871	300.0	0.0	0.0	2298.0	2372.0	0.0	0.0	0.0	0.0	null	null	null	null	null	null	null	null	284.0	280.0	281.0	283.0	286.0	279.0	279.0	280.0	280.0	280.0	279.0	
Fri Jun 02 18:28:00 UTC 2017	377.0	1.095479296E9	7959703.5	30.0	3.0007296E7	122849.875	87.0	6.05687808E8	20197.166015625	83.0	78.0	6.04655616E8	5.2686848E8	1556710.25	1576517.25	0.07050000131130219	0.10649999976158142	0.13375000655651093	0.9580000042915344	0.651329517364502	350.0	0.0	0.0	2298.0	2372.0	0.0	0.0	0.0	0.0	null	null	null	null	null	null	null	null	279.0	279.0	282.0	280.0	281.0	281.0	280.0	279.0	281.0	281.0	283.0	
Fri Jun 02 18:29:00 UTC 2017	372.0	1.095614464E9	8232590.5	30.0	3.078144E7	122849.875	86.0	6.07612928E8	20865.66796875	81.0	77.0	6.09677312E8	5.34020096E8	1654762.75	null	0.07325000315904617	0.10875000059604645	0.1352500021457672	0.9570000171661377	0.650242805480957	350.0	0.0	0.0	2298.0	2372.0	0.0	0.0	0.0	0.0	null	null	null	null	null	null	null	null	278.0	277.0	281.0	280.0	280.0	279.0	277.0	279.0	279.0	278.0	276.0	
Fri Jun 02 18:30:00 UTC 2017	365.0	1.094549504E9	8232590.5	28.0	3.076096E7	122849.875	82.0	6.09583104E8	19086.6796875	77.0	74.0	6.13072896E8	5.4380544E8	1518502.375	null	0.07275000214576721	0.12250000238418579	0.13750000298023224	0.9585000276565552	0.6503749489784241	350.0	0.0	0.0	2298.0	2372.0	0.0	0.0	0.0	0.0	null	null	null	null	null	null	null	null	281.0	281.0	283.0	282.0	281.0	282.0	280.0	281.0	281.0	281.0	282.0	
Fri Jun 02 18:31:00 UTC 2017	375.0	1.095499776E9	8232590.5	29.0	2.9978624E7	122849.875	83.0	6.11811328E8	19860.2890625	83.0	71.0	6.19749376E8	5.49216256E8	1518502.375	null	0.09125000238418579	0.11500000208616257	0.14000000059604645	0.9572499990463257	0.6527400612831116	400.0	0.0	0.0	2298.0	2372.0	0.0	0.0	0.0	0.0	null	null	null	null	null	null	null	null	280.0	280.0	280.0	280.0	280.0	281.0	282.0	282.0	280.0	280.0	280.0	
Fri Jun 02 18:32:00 UTC 2017	350.0	1.096818688E9	7566091.5	28.0	3.0695424E7	122849.875	90.0	6.1384704E8	19860.2890625	73.0	81.0	6.29456896E8	5.53619456E8	1385501.875	1462287.125	0.08275000005960464	0.11949999630451202	0.14374999701976776	0.9580000042915344	0.6507903337478638	400.0	0.0	0.0	2298.0	2372.0	0.0	0.0	0.0	0.0	null	null	null	null	null	null	null	null	279.0	280.0	281.0	281.0	281.0	278.0	279.0	280.0	280.0	280.0	279.0	
Fri Jun 02 18:33:00 UTC 2017	357.0	1.095589888E9	7566091.5	27.0	3.00032E7	122849.875	81.0	6.16820736E8	19860.2890625	82.0	70.0	6.3205376E8	5.5703552E8	1385501.875	1462287.125	0.06700000166893005	0.12049999833106995	0.14024999737739563	0.9587500095367432	0.6510046124458313	400.0	0.0	0.0	2298.0	2372.0	0.0	0.0	0.0	0.0	null	null	null	null	null	null	null	null	285.0	286.0	285.0	284.0	283.0	288.0	283.0	285.0	285.0	283.0	285.0	
Fri Jun 02 18:34:00 UTC 2017	339.0	1.096900608E9	7566091.5	28.0	3.0838784E7	133701.21875	86.0	6.19036672E8	19860.2890625	80.0	77.0	6.34933248E8	5.62692096E8	1586739.25	1531306.25	0.07925000041723251	0.12675000727176666	0.14749999344348907	0.9577500224113464	0.6512037515640259	500.0	0.0	0.0	2298.0	2372.0	0.0	0.0	0.0	0.0	null	null	null	null	null	null	null	null	282.0	279.0	282.0	284.0	283.0	280.0	287.0	282.0	282.0	282.0	282.0	
Fri Jun 02 18:35:00 UTC 2017	373.0	1.09654016E9	7570490.5	28.0	3.0928896E7	133701.21875	85.0	6.2132224E8	19860.2890625	86.0	75.0	6.4591872E8	5.75664128E8	1600241.375	1531306.25	0.07275000214576721	0.12575000524520874	0.14824999868869781	0.9580000042915344	0.6515344977378845	500.0	0.0	0.0	2298.0	2372.0	0.0	0.0	0.0	0.0	null	null	null	null	null	null	null	null	287.0	284.0	284.0	284.0	284.0	285.0	284.0	285.0	288.0	289.0	288.0	
Fri Jun 02 18:36:00 UTC 2017	340.0	1.09643776E9	7570490.5	29.0	3.155968E7	125472.7109375	93.0	6.24635904E8	19860.2890625	85.0	81.0	6.52517376E8	5.80808704E8	1493767.625	null	0.07325000315904617	0.13600000739097595	0.15449999272823334	0.9585000276565552	0.6524264216423035	500.0	0.0	0.0	2298.0	2372.0	0.0	0.0	0.0	0.0	null	null	null	null	null	null	null	null	281.0	282.0	283.0	283.0	282.0	286.0	282.0	283.0	283.0	280.0	281.0	
Fri Jun 02 18:37:00 UTC 2017	386.0	1.096192E9	7354794.0	28.0	3.0183424E7	120083.3359375	90.0	6.2674944E8	22423.736328125	84.0	85.0	6.59939328E8	5.86584064E8	1430338.375	null	0.07150000333786011	0.1404999941587448	0.15649999678134918	0.9480000138282776	0.654247522354126	600.0	0.0	0.0	2298.0	2372.0	0.0	0.0	0.0	0.0	null	null	null	null	null	null	null	null	278.0	280.0	280.0	276.0	281.0	276.0	279.0	286.0	280.0	280.0	277.0	
Fri Jun 02 18:38:00 UTC 2017	379.0	1.096413184E9	8206657.5	29.0	3.0318592E7	133749.5	96.0	6.2967808E8	22423.736328125	89.0	82.0	6.647808E8	5.93219584E8	1594334.5	1663649.375	0.0689999982714653	0.13600000739097595	0.1599999964237213	0.9557499885559082	0.6521857380867004	600.0	0.0	0.0	2298.0	2372.0	0.0	0.0	0.0	0.0	null	null	null	null	null	null	null	null	280.0	280.0	277.0	283.0	278.0	282.0	280.0	280.0	280.0	280.0	282.0	
Fri Jun 02 18:39:00 UTC 2017	385.0	1.098067968E9	8206657.5	29.0	3.0806016E7	122234.109375	91.0	6.31853056E8	21604.458984375	92.0	79.0	6.70208E8	5.9772928E8	1594334.5	1663649.375	0.0767500028014183	0.1340000033378601	0.15424999594688416	0.9585000276565552	0.652346670627594	600.0	0.0	0.0	2298.0	2372.0	0.0	0.0	0.0	0.0	null	null	null	null	null	null	null	null	279.0	279.0	282.0	280.0	279.0	280.0	280.0	280.0	280.0	280.0	280.0	
Fri Jun 02 18:40:00 UTC 2017	147.0	1.09662208E9	8206657.5	29.0	3.0830592E7	140448.75	91.0	6.33901056E8	21604.458984375	89.0	83.0	6.75291136E8	6.02402816E8	1594334.5	1663649.375	0.06949999928474426	0.1404999941587448	0.16224999725818634	0.9559999704360962	0.6537205576896667	0.0	0.0	0.0	2298.0	2372.0	0.0	0.0	0.0	0.0	null	null	null	null	null	null	null	null	275.0	278.0	279.0	278.0	278.0	279.0	279.0	279.0	280.0	277.0	278.0	
Fri Jun 02 18:41:00 UTC 2017	1.0	1.09596672E9	3331413.0	14.0	2.5669632E7	43706.21484375	31.0	6.35867136E8	5693.5166015625	44.0	30.0	6.77097472E8	6.11254272E8	1594334.5	1663649.375	0.10700000077486038	0.09274999797344208	0.11150000244379044	0.9779999852180481	0.6530517339706421	3.0	0.0	0.0	2298.0	2372.0	0.0	0.0	0.0	0.0	null	null	null	null	null	null	null	null	312.0	311.0	316.0	306.0	306.0	305.0	311.0	309.0	313.0	303.0	309.0	
Fri Jun 02 18:42:00 UTC 2017	5.0	1.096323072E9	3331413.0	0.0	2.5669632E7	43706.21484375	2.0	6.35867136E8	5693.5166015625	0.0	0.0	6.77011456E8	6.11168256E8	3742.835205078125	57.45570373535156	0.07249999791383743	0.04349999874830246	0.05974999815225601	0.9915000200271606	0.6529901027679443	3.0	0.0	0.0	2298.0	2372.0	0.0	0.0	0.0	0.0	null	null	null	null	null	null	null	null	333.0	332.0	332.0	334.0	334.0	335.0	335.0	334.0	332.0	335.0	336.0	
Fri Jun 02 18:43:00 UTC 2017	7.0	1.09531136E9	3331413.0	0.0	2.5669632E7	43706.21484375	4.0	6.35871232E8	359.3377685546875	1.0	1.0	6.75909632E8	6.11086336E8	3742.835205078125	57.45570373535156	0.07874999940395355	0.05575000122189522	0.04675000160932541	0.9904999732971191	0.6530404686927795	3.0	0.0	0.0	2298.0	2372.0	0.0	0.0	0.0	0.0	null	null	null	null	null	null	null	null	333.0	334.0	334.0	330.0	333.0	335.0	333.0	331.0	333.0	335.0	333.0	
Fri Jun 02 18:44:00 UTC 2017	7.0	1.09531136E9	103545.703125	0.0	2.568192E7	43706.21484375	5.0	6.35875328E8	359.3377685546875	1.0	1.0	6.76835328E8	6.1100032E8	3742.835205078125	57.45570373535156	0.06925000250339508	0.04774999991059303	0.04675000160932541	0.9900000095367432	0.6551775932312012	5.0	0.0	0.0	2298.0	2372.0	0.0	0.0	0.0	0.0	null	null	null	null	null	null	null	null	327.0	333.0	333.0	333.0	335.0	330.0	332.0	333.0	335.0	330.0	334.0	
Fri Jun 02 18:45:00 UTC 2017	10.0	1.096323072E9	103545.703125	0.0	2.568192E7	1567.498779296875	7.0	6.3809536E8	359.3377685546875	1.0	2.0	6.7674112E8	6.10910208E8	15792.73046875	32431.16015625	0.07374999672174454	0.050999999046325684	0.0507499985396862	0.9907500147819519	0.6539779305458069	5.0	0.0	0.0	2298.0	2372.0	0.0	0.0	0.0	0.0	null	null	null	null	null	null	null	null	334.0	332.0	333.0	333.0	332.0	333.0	334.0	336.0	332.0	334.0	332.0	
Fri Jun 02 18:46:00 UTC 2017	14.0	1.096454144E9	152476.859375	0.0	2.5686016E7	2460.7919921875	6.0	6.38222336E8	691.1522216796875	1.0	3.0	6.75643392E8	6.13801984E8	15792.73046875	32431.16015625	0.08100000023841858	0.05400000140070915	0.048250000923871994	0.9902499914169312	0.6532479524612427	5.0	0.0	0.0	2298.0	2372.0	0.0	0.0	0.0	0.0	null	null	null	null	null	null	null	null	332.0	334.0	330.0	331.0	333.0	334.0	332.0	330.0	331.0	334.0	332.0	
Fri Jun 02 18:47:00 UTC 2017	10.0	1.095315456E9	152476.859375	0.0	2.5686016E7	2460.7919921875	5.0	6.3840256E8	691.1522216796875	1.0	3.0	6.76564992E8	6.13707776E8	15792.73046875	32431.16015625	0.06350000202655792	0.05050000175833702	0.0507499985396862	0.9900000095367432	0.6553728580474854	10.0	0.0	0.0	2298.0	2372.0	0.0	0.0	0.0	0.0	null	null	null	null	null	null	null	null	328.0	331.0	332.0	331.0	330.0	328.0	332.0	333.0	332.0	331.0	330.0	
Fri Jun 02 18:48:00 UTC 2017	17.0	1.092960256E9	173170.25	0.0	2.5686016E7	2460.7919921875	5.0	6.38406656E8	684.8738403320312	1.0	3.0	6.7647488E8	6.13617664E8	19434.376953125	null	0.07474999874830246	0.05274999886751175	0.04924999922513962	0.9904999732971191	0.6553552150726318	10.0	0.0	0.0	2298.0	2372.0	0.0	0.0	0.0	0.0	null	null	null	null	null	null	null	null	332.0	334.0	336.0	332.0	336.0	333.0	333.0	329.0	330.0	332.0	333.0	
Fri Jun 02 18:49:00 UTC 2017	23.0	1.092435968E9	298856.34375	1.0	2.5686016E7	2460.7919921875	7.0	6.38414848E8	1219.935302734375	2.0	5.0	6.76384768E8	6.13531648E8	28638.5390625	null	0.06949999928474426	0.05324999988079071	0.051249999552965164	0.9897500276565552	0.6542572975158691	10.0	0.0	0.0	2298.0	2372.0	0.0	0.0	0.0	0.0	null	null	null	null	null	null	null	null	329.0	328.0	329.0	329.0	331.0	334.0	328.0	330.0	331.0	331.0	332.0	
Fri Jun 02 18:50:00 UTC 2017	24.0	1.089400832E9	298856.34375	1.0	2.5686016E7	4984.9287109375	7.0	6.38509056E8	1208.525634765625	2.0	5.0	6.7629056E8	6.13453824E8	39178.8828125	null	0.08049999922513962	0.04924999922513962	0.048500001430511475	0.9762499928474426	0.6526784300804138	20.0	0.0	0.0	2298.0	2372.0	0.0	0.0	0.0	0.0	null	null	null	null	null	null	null	null	325.0	330.0	327.0	326.0	327.0	322.0	330.0	327.0	327.0	332.0	324.0	
Fri Jun 02 18:51:00 UTC 2017	36.0	1.086726144E9	439503.03125	1.0	2.5686016E7	4984.9287109375	8.0	6.38644224E8	1505.3983154296875	3.0	6.0	6.76200448E8	6.13367808E8	40036.6328125	136016.171875	0.08574999868869781	0.0560000017285347	0.054999999701976776	0.9862499833106995	0.6548292636871338	20.0	0.0	0.0	2298.0	2372.0	0.0	0.0	0.0	0.0	null	null	null	null	null	null	null	null	331.0	329.0	330.0	329.0	329.0	330.0	328.0	328.0	329.0	325.0	328.0	
Fri Jun 02 18:52:00 UTC 2017	42.0	1.083117568E9	660390.5625	2.0	2.5686016E7	8031.06689453125	11.0	6.38656512E8	1505.3983154296875	5.0	8.0	6.7510272E8	6.13285888E8	40036.6328125	136016.171875	0.07175000011920929	0.054999999701976776	0.05674999952316284	0.987500011920929	0.6523794531822205	20.0	0.0	0.0	2298.0	2372.0	0.0	0.0	0.0	0.0	null	null	null	null	null	null	null	null	329.0	329.0	327.0	325.0	327.0	330.0	328.0	326.0	331.0	330.0	329.0	
Fri Jun 02 18:53:00 UTC 2017	51.0	1.078964224E9	660390.5625	3.0	2.5686016E7	8031.06689453125	14.0	6.39008768E8	1505.3983154296875	6.0	9.0	6.76421632E8	6.13326848E8	40036.6328125	136016.171875	0.07975000143051147	0.052000001072883606	0.05324999988079071	0.9800000190734863	0.6522116661071777	50.0	0.0	0.0	2298.0	2372.0	0.0	0.0	0.0	0.0	null	null	null	null	null	null	null	null	323.0	322.0	327.0	330.0	324.0	325.0	327.0	328.0	325.0	325.0	326.0	
Fri Jun 02 18:54:00 UTC 2017	76.0	1.07272192E9	660390.5625	3.0	2.5686016E7	8031.06689453125	17.0	6.42564096E8	1505.3983154296875	7.0	11.0	6.7633152E8	6.13117952E8	167673.609375	198142.296875	0.0689999982714653	0.05299999937415123	0.06350000202655792	0.9869999885559082	0.6515721678733826	50.0	0.0	0.0	2298.0	2372.0	0.0	0.0	0.0	0.0	null	null	null	null	null	null	null	null	327.0	326.0	324.0	328.0	326.0	326.0	325.0	327.0	325.0	324.0	326.0	
Fri Jun 02 18:55:00 UTC 2017	93.0	1.061941248E9	1612633.0	6.0	2.5686016E7	8031.06689453125	28.0	6.43330048E8	1505.3983154296875	14.0	17.0	6.77523456E8	6.1302784E8	283410.28125	369646.75	0.07649999856948853	0.0572500005364418	0.07175000011920929	0.9837499856948853	0.6503098607063293	50.0	0.0	0.0	2298.0	2372.0	0.0	0.0	0.0	0.0	null	null	null	null	null	null	null	null	322.0	325.0	319.0	323.0	321.0	324.0	318.0	325.0	323.0	318.0	318.0	
Fri Jun 02 18:56:00 UTC 2017	109.0	1.052930048E9	1612633.0	7.0	2.5686016E7	27379.890625	27.0	6.43514368E8	5856.27587890625	14.0	19.0	6.7743744E8	6.13400576E8	304701.0625	369646.75	0.06549999862909317	0.06525000184774399	0.06825000047683716	0.9827499985694885	0.6496160626411438	100.0	0.0	0.0	2298.0	2372.0	0.0	0.0	0.0	0.0	null	null	null	null	null	null	null	null	320.0	319.0	320.0	321.0	323.0	319.0	326.0	321.0	321.0	322.0	321.0	
Fri Jun 02 18:57:00 UTC 2017	146.0	9.97306368E8	1612633.0	8.0	2.7066368E7	27379.890625	30.0	6.43559424E8	5856.27587890625	18.0	22.0	6.77306368E8	6.1474816E8	374292.0	null	0.07249999791383743	0.054749999195337296	0.07599999755620956	0.9807500243186951	0.6452689170837402	100.0	0.0	0.0	2298.0	2372.0	0.0	0.0	0.0	0.0	null	null	null	null	null	null	null	null	319.0	315.0	317.0	319.0	316.0	319.0	317.0	317.0	318.0	318.0	320.0	
Fri Jun 02 18:58:00 UTC 2017	166.0	9.90547968E8	2940414.75	12.0	2.7009024E7	43812.64453125	43.0	6.44968448E8	10435.2080078125	27.0	29.0	6.78629376E8	6.15964672E8	516086.46875	null	0.07175000011920929	0.0729999989271164	0.0832500010728836	0.9775000214576721	0.6447027921676636	100.0	0.0	0.0	2298.0	2372.0	0.0	0.0	0.0	0.0	null	null	null	null	null	null	null	null	309.0	315.0	313.0	312.0	315.0	312.0	313.0	312.0	309.0	312.0	309.0	
Fri Jun 02 18:59:00 UTC 2017	210.0	1.045876736E9	2940414.75	13.0	2.9913088E7	43812.64453125	42.0	6.4503808E8	10435.2080078125	30.0	31.0	6.77535744E8	6.15878656E8	516086.46875	null	0.07575000077486038	0.06599999964237213	0.08749999850988388	0.9677500128746033	0.649848461151123	150.0	0.0	0.0	2298.0	2372.0	0.0	0.0	0.0	0.0	null	null	null	null	null	null	null	null	308.0	305.0	309.0	306.0	305.0	306.0	306.0	308.0	309.0	307.0	307.0	
Fri Jun 02 19:00:00 UTC 2017	242.0	1.046142976E9	4424586.0	16.0	2.7680768E7	43812.64453125	49.0	6.49396224E8	10435.2080078125	37.0	36.0	6.7753984E8	6.1622272E8	844260.5625	764753.8125	0.06875000149011612	0.07349999994039536	0.09549999982118607	0.96875	0.6499521732330322	150.0	0.0	0.0	2298.0	2372.0	0.0	0.0	0.0	0.0	null	null	null	null	null	null	null	null	302.0	305.0	300.0	303.0	300.0	299.0	296.0	299.0	302.0	301.0	300.0	
Fri Jun 02 19:01:00 UTC 2017	279.0	1.047498752E9	4424586.0	19.0	2.7766784E7	43812.64453125	66.0	6.528E8	10435.2080078125	47.0	45.0	6.78506496E8	6.17230336E8	1017063.0625	null	0.09300000220537186	0.07124999910593033	0.1054999977350235	0.9652500152587891	0.6502252221107483	150.0	0.0	0.0	2298.0	2372.0	0.0	0.0	0.0	0.0	null	null	null	null	null	null	null	null	294.0	295.0	296.0	298.0	297.0	297.0	299.0	298.0	297.0	298.0	295.0	
Fri Jun 02 19:02:00 UTC 2017	291.0	1.046413312E9	4424586.0	21.0	2.8475392E7	93501.1875	70.0	6.54569472E8	10435.2080078125	51.0	47.0	6.78678528E8	6.17631744E8	1186463.25	null	0.07175000011920929	0.07850000262260437	0.1120000034570694	0.9620000123977661	0.6513471007347107	200.0	0.0	0.0	2298.0	2372.0	0.0	0.0	0.0	0.0	null	null	null	null	null	null	null	null	296.0	294.0	290.0	296.0	293.0	291.0	289.0	292.0	293.0	292.0	289.0	
Fri Jun 02 19:03:00 UTC 2017	324.0	1.047687168E9	4424586.0	22.0	2.865152E7	96237.0234375	65.0	6.5466368E8	16071.2353515625	52.0	48.0	6.79604224E8	6.12634624E8	1186463.25	null	0.07925000041723251	0.08349999785423279	0.10649999976158142	0.9632499814033508	0.6510525941848755	200.0	0.0	0.0	2298.0	2372.0	0.0	0.0	0.0	0.0	null	null	null	null	null	null	null	null	292.0	294.0	290.0	295.0	290.0	292.0	290.0	291.0	292.0	293.0	290.0	
Fri Jun 02 19:04:00 UTC 2017	365.0	1.048031232E9	6960003.5	26.0	2.8770304E7	117115.765625	81.0	6.58182144E8	16071.2353515625	61.0	60.0	6.83016192E8	6.1536256E8	1186463.25	null	0.07199999690055847	0.08449999988079071	0.125	0.9620000123977661	0.6512801051139832	200.0	0.0	0.0	2298.0	2372.0	0.0	0.0	0.0	0.0	null	null	null	null	null	null	null	null	288.0	288.0	287.0	287.0	290.0	286.0	284.0	285.0	286.0	285.0	288.0	
Fri Jun 02 19:05:00 UTC 2017	372.0	1.04849408E9	7974525.0	29.0	3.012608E7	117115.765625	85.0	6.60672512E8	16071.2353515625	66.0	64.0	6.86587904E8	6.16910848E8	1186463.25	null	0.07374999672174454	0.08275000005960464	0.12825000286102295	0.9559999704360962	0.653514564037323	250.0	0.0	0.0	2298.0	2372.0	0.0	0.0	0.0	0.0	null	null	null	null	null	null	null	null	282.0	280.0	281.0	282.0	283.0	280.0	280.0	281.0	280.0	281.0	281.0	
Fri Jun 02 19:06:00 UTC 2017	339.0	1.046724608E9	7974525.0	29.0	2.9241344E7	120863.8984375	80.0	6.63126016E8	19151.125	69.0	64.0	6.92514816E8	6.21654016E8	1604359.0	null	0.06849999725818634	0.09200000017881393	0.12475000321865082	0.9595000147819519	0.6516166925430298	250.0	0.0	0.0	2298.0	2372.0	0.0	0.0	0.0	0.0	null	null	null	null	null	null	null	null	282.0	282.0	281.0	281.0	282.0	283.0	282.0	279.0	282.0	281.0	279.0	
Fri Jun 02 19:07:00 UTC 2017	358.0	1.048006656E9	7974525.0	26.0	2.9069312E7	120863.8984375	79.0	6.65214976E8	18886.837890625	61.0	64.0	6.95189504E8	6.30337536E8	1339620.75	null	0.07000000029802322	0.09775000065565109	0.12725000083446503	0.9614999890327454	0.651761531829834	250.0	0.0	0.0	2298.0	2372.0	0.0	0.0	0.0	0.0	null	null	null	null	null	null	null	null	285.0	286.0	289.0	287.0	289.0	286.0	286.0	290.0	286.0	287.0	286.0	
Fri Jun 02 19:08:00 UTC 2017	362.0	1.047814144E9	7558032.5	28.0	3.057664E7	120863.8984375	82.0	6.69847552E8	18937.111328125	63.0	65.0	6.98687488E8	6.36100608E8	1454376.875	null	0.08025000244379044	0.10000000149011612	0.12600000202655792	0.9599999785423279	0.6519405841827393	300.0	0.0	0.0	2298.0	2372.0	0.0	0.0	0.0	0.0	null	null	null	null	null	null	null	null	283.0	287.0	285.0	286.0	281.0	283.0	287.0	283.0	286.0	281.0	284.0	
Fri Jun 02 19:09:00 UTC 2017	350.0	1.04679424E9	7558032.5	28.0	2.9925376E7	111543.53125	79.0	6.71391744E8	18937.111328125	65.0	68.0	7.002112E8	6.38754816E8	1454376.875	null	0.07124999910593033	0.09749999642372131	0.1274999976158142	0.9622499942779541	0.6522263288497925	300.0	0.0	0.0	2298.0	2372.0	0.0	0.0	0.0	0.0	null	null	null	null	null	null	null	null	287.0	278.0	279.0	282.0	283.0	284.0	281.0	283.0	283.0	283.0	287.0	
Fri Jun 02 19:10:00 UTC 2017	368.0	1.048154112E9	7558032.5	28.0	3.0695424E7	111543.53125	86.0	6.7196928E8	20183.541015625	74.0	66.0	7.05703936E8	6.43530752E8	1504851.5	1631406.875	0.07175000011920929	0.1042499989271164	0.13875000178813934	0.9599999785423279	0.6539646983146667	300.0	0.0	0.0	2298.0	2372.0	0.0	0.0	0.0	0.0	null	null	null	null	null	null	null	null	281.0	283.0	287.0	280.0	287.0	282.0	281.0	283.0	283.0	284.0	282.0	
Fri Jun 02 19:11:00 UTC 2017	354.0	1.046757376E9	7695089.0	28.0	3.0728192E7	111543.53125	84.0	6.78428672E8	20183.541015625	71.0	67.0	7.11581696E8	6.519808E8	1504851.5	1631406.875	0.0949999988079071	0.10525000095367432	0.1340000033378601	0.9607499837875366	0.6523990631103516	350.0	0.0	0.0	2298.0	2372.0	0.0	0.0	0.0	0.0	null	null	null	null	null	null	null	null	283.0	286.0	283.0	285.0	284.0	282.0	283.0	283.0	284.0	283.0	285.0	
Fri Jun 02 19:12:00 UTC 2017	371.0	1.04660992E9	7695089.0	28.0	3.0744576E7	113981.7421875	78.0	6.7854336E8	19418.033203125	75.0	63.0	7.13551872E8	6.53955072E8	1504851.5	1631406.875	0.07774999737739563	0.10875000059604645	0.1274999976158142	0.9577500224113464	0.6525565981864929	350.0	0.0	0.0	2298.0	2372.0	0.0	0.0	0.0	0.0	null	null	null	null	null	null	null	null	284.0	283.0	284.0	282.0	284.0	280.0	285.0	281.0	282.0	283.0	284.0	
Fri Jun 02 19:13:00 UTC 2017	374.0	1.045499904E9	7717315.0	30.0	3.0752768E7	136530.234375	88.0	6.823936E8	20531.72265625	79.0	70.0	7.184384E8	6.57330176E8	1606562.625	1565560.75	0.06750000268220901	0.11299999803304672	0.14274999499320984	0.9572499990463257	0.6528447866439819	350.0	0.0	0.0	2298.0	2372.0	0.0	0.0	0.0	0.0	null	null	null	null	null	null	null	null	283.0	282.0	281.0	280.0	281.0	282.0	283.0	284.0	282.0	282.0	282.0	
Fri Jun 02 19:14:00 UTC 2017	363.0	1.04689664E9	8304521.5	30.0	3.0756864E7	130532.25	86.0	6.84560384E8	20531.72265625	77.0	73.0	7.22354176E8	6.60791296E8	1574826.0	1565560.75	0.07175000011920929	0.11699999868869781	0.14350000023841858	0.9580000042915344	0.653176486492157	400.0	0.0	0.0	2298.0	2372.0	0.0	0.0	0.0	0.0	null	null	null	null	null	null	null	null	280.0	279.0	281.0	280.0	278.0	279.0	281.0	278.0	276.0	280.0	278.0	
Fri Jun 02 19:15:00 UTC 2017	358.0	1.047146496E9	7365704.0	27.0	3.0896128E7	130532.25	80.0	6.86882816E8	19107.57421875	75.0	69.0	7.26867968E8	6.61127168E8	1574826.0	1565560.75	0.07575000077486038	0.1132500022649765	0.13750000298023224	0.9599999785423279	0.653261125087738	400.0	0.0	0.0	2298.0	2372.0	0.0	0.0	0.0	0.0	null	null	null	null	null	null	null	null	283.0	282.0	283.0	282.0	282.0	281.0	282.0	283.0	284.0	281.0	284.0	
Fri Jun 02 19:16:00 UTC 2017	364.0	1.047891968E9	7365704.0	28.0	3.0912512E7	130532.25	88.0	6.89082368E8	20562.279296875	72.0	75.0	7.30443776E8	6.66185728E8	1420471.0	1493917.75	0.06875000149011612	0.12600000202655792	0.1457500010728836	0.9580000042915344	0.6535101532936096	400.0	0.0	0.0	2298.0	2372.0	0.0	0.0	0.0	0.0	null	null	null	null	null	null	null	null	285.0	281.0	280.0	282.0	281.0	282.0	281.0	281.0	281.0	282.0	283.0	
Fri Jun 02 19:17:00 UTC 2017	371.0	1.04761344E9	7365704.0	27.0	3.0060544E7	130532.25	87.0	6.91355648E8	20916.234375	85.0	68.0	7.31672576E8	6.69085696E8	1420471.0	1493917.75	0.07774999737739563	0.11599999666213989	0.14824999868869781	0.9549999833106995	0.6536955833435059	500.0	0.0	0.0	2298.0	2372.0	0.0	0.0	0.0	0.0	null	null	null	null	null	null	null	null	281.0	281.0	281.0	282.0	280.0	284.0	280.0	281.0	279.0	283.0	279.0	
Fri Jun 02 19:18:00 UTC 2017	359.0	1.04679424E9	7992648.5	29.0	3.0642176E7	119604.484375	95.0	6.95422976E8	20390.8828125	84.0	72.0	7.39127296E8	6.7612672E8	1420471.0	1493917.75	0.06674999743700027	0.13175000250339508	0.1459999978542328	0.9559999704360962	0.6561840176582336	500.0	0.0	0.0	2298.0	2372.0	0.0	0.0	0.0	0.0	null	null	null	null	null	null	null	null	282.0	279.0	279.0	283.0	282.0	280.0	281.0	282.0	283.0	281.0	281.0	
Fri Jun 02 19:19:00 UTC 2017	352.0	1.047584768E9	7571576.5	29.0	2.9929472E7	114522.2578125	83.0	6.95595008E8	20390.8828125	85.0	73.0	7.43411712E8	6.79677952E8	1420471.0	1493917.75	0.07575000077486038	0.13449999690055847	0.15150000154972076	0.9589999914169312	0.6540111899375916	500.0	0.0	0.0	2298.0	2372.0	0.0	0.0	0.0	0.0	null	null	null	null	null	null	null	null	284.0	282.0	286.0	283.0	281.0	280.0	285.0	281.0	280.0	286.0	285.0	
Fri Jun 02 19:20:00 UTC 2017	367.0	1.048338432E9	7571576.5	28.0	2.9937664E7	114522.2578125	76.0	6.9582848E8	17964.140625	91.0	66.0	7.49355008E8	6.8306944E8	1834263.625	1390748.875	0.06750000268220901	0.13750000298023224	0.1525000035762787	0.9587500095367432	0.6541882753372192	600.0	0.0	0.0	2298.0	2372.0	0.0	0.0	0.0	0.0	null	null	null	null	null	null	null	null	285.0	284.0	281.0	285.0	282.0	288.0	280.0	284.0	285.0	283.0	283.0	
Fri Jun 02 19:21:00 UTC 2017	379.0	1.048121344E9	7515821.0	29.0	3.0093312E7	114522.2578125	79.0	6.96098816E8	17961.498046875	85.0	72.0	7.5350016E8	6.85821952E8	1654067.0	1407157.875	0.10275000333786011	0.13975000381469727	0.15449999272823334	0.9602500200271606	0.6543532013893127	600.0	0.0	0.0	2298.0	2372.0	0.0	0.0	0.0	0.0	null	null	null	null	null	null	null	null	285.0	283.0	285.0	281.0	282.0	279.0	282.0	280.0	283.0	284.0	283.0	
Fri Jun 02 19:22:00 UTC 2017	372.0	1.04792064E9	7515821.0	30.0	3.0670848E7	128721.1171875	88.0	6.9625856E8	17961.498046875	88.0	81.0	7.56809728E8	6.89000448E8	1628580.625	1633992.5	0.07374999672174454	0.1367499977350235	0.1574999988079071	0.9549999833106995	0.6568509340286255	600.0	0.0	0.0	2298.0	2372.0	0.0	0.0	0.0	0.0	null	null	null	null	null	null	null	null	282.0	279.0	279.0	280.0	276.0	280.0	281.0	280.0	278.0	278.0	280.0	
