<<<<<<< HEAD
_DATE	cpuusage_middle	memusage_middle	network_middle	cpuusage_server	memusage_server	network_server	cpuusage_cassandra	memusage_cassandra	network_cassandra	cpuusage_edge1	cpuusage_edge2	memusage_edge1	memusage_edge2	network_edge1	nodecpu61	nodecpu62	nodecpu63	nodecpu64	nodemem64	locustusers	status_200_count1	status_200_count3	status_500_count1	status_500_count3	status_0_count1	status_0_count3	status_other_count1	status_other_count3	percentile_viewfeedresponsetime_edge	percentile_addfeedresponsetime_edge	percentile_deletefeedresponsetime_edge	percentile_fetch_middle	percentile_fetchfeeds_middle	percentile_fetchfeeds_middle	percentile_sub_middle	percentile_unsub_middle	cpuusage_stress1	cpuusage_stress10	cpuusage_stress11	cpuusage_stress2	cpuusage_stress3	cpuusage_stress4	cpuusage_stress5	cpuusage_stress6	cpuusage_stress7	cpuusage_stress8	cpuusage_stress9	
Fri Jun 02 17:54:00 UTC 2017	1.0	1.081704448E9	2332.256103515625	0.0	2.5399296E7	0.0	2.0	5.63744768E8	35.429039001464844	0.0	0.0	5.4642688E8	4.78486528E8	0.0	0.0689999982714653	0.0442500002682209	0.052000001072883606	0.9915000200271606	0.6443182229995728	0.0	0.0	0.0	2298.0	2372.0	0.0	0.0	0.0	0.0	null	null	null	null	null	null	null	null	334.0	339.0	333.0	331.0	334.0	333.0	331.0	334.0	331.0	334.0	335.0	
Fri Jun 02 17:53:00 UTC 2017	1.0	1.081704448E9	2622.41796875	0.0	2.5399296E7	0.0	3.0	5.63740672E8	44.61051559448242	0.0	1.0	5.46541568E8	4.78601216E8	0.0	0.07524999976158142	0.0494999997317791	0.04650000110268593	0.9915000200271606	0.6442198753356934	0.0	0.0	0.0	2298.0	2372.0	0.0	0.0	0.0	0.0	null	null	null	null	null	null	null	null	332.0	333.0	335.0	336.0	334.0	335.0	334.0	332.0	334.0	335.0	335.0	
Fri Jun 02 17:52:00 UTC 2017	1.0	1.08271616E9	2622.41796875	0.0	2.6406912E7	0.0	2.0	5.63740672E8	31.712846755981445	1.0	1.0	5.46656256E8	4.7872E8	0.0	0.07325000315904617	0.054249998182058334	0.04450000077486038	0.9912499785423279	0.644291341304779	0.0	0.0	0.0	2298.0	2372.0	0.0	0.0	0.0	0.0	null	null	null	null	null	null	null	null	332.0	333.0	336.0	333.0	334.0	334.0	334.0	333.0	333.0	334.0	330.0	
Fri Jun 02 17:51:00 UTC 2017	1.0	1.08271616E9	2712.6982421875	0.0	2.6406912E7	0.0	3.0	5.63740672E8	31.712846755981445	2.0	2.0	5.46770944E8	4.78838784E8	0.0	0.1002499982714653	0.051750000566244125	0.04699999839067459	0.9835000038146973	0.6443260908126831	0.0	0.0	0.0	2298.0	2372.0	0.0	0.0	0.0	0.0	null	null	null	null	null	null	null	null	333.0	334.0	331.0	334.0	333.0	333.0	330.0	332.0	336.0	335.0	333.0	
Fri Jun 02 17:50:00 UTC 2017	1.0	1.081704448E9	2712.6982421875	0.0	2.5399296E7	0.0	2.0	5.63621888E8	31.712846755981445	0.0	0.0	5.46885632E8	4.78953472E8	0.0	0.06499999761581421	0.048250000923871994	0.04699999839067459	0.9912499785423279	0.644306480884552	0.0	0.0	0.0	2298.0	2372.0	0.0	0.0	0.0	0.0	null	null	null	null	null	null	null	null	332.0	334.0	339.0	331.0	332.0	336.0	334.0	330.0	332.0	334.0	333.0	
Fri Jun 02 17:49:00 UTC 2017	1.0	1.081704448E9	3076.724609375	0.0	2.5399296E7	0.0	2.0	5.6352768E8	31.712846755981445	0.0	0.0	5.4700032E8	4.79072256E8	0.0	0.08250000327825546	0.0507499985396862	0.0494999997317791	0.9912499785423279	0.6443055272102356	0.0	0.0	0.0	2298.0	2372.0	0.0	0.0	0.0	0.0	null	null	null	null	null	null	null	null	333.0	334.0	331.0	334.0	336.0	337.0	331.0	334.0	334.0	335.0	336.0	
Fri Jun 02 17:48:00 UTC 2017	1.0	1.081696256E9	2681.81005859375	0.0	2.5399296E7	0.0	2.0	5.6352768E8	31.712846755981445	1.0	2.0	5.47115008E8	4.79186944E8	0.0	0.06800000369548798	0.04724999889731407	0.04500000178813934	0.9915000200271606	0.644262969493866	0.0	0.0	0.0	2298.0	2372.0	0.0	0.0	0.0	0.0	null	null	null	null	null	null	null	null	336.0	335.0	335.0	333.0	331.0	333.0	334.0	336.0	337.0	335.0	331.0	
Fri Jun 02 17:47:00 UTC 2017	1.0	1.081696256E9	2464.3603515625	0.0	2.6406912E7	0.0	2.0	5.6352768E8	31.712846755981445	0.0	0.0	5.47213312E8	4.79285248E8	0.0	0.07225000113248825	0.0507499985396862	0.050999999046325684	0.9915000200271606	0.6465365886688232	0.0	0.0	0.0	2298.0	2372.0	0.0	0.0	0.0	0.0	null	null	null	null	null	null	null	null	333.0	336.0	333.0	338.0	333.0	334.0	334.0	330.0	332.0	333.0	334.0	
Fri Jun 02 17:46:00 UTC 2017	1.0	1.081696256E9	2967.17919921875	0.0	2.5399296E7	0.0	3.0	5.6352768E8	31.712846755981445	0.0	0.0	5.47328E8	4.79404032E8	0.0	0.06624999642372131	0.05274999886751175	0.045249998569488525	0.9912499785423279	0.6451725363731384	0.0	0.0	0.0	2298.0	2372.0	0.0	0.0	0.0	0.0	null	null	null	null	null	null	null	null	332.0	335.0	335.0	331.0	335.0	335.0	336.0	333.0	333.0	332.0	332.0	
Fri Jun 02 17:45:00 UTC 2017	1.0	1.082707968E9	2967.17919921875	0.0	2.6406912E7	0.0	2.0	5.63396608E8	31.712846755981445	0.0	0.0	5.47446784E8	4.7951872E8	0.0	0.07850000262260437	0.04675000160932541	0.04450000077486038	0.9915000200271606	0.6442286968231201	0.0	0.0	0.0	2298.0	2372.0	0.0	0.0	0.0	0.0	null	null	null	null	null	null	null	null	335.0	338.0	336.0	339.0	332.0	333.0	334.0	330.0	336.0	337.0	333.0	
Fri Jun 02 17:44:00 UTC 2017	1.0	1.081696256E9	2967.17919921875	0.0	2.5399296E7	0.0	2.0	5.63306496E8	66.81735229492188	0.0	0.0	5.47561472E8	4.79633408E8	0.0	0.07349999994039536	0.05624999850988388	0.051500000059604645	0.9917500019073486	0.6441905498504639	0.0	0.0	0.0	2298.0	2372.0	0.0	0.0	0.0	0.0	null	null	null	null	null	null	null	null	335.0	334.0	332.0	333.0	333.0	334.0	331.0	334.0	335.0	332.0	332.0	
Fri Jun 02 17:43:00 UTC 2017	0.0	1.082707968E9	2967.17919921875	0.0	2.6406912E7	0.0	2.0	5.63306496E8	45.64508819580078	1.0	2.0	5.4767616E8	4.79748096E8	0.0	0.07925000041723251	0.045499999076128006	0.04500000178813934	0.9915000200271606	0.6441646218299866	0.0	0.0	0.0	2298.0	2372.0	0.0	0.0	0.0	0.0	null	null	null	null	null	null	null	null	333.0	335.0	334.0	334.0	335.0	334.0	334.0	335.0	332.0	334.0	333.0	
Fri Jun 02 17:42:00 UTC 2017	1.0	1.082707968E9	2566.680419921875	0.0	2.6406912E7	0.0	2.0	5.63306496E8	40.31869125366211	3.0	1.0	5.47790848E8	4.79809536E8	0.0	0.07100000232458115	0.05925000086426735	0.048500001430511475	0.9915000200271606	0.6441617012023926	0.0	0.0	0.0	2298.0	2372.0	0.0	0.0	0.0	0.0	null	null	null	null	null	null	null	null	335.0	334.0	335.0	337.0	334.0	334.0	336.0	335.0	335.0	334.0	335.0	
Fri Jun 02 17:41:00 UTC 2017	1.0	1.082707968E9	3130.9375	0.0	2.5399296E7	0.0	4.0	5.63306496E8	40.31869125366211	0.0	0.0	5.47872768E8	4.79924224E8	0.0	0.09350000321865082	0.05050000175833702	0.04625000059604645	0.9909999966621399	0.644156277179718	0.0	0.0	0.0	2298.0	2372.0	0.0	0.0	0.0	0.0	null	null	null	null	null	null	null	null	334.0	333.0	331.0	333.0	335.0	333.0	333.0	333.0	334.0	332.0	334.0	
Fri Jun 02 17:40:00 UTC 2017	1.0	1.082707968E9	2699.236083984375	0.0	2.5399296E7	0.0	4.0	5.63134464E8	40.31869125366211	0.0	0.0	5.47987456E8	4.80038912E8	0.0	0.07649999856948853	0.045249998569488525	0.048500001430511475	0.9867500066757202	0.6452727913856506	0.0	0.0	0.0	2298.0	2372.0	0.0	0.0	0.0	0.0	null	null	null	null	null	null	null	null	334.0	333.0	331.0	331.0	332.0	335.0	331.0	332.0	331.0	330.0	331.0	
Fri Jun 02 17:39:00 UTC 2017	1.0	1.082707968E9	2457.773681640625	0.0	2.5399296E7	0.0	2.0	5.6303616E8	35.81941223144531	1.0	0.0	5.48102144E8	4.80149504E8	0.0	0.06024999916553497	0.05400000140070915	0.04450000077486038	0.9915000200271606	0.6441205739974976	0.0	0.0	0.0	2298.0	2372.0	0.0	0.0	0.0	0.0	null	null	null	null	null	null	null	null	330.0	334.0	335.0	333.0	333.0	333.0	334.0	331.0	334.0	336.0	329.0	
Fri Jun 02 17:38:00 UTC 2017	1.0	1.082707968E9	3283.576171875	0.0	2.5399296E7	0.0	4.0	5.6303616E8	35.146202087402344	0.0	0.0	5.48102144E8	4.80260096E8	0.0	0.07724999636411667	0.05299999937415123	0.04975000023841858	0.9912499785423279	0.6445662975311279	0.0	0.0	0.0	2298.0	2372.0	0.0	0.0	0.0	0.0	null	null	null	null	null	null	null	null	336.0	332.0	329.0	335.0	333.0	333.0	336.0	336.0	333.0	334.0	334.0	
Fri Jun 02 17:37:00 UTC 2017	1.0	1.082707968E9	2338.96142578125	0.0	2.5399296E7	0.0	2.0	5.6303616E8	86.51185607910156	0.0	0.0	5.48216832E8	4.8037888E8	0.0	0.07750000059604645	0.05225000157952309	0.04399999976158142	0.9912499785423279	0.6441019773483276	0.0	0.0	0.0	2298.0	2372.0	0.0	0.0	0.0	0.0	null	null	null	null	null	null	null	null	333.0	337.0	336.0	333.0	337.0	334.0	332.0	334.0	331.0	331.0	334.0	
Fri Jun 02 17:36:00 UTC 2017	1.0	1.082707968E9	2514.759521484375	0.0	2.5399296E7	0.0	3.0	5.6303616E8	86.51185607910156	0.0	0.0	5.4833152E8	4.80493568E8	0.0	0.06424999982118607	0.05050000175833702	0.050999999046325684	0.9900000095367432	0.6440853476524353	0.0	0.0	0.0	2298.0	2372.0	0.0	0.0	0.0	0.0	null	null	null	null	null	null	null	null	333.0	331.0	331.0	335.0	332.0	332.0	333.0	334.0	335.0	332.0	333.0	
Fri Jun 02 17:35:00 UTC 2017	1.0	1.082707968E9	2442.647705078125	0.0	2.6406912E7	0.0	2.0	5.62917376E8	34.748939514160156	0.0	0.0	5.48450304E8	4.80669696E8	0.0	0.07175000011920929	0.04574999958276749	0.04349999874830246	0.9915000200271606	0.6440858244895935	0.0	0.0	0.0	2298.0	2372.0	0.0	0.0	0.0	0.0	null	null	null	null	null	null	null	null	333.0	336.0	336.0	334.0	334.0	335.0	333.0	334.0	335.0	332.0	334.0	
Fri Jun 02 17:34:00 UTC 2017	1.0	1.081696256E9	2442.647705078125	0.0	2.5399296E7	0.0	2.0	5.62827264E8	45.33546447753906	0.0	0.0	5.48564992E8	4.80669696E8	0.0	0.07124999910593033	0.051500000059604645	0.05274999886751175	0.9909999966621399	0.644056499004364	0.0	0.0	0.0	2298.0	2372.0	0.0	0.0	0.0	0.0	null	null	null	null	null	null	null	null	334.0	331.0	333.0	336.0	334.0	333.0	336.0	335.0	330.0	336.0	335.0	
Fri Jun 02 17:33:00 UTC 2017	1.0	1.081696256E9	3192.92578125	0.0	2.5399296E7	0.0	2.0	5.62827264E8	45.33546447753906	0.0	1.0	5.48683776E8	4.80784384E8	0.0	0.08399999886751175	0.050999999046325684	0.042750000953674316	0.9915000200271606	0.6440349817276001	0.0	0.0	0.0	2298.0	2372.0	0.0	0.0	0.0	0.0	null	null	null	null	null	null	null	null	334.0	332.0	329.0	331.0	331.0	334.0	335.0	333.0	333.0	335.0	334.0	
Fri Jun 02 17:32:00 UTC 2017	1.0	1.08169216E9	2694.201171875	0.0	2.6406912E7	0.0	3.0	5.62827264E8	49.67851638793945	0.0	0.0	5.48798464E8	4.80899072E8	0.0	0.0689999982714653	0.04899999871850014	0.04625000059604645	0.9917500019073486	0.6458736658096313	0.0	0.0	0.0	2298.0	2372.0	0.0	0.0	0.0	0.0	null	null	null	null	null	null	null	null	337.0	336.0	332.0	337.0	335.0	336.0	335.0	334.0	332.0	335.0	337.0	
Fri Jun 02 17:31:00 UTC 2017	0.0	1.08169216E9	2552.900390625	0.0	2.5399296E7	0.0	3.0	5.62819072E8	63.07191848754883	0.0	1.0	5.48913152E8	4.81009664E8	0.0	0.0949999988079071	0.05000000074505806	0.05000000074505806	0.9915000200271606	0.6440598964691162	0.0	0.0	0.0	2298.0	2372.0	0.0	0.0	0.0	0.0	null	null	null	null	null	null	null	null	332.0	333.0	335.0	335.0	333.0	332.0	334.0	333.0	332.0	334.0	334.0	
Fri Jun 02 17:30:00 UTC 2017	0.0	1.082703872E9	2552.900390625	0.0	2.5399296E7	0.0	5.0	5.62696192E8	63.07191848754883	0.0	0.0	5.4902784E8	4.81083392E8	0.0	0.07400000095367432	0.0442500002682209	0.04899999871850014	0.9915000200271606	0.6440368890762329	0.0	0.0	0.0	2298.0	2372.0	0.0	0.0	0.0	0.0	null	null	null	null	null	null	null	null	335.0	333.0	333.0	336.0	336.0	338.0	334.0	334.0	335.0	335.0	335.0	
Fri Jun 02 17:29:00 UTC 2017	1.0	1.081683968E9	2552.900390625	0.0	2.6406912E7	0.0	3.0	5.62601984E8	63.07191848754883	0.0	0.0	5.49138432E8	4.81189888E8	0.0	0.06650000065565109	0.05624999850988388	0.04024999961256981	0.9915000200271606	0.6440178155899048	0.0	0.0	0.0	2298.0	2372.0	0.0	0.0	0.0	0.0	null	null	null	null	null	null	null	null	330.0	334.0	333.0	335.0	334.0	334.0	334.0	334.0	333.0	336.0	333.0	
Fri Jun 02 17:28:00 UTC 2017	0.0	1.08269568E9	2552.900390625	0.0	2.6406912E7	0.0	2.0	5.58903296E8	44.022979736328125	1.0	0.0	5.49249024E8	4.81308672E8	0.0	0.0820000022649765	0.04699999839067459	0.048250000923871994	0.9912499785423279	0.6440007090568542	0.0	0.0	0.0	2298.0	2372.0	0.0	0.0	0.0	0.0	null	null	null	null	null	null	null	null	332.0	334.0	334.0	334.0	330.0	336.0	335.0	336.0	334.0	333.0	335.0	
Fri Jun 02 17:27:00 UTC 2017	1.0	1.08269568E9	2308.89990234375	0.0	2.5399296E7	0.0	3.0	5.58903296E8	44.022979736328125	1.0	0.0	5.49363712E8	4.81427456E8	0.0	0.07524999976158142	0.05350000038743019	0.048250000923871994	0.9867500066757202	0.6439997553825378	0.0	0.0	0.0	2298.0	2372.0	0.0	0.0	0.0	0.0	null	null	null	null	null	null	null	null	335.0	336.0	332.0	335.0	334.0	331.0	330.0	334.0	331.0	335.0	333.0	
Fri Jun 02 17:26:00 UTC 2017	1.0	1.08269568E9	3058.707275390625	0.0	2.5399296E7	0.0	3.0	5.58903296E8	44.022979736328125	0.0	0.0	5.4943744E8	4.81542144E8	0.0	0.06800000369548798	0.05000000074505806	0.04450000077486038	0.9900000095367432	0.6439043283462524	0.0	0.0	0.0	2298.0	2372.0	0.0	0.0	0.0	0.0	null	null	null	null	null	null	null	null	334.0	333.0	330.0	330.0	335.0	334.0	335.0	334.0	333.0	333.0	334.0	
Fri Jun 02 17:25:00 UTC 2017	1.0	1.081683968E9	3058.707275390625	0.0	2.5399296E7	0.0	2.0	5.58768128E8	44.022979736328125	0.0	0.0	5.49552128E8	4.81656832E8	0.0	0.07699999958276749	0.0494999997317791	0.04924999922513962	0.9882500171661377	0.6460791230201721	0.0	0.0	0.0	2298.0	2372.0	0.0	0.0	0.0	0.0	null	null	null	null	null	null	null	null	332.0	330.0	330.0	334.0	334.0	329.0	331.0	333.0	333.0	334.0	332.0	
Fri Jun 02 17:24:00 UTC 2017	1.0	1.081679872E9	2417.149658203125	0.0	2.5399296E7	0.0	3.0	5.58678016E8	44.022979736328125	0.0	0.0	5.49670912E8	4.8177152E8	0.0	0.07150000333786011	0.05050000175833702	0.04675000160932541	0.9912499785423279	0.6461823582649231	0.0	0.0	0.0	2298.0	2372.0	0.0	0.0	0.0	0.0	null	null	null	null	null	null	null	null	333.0	332.0	336.0	331.0	333.0	338.0	331.0	332.0	333.0	331.0	337.0	
Fri Jun 02 17:23:00 UTC 2017	2.0	1.082687488E9	2417.149658203125	0.0	2.6406912E7	0.0	2.0	5.58641152E8	44.022979736328125	0.0	0.0	5.497856E8	4.81890304E8	0.0	0.07124999910593033	0.04500000178813934	0.04399999976158142	0.9915000200271606	0.644350528717041	0.0	0.0	0.0	2298.0	2372.0	0.0	0.0	0.0	0.0	null	null	null	null	null	null	null	null	333.0	331.0	334.0	336.0	333.0	334.0	336.0	334.0	333.0	337.0	335.0	
Fri Jun 02 17:22:00 UTC 2017	1.0	1.081675776E9	2417.149658203125	0.0	2.6406912E7	0.0	2.0	5.58641152E8	47.41841125488281	0.0	0.0	5.49904384E8	4.82004992E8	0.0	0.06750000268220901	0.051500000059604645	0.051249999552965164	0.9917500019073486	0.6438514590263367	0.0	0.0	0.0	2298.0	2372.0	0.0	0.0	0.0	0.0	null	null	null	null	null	null	null	null	335.0	338.0	332.0	335.0	335.0	332.0	335.0	333.0	339.0	331.0	333.0	
Fri Jun 02 17:21:00 UTC 2017	1.0	1.082687488E9	2417.149658203125	0.0	2.6406912E7	0.0	3.0	5.58641152E8	47.41841125488281	0.0	0.0	5.50019072E8	4.8211968E8	0.0	0.10324999690055847	0.04699999839067459	0.042500000447034836	0.9919999837875366	0.6438505053520203	0.0	0.0	0.0	2298.0	2372.0	0.0	0.0	0.0	0.0	null	null	null	null	null	null	null	null	333.0	334.0	337.0	332.0	332.0	339.0	334.0	337.0	336.0	339.0	334.0	
Fri Jun 02 17:20:00 UTC 2017	0.0	1.081675776E9	2417.149658203125	0.0	2.6406912E7	0.9120832085609436	5.0	5.58514176E8	35.42326354980469	0.0	0.0	5.5013376E8	4.82234368E8	0.0	0.07800000160932541	0.05050000175833702	0.05000000074505806	0.9917500019073486	0.6438294649124146	0.0	0.0	0.0	2298.0	2372.0	0.0	0.0	0.0	0.0	null	null	null	null	null	null	null	null	333.0	338.0	334.0	338.0	339.0	332.0	336.0	331.0	335.0	330.0	339.0	
Fri Jun 02 17:19:00 UTC 2017	0.0	1.081675776E9	2575.985595703125	0.0	2.6406912E7	0.0	2.0	5.57723648E8	35.42326354980469	0.0	0.0	5.50244352E8	4.82349056E8	0.0	0.07999999821186066	0.05000000074505806	0.04924999922513962	0.9917500019073486	0.6460943222045898	0.0	0.0	0.0	2298.0	2372.0	0.0	0.0	0.0	0.0	null	null	null	null	null	null	null	null	337.0	333.0	333.0	335.0	335.0	339.0	333.0	333.0	338.0	334.0	332.0	
Fri Jun 02 17:18:00 UTC 2017	1.0	1.082687488E9	2575.985595703125	0.0	2.6406912E7	0.0	2.0	5.57723648E8	35.42326354980469	0.0	0.0	5.50334464E8	4.82439168E8	0.0	0.07975000143051147	0.04749999940395355	0.048250000923871994	0.9912499785423279	0.646091878414154	0.0	0.0	0.0	2298.0	2372.0	0.0	0.0	0.0	0.0	null	null	null	null	null	null	null	null	335.0	331.0	333.0	333.0	331.0	333.0	333.0	337.0	331.0	337.0	334.0	
Fri Jun 02 17:17:00 UTC 2017	1.0	1.082687488E9	2564.1044921875	0.0	2.6406912E7	0.0	2.0	5.57723648E8	47.992942810058594	0.0	0.0	5.50424576E8	4.82533376E8	0.0	0.07400000095367432	0.050999999046325684	0.04574999958276749	0.9904999732971191	0.6443216800689697	0.0	0.0	0.0	2298.0	2372.0	0.0	0.0	0.0	0.0	null	null	null	null	null	null	null	null	335.0	336.0	337.0	333.0	335.0	335.0	335.0	335.0	334.0	334.0	333.0	
Fri Jun 02 17:16:00 UTC 2017	1.0	1.081675776E9	2564.1044921875	0.0	2.5399296E7	0.0	3.0	5.57723648E8	33.15908432006836	0.0	0.0	5.50518784E8	4.82623488E8	0.0	0.06875000149011612	0.05274999886751175	0.04349999874830246	0.9915000200271606	0.6437638998031616	0.0	0.0	0.0	2298.0	2372.0	0.0	0.0	0.0	0.0	null	null	null	null	null	null	null	null	330.0	333.0	332.0	334.0	332.0	330.0	335.0	330.0	334.0	332.0	336.0	
Fri Jun 02 17:15:00 UTC 2017	1.0	1.082687488E9	2564.1044921875	0.0	2.5399296E7	1.238464117050171	3.0	5.57604864E8	33.15908432006836	0.0	0.0	5.506048E8	4.827136E8	0.0	0.07850000262260437	0.05000000074505806	0.0507499985396862	0.9915000200271606	0.6459886431694031	0.0	0.0	0.0	2298.0	2372.0	0.0	0.0	0.0	0.0	null	null	null	null	null	null	null	null	334.0	336.0	335.0	335.0	333.0	337.0	337.0	334.0	338.0	335.0	331.0	
Fri Jun 02 17:14:00 UTC 2017	1.0	1.081675776E9	2564.1044921875	0.0	2.6406912E7	1.238464117050171	2.0	5.57514752E8	40.502010345458984	0.0	0.0	5.50694912E8	4.82803712E8	0.0	0.07599999755620956	0.048500001430511475	0.048250000923871994	0.9915000200271606	0.6437501907348633	0.0	0.0	0.0	2298.0	2372.0	0.0	0.0	0.0	0.0	null	null	null	null	null	null	null	null	334.0	334.0	334.0	332.0	334.0	330.0	334.0	336.0	330.0	330.0	334.0	
Fri Jun 02 17:13:00 UTC 2017	1.0	1.082687488E9	2564.1044921875	0.0	2.5399296E7	1.238464117050171	3.0	5.57514752E8	35.258384704589844	0.0	0.0	5.5078912E8	4.8289792E8	0.0	0.07625000178813934	0.048500001430511475	0.045499999076128006	0.9872499704360962	0.6459514498710632	0.0	0.0	0.0	2298.0	2372.0	0.0	0.0	0.0	0.0	null	null	null	null	null	null	null	null	326.0	337.0	337.0	337.0	336.0	326.0	336.0	330.0	333.0	335.0	333.0	
Fri Jun 02 17:12:00 UTC 2017	1.0	1.081675776E9	2564.1044921875	0.0	2.6406912E7	1.238464117050171	2.0	5.57514752E8	54.75337219238281	0.0	0.0	5.50875136E8	4.82988032E8	0.0	0.07000000029802322	0.04924999922513962	0.051500000059604645	0.9872499704360962	0.6460869312286377	0.0	0.0	0.0	2298.0	2372.0	0.0	0.0	0.0	0.0	null	null	null	null	null	null	null	null	337.0	331.0	329.0	330.0	331.0	335.0	331.0	337.0	334.0	329.0	333.0	
Fri Jun 02 17:11:00 UTC 2017	1.0	1.082687488E9	2564.1044921875	0.0	2.6406912E7	0.0	3.0	5.57867008E8	54.75337219238281	0.0	0.0	5.50965248E8	4.83078144E8	0.0	0.10000000149011612	0.04874999821186066	0.04574999958276749	0.9915000200271606	0.6459940075874329	0.0	0.0	0.0	2298.0	2372.0	0.0	0.0	0.0	0.0	null	null	null	null	null	null	null	null	336.0	335.0	338.0	336.0	335.0	334.0	331.0	333.0	339.0	334.0	331.0	
Fri Jun 02 17:10:00 UTC 2017	1.0	1.082683392E9	2920.510986328125	0.0	2.6406912E7	0.0	8.0	5.57654016E8	46.91926193237305	0.0	0.0	5.51059456E8	4.83229696E8	0.0	0.07699999958276749	0.05375000089406967	0.04749999940395355	0.9909999966621399	0.6436880826950073	0.0	0.0	0.0	2298.0	2372.0	0.0	0.0	0.0	0.0	null	null	null	null	null	null	null	null	334.0	333.0	335.0	334.0	331.0	337.0	339.0	329.0	331.0	335.0	335.0	
Fri Jun 02 17:09:00 UTC 2017	0.0	1.08167168E9	2920.510986328125	0.0	2.6406912E7	0.0	2.0	5.56679168E8	45.725223541259766	1.0	1.0	5.5105536E8	4.83319808E8	0.0	0.07199999690055847	0.05249999836087227	0.04924999922513962	0.9890000224113464	0.6436934471130371	0.0	0.0	0.0	2298.0	2372.0	0.0	0.0	0.0	0.0	null	null	null	null	null	null	null	null	329.0	331.0	330.0	331.0	334.0	332.0	330.0	336.0	331.0	331.0	335.0	
Fri Jun 02 17:08:00 UTC 2017	1.0	1.082683392E9	2920.510986328125	0.0	2.5399296E7	0.0	3.0	5.56679168E8	48.79185485839844	0.0	0.0	5.51141376E8	4.8340992E8	0.0	0.06650000065565109	0.04675000160932541	0.04724999889731407	0.9879999756813049	0.6443480849266052	0.0	0.0	0.0	2298.0	2372.0	0.0	0.0	0.0	0.0	null	null	null	null	null	null	null	null	332.0	335.0	335.0	335.0	334.0	332.0	333.0	333.0	334.0	335.0	332.0	
Fri Jun 02 17:07:00 UTC 2017	1.0	1.08167168E9	2920.510986328125	0.0	2.6406912E7	0.0	4.0	5.56679168E8	48.79185485839844	0.0	0.0	5.51231488E8	4.8340992E8	0.0	0.07625000178813934	0.04699999839067459	0.04399999976158142	0.9900000095367432	0.6436508893966675	0.0	0.0	0.0	2298.0	2372.0	0.0	0.0	0.0	0.0	null	null	null	null	null	null	null	null	335.0	331.0	331.0	336.0	334.0	334.0	331.0	333.0	333.0	332.0	330.0	
Fri Jun 02 17:06:00 UTC 2017	1.0	1.082683392E9	2920.510986328125	0.0	2.6406912E7	0.0	5.0	5.56675072E8	48.79185485839844	0.0	0.0	5.51317504E8	4.83495936E8	0.0	0.07400000095367432	0.04924999922513962	0.048500001430511475	0.9902499914169312	0.6459235548973083	0.0	0.0	0.0	2298.0	2372.0	0.0	0.0	0.0	0.0	null	null	null	null	null	null	null	null	338.0	337.0	334.0	334.0	334.0	334.0	336.0	330.0	337.0	332.0	333.0	
Fri Jun 02 17:05:00 UTC 2017	1.0	1.08167168E9	2920.510986328125	0.0	2.5399296E7	0.0	2.0	5.56531712E8	35.977500915527344	0.0	0.0	5.51407616E8	4.83586048E8	0.0	0.07074999809265137	0.05700000002980232	0.05375000089406967	0.9915000200271606	0.6436469554901123	0.0	0.0	0.0	2298.0	2372.0	0.0	0.0	0.0	0.0	null	null	null	null	null	null	null	null	332.0	335.0	337.0	335.0	335.0	335.0	332.0	335.0	332.0	338.0	332.0	
Fri Jun 02 17:04:00 UTC 2017	0.0	1.082683392E9	2920.510986328125	0.0	2.5399296E7	0.0	3.0	5.564416E8	35.977500915527344	0.0	0.0	5.51497728E8	4.8367616E8	0.0	0.07750000059604645	0.04399999976158142	0.04774999991059303	0.9915000200271606	0.6449978351593018	0.0	0.0	0.0	2298.0	2372.0	0.0	0.0	0.0	0.0	null	null	null	null	null	null	null	null	338.0	332.0	332.0	334.0	333.0	335.0	335.0	334.0	335.0	331.0	334.0	
Fri Jun 02 17:03:00 UTC 2017	0.0	1.08167168E9	2920.510986328125	0.0	2.6406912E7	0.0	2.0	5.564416E8	35.977500915527344	0.0	0.0	5.5158784E8	4.83766272E8	0.0	0.06975000351667404	0.05649999901652336	0.04374999925494194	0.9909999966621399	0.6436043977737427	0.0	0.0	0.0	2298.0	2372.0	0.0	0.0	0.0	0.0	null	null	null	null	null	null	null	null	331.0	338.0	336.0	333.0	337.0	330.0	337.0	336.0	333.0	337.0	335.0	
Fri Jun 02 17:02:00 UTC 2017	1.0	1.082683392E9	2920.510986328125	0.0	2.6406912E7	0.0	3.0	5.564416E8	35.977500915527344	0.0	0.0	5.51677952E8	4.83864576E8	0.0	0.07275000214576721	0.04774999991059303	0.04899999871850014	0.9825000166893005	0.6435872912406921	0.0	0.0	0.0	2298.0	2372.0	0.0	0.0	0.0	0.0	null	null	null	null	null	null	null	null	331.0	330.0	328.0	330.0	330.0	330.0	331.0	330.0	332.0	330.0	333.0	
Fri Jun 02 17:01:00 UTC 2017	1.0	1.08167168E9	2920.510986328125	0.0	2.6406912E7	0.0	3.0	5.564416E8	35.977500915527344	0.0	0.0	5.51763968E8	4.83954688E8	0.0	0.09749999642372131	0.04774999991059303	0.048500001430511475	0.9917500019073486	0.6435799598693848	0.0	0.0	0.0	2298.0	2372.0	0.0	0.0	0.0	0.0	null	null	null	null	null	null	null	null	333.0	330.0	332.0	336.0	336.0	337.0	332.0	333.0	334.0	335.0	331.0	
Fri Jun 02 17:00:00 UTC 2017	1.0	1.08167168E9	2892.7919921875	0.0	2.6406912E7	0.0	2.0	5.56306432E8	56.40457534790039	0.0	0.0	5.5185408E8	4.840448E8	0.0	0.07699999958276749	0.04699999839067459	0.05000000074505806	0.9892500042915344	0.6435525417327881	0.0	0.0	0.0	2298.0	2372.0	0.0	0.0	0.0	0.0	null	null	null	null	null	null	null	null	333.0	336.0	337.0	333.0	331.0	335.0	336.0	334.0	334.0	333.0	337.0	
Fri Jun 02 16:59:00 UTC 2017	1.0	1.081667584E9	2854.1962890625	0.0	2.6406912E7	0.0	2.0	5.5621632E8	56.40457534790039	0.0	0.0	5.51944192E8	4.84134912E8	0.0	0.06875000149011612	0.05575000122189522	0.04500000178813934	0.9912499785423279	0.6435486078262329	0.0	0.0	0.0	2298.0	2372.0	0.0	0.0	0.0	0.0	null	null	null	null	null	null	null	null	333.0	331.0	334.0	334.0	335.0	333.0	330.0	329.0	333.0	332.0	331.0	
Fri Jun 02 16:58:00 UTC 2017	1.0	1.082679296E9	2854.1962890625	0.0	2.6406912E7	0.0	3.0	5.5621632E8	56.40457534790039	1.0	0.0	5.52034304E8	4.8422912E8	0.0	0.07199999690055847	0.048250000923871994	0.04774999991059303	0.9912499785423279	0.6435731053352356	0.0	0.0	0.0	2298.0	2372.0	0.0	0.0	0.0	0.0	null	null	null	null	null	null	null	null	332.0	331.0	331.0	333.0	335.0	335.0	335.0	336.0	333.0	333.0	334.0	
Fri Jun 02 16:57:00 UTC 2017	1.0	1.081667584E9	2854.1962890625	0.0	2.6406912E7	0.0	14.0	5.55311104E8	56.40457534790039	0.0	1.0	5.52116224E8	4.84315136E8	0.0	0.07150000333786011	0.05324999988079071	0.04874999821186066	0.9879999756813049	0.6435109376907349	0.0	0.0	0.0	2298.0	2372.0	0.0	0.0	0.0	0.0	null	null	null	null	null	null	null	null	330.0	333.0	333.0	335.0	329.0	331.0	335.0	330.0	337.0	331.0	333.0	
Fri Jun 02 16:56:00 UTC 2017	1.0	1.082679296E9	2854.1962890625	0.0	2.5399296E7	0.0	3.0	5.54057728E8	56.40457534790039	1.0	0.0	5.5220224E8	4.84409344E8	0.0	0.08174999803304672	0.045499999076128006	0.051500000059604645	0.9892500042915344	0.6434933543205261	0.0	0.0	0.0	2298.0	2372.0	0.0	0.0	0.0	0.0	null	null	null	null	null	null	null	null	338.0	335.0	330.0	334.0	337.0	335.0	329.0	332.0	332.0	333.0	330.0	
Fri Jun 02 16:55:00 UTC 2017	1.0	1.081667584E9	2854.1962890625	0.0	2.5399296E7	0.0	2.0	5.5392256E8	56.40457534790039	0.0	0.0	5.52292352E8	4.84499456E8	0.0	0.0625	0.054999999701976776	0.04075000062584877	0.9912499785423279	0.6446005702018738	0.0	0.0	0.0	2298.0	2372.0	0.0	0.0	0.0	0.0	null	null	null	null	null	null	null	null	334.0	335.0	336.0	334.0	335.0	336.0	334.0	333.0	331.0	331.0	334.0	
Fri Jun 02 16:54:00 UTC 2017	0.0	1.082679296E9	2854.1962890625	0.0	2.6406912E7	0.0	3.0	5.53832448E8	56.40457534790039	1.0	1.0	5.52382464E8	4.84589568E8	0.0	0.07824999839067459	0.04475000128149986	0.0494999997317791	0.9907500147819519	0.6434644460678101	0.0	0.0	0.0	2298.0	2372.0	0.0	0.0	0.0	0.0	null	null	null	null	null	null	null	null	333.0	333.0	330.0	334.0	330.0	334.0	333.0	332.0	333.0	334.0	335.0	
Fri Jun 02 16:53:00 UTC 2017	1.0	1.082679296E9	2373.21630859375	0.0	2.6406912E7	0.0	8.0	5.53828352E8	56.40457534790039	0.0	1.0	5.52480768E8	4.84683776E8	0.0	0.07124999910593033	0.050999999046325684	0.052000001072883606	0.9915000200271606	0.6434488296508789	0.0	0.0	0.0	2298.0	2372.0	0.0	0.0	0.0	0.0	null	null	null	null	null	null	null	null	331.0	331.0	334.0	333.0	334.0	332.0	338.0	334.0	334.0	335.0	331.0	
Fri Jun 02 16:52:00 UTC 2017	1.0	1.082679296E9	3421.8974609375	0.0	2.6406912E7	0.0	2.0	5.52009728E8	55.00304412841797	0.0	0.0	5.5257088E8	4.84769792E8	0.0	0.0767500028014183	0.05249999836087227	0.04874999821186066	0.9865000247955322	0.6457317471504211	0.0	0.0	0.0	2298.0	2372.0	0.0	0.0	0.0	0.0	null	null	null	null	null	null	null	null	332.0	332.0	334.0	334.0	335.0	330.0	331.0	338.0	333.0	336.0	333.0	
Fri Jun 02 16:51:00 UTC 2017	1.0	1.082679296E9	2675.615478515625	0.0	2.5399296E7	0.0	3.0	5.52009728E8	55.00304412841797	0.0	0.0	5.5267328E8	4.84859904E8	0.0	0.0989999994635582	0.051249999552965164	0.04475000128149986	0.9869999885559082	0.6434223651885986	0.0	0.0	0.0	2298.0	2372.0	0.0	0.0	0.0	0.0	null	null	null	null	null	null	null	null	333.0	331.0	331.0	329.0	332.0	332.0	332.0	330.0	332.0	332.0	332.0	
Fri Jun 02 16:50:00 UTC 2017	0.0	1.081667584E9	2675.615478515625	0.0	2.5399296E7	0.0	2.0	5.51882752E8	55.00304412841797	0.0	0.0	5.52763392E8	4.84950016E8	0.0	0.06724999845027924	0.045499999076128006	0.04650000110268593	0.9907500147819519	0.6434170007705688	0.0	0.0	0.0	2298.0	2372.0	0.0	0.0	0.0	0.0	null	null	null	null	null	null	null	null	332.0	331.0	334.0	333.0	333.0	332.0	336.0	334.0	333.0	334.0	333.0	
Fri Jun 02 16:49:00 UTC 2017	1.0	1.082679296E9	2675.615478515625	0.0	2.6406912E7	0.0	2.0	5.5179264E8	43.109840393066406	0.0	0.0	5.52853504E8	4.85040128E8	0.0	0.07649999856948853	0.057500001043081284	0.04874999821186066	0.9915000200271606	0.6456921100616455	0.0	0.0	0.0	2298.0	2372.0	0.0	0.0	0.0	0.0	null	null	null	null	null	null	null	null	334.0	335.0	331.0	332.0	336.0	333.0	331.0	336.0	335.0	334.0	334.0	
Fri Jun 02 16:48:00 UTC 2017	1.0	1.081667584E9	2675.615478515625	0.0	2.5399296E7	0.0	2.0	5.5179264E8	45.02268600463867	2.0	0.0	5.52947712E8	4.8513024E8	0.0	0.08174999803304672	0.045249998569488525	0.052000001072883606	0.9909999966621399	0.6442967057228088	0.0	0.0	0.0	2298.0	2372.0	0.0	0.0	0.0	0.0	null	null	null	null	null	null	null	null	336.0	334.0	334.0	334.0	331.0	335.0	337.0	333.0	334.0	333.0	333.0	
Fri Jun 02 16:47:00 UTC 2017	1.0	1.081667584E9	2497.435791015625	0.0	2.6406912E7	0.0	2.0	5.5179264E8	45.02268600463867	1.0	0.0	5.53013248E8	4.85224448E8	0.0	0.06449999660253525	0.0507499985396862	0.04675000160932541	0.9912499785423279	0.6433837413787842	0.0	0.0	0.0	2298.0	2372.0	0.0	0.0	0.0	0.0	null	null	null	null	null	null	null	null	330.0	334.0	334.0	334.0	335.0	333.0	332.0	333.0	334.0	333.0	332.0	
Fri Jun 02 16:46:00 UTC 2017	1.0	1.082679296E9	2497.435791015625	0.0	2.6406912E7	0.0	3.0	5.51788544E8	45.02268600463867	0.0	0.0	5.530624E8	4.85376E8	0.0	0.07850000262260437	0.04800000041723251	0.04774999991059303	0.9915000200271606	0.6433959603309631	0.0	0.0	0.0	2298.0	2372.0	0.0	0.0	0.0	0.0	null	null	null	null	null	null	null	null	336.0	334.0	334.0	337.0	333.0	333.0	333.0	335.0	333.0	335.0	333.0	
Fri Jun 02 16:45:00 UTC 2017	1.0	1.081667584E9	2497.435791015625	0.0	2.5399296E7	0.0	2.0	5.5164928E8	59.997432708740234	0.0	0.0	5.53152512E8	4.85466112E8	0.0	0.06849999725818634	0.057750001549720764	0.04574999958276749	0.9917500019073486	0.643371045589447	0.0	0.0	0.0	2298.0	2372.0	0.0	0.0	0.0	0.0	null	null	null	null	null	null	null	null	334.0	336.0	331.0	331.0	333.0	338.0	335.0	333.0	334.0	334.0	334.0	
Fri Jun 02 16:44:00 UTC 2017	1.0	1.082679296E9	2497.435791015625	0.0	2.5399296E7	0.0	2.0	5.51559168E8	44.03705596923828	2.0	1.0	5.53238528E8	4.85556224E8	0.0	0.07325000315904617	0.04774999991059303	0.04975000023841858	0.9912499785423279	0.6455859541893005	0.0	0.0	0.0	2298.0	2372.0	0.0	0.0	0.0	0.0	null	null	null	null	null	null	null	null	334.0	333.0	335.0	331.0	329.0	332.0	334.0	337.0	333.0	331.0	333.0	
Fri Jun 02 16:43:00 UTC 2017	1.0	1.082679296E9	2804.27099609375	0.0	2.6406912E7	0.0	4.0	5.51559168E8	44.03705596923828	1.0	1.0	5.53324544E8	4.85646336E8	0.0	0.07975000143051147	0.05324999988079071	0.045249998569488525	0.9915000200271606	0.6433759331703186	0.0	0.0	0.0	2298.0	2372.0	0.0	0.0	0.0	0.0	null	null	null	null	null	null	null	null	331.0	336.0	334.0	335.0	335.0	335.0	335.0	330.0	332.0	335.0	333.0	
Fri Jun 02 16:42:00 UTC 2017	1.0	1.082679296E9	2590.2802734375	0.0	2.5399296E7	0.0	3.0	5.51559168E8	45.19928741455078	1.0	1.0	5.5341056E8	4.85736448E8	0.0	0.07450000196695328	0.05000000074505806	0.04724999889731407	0.9909999966621399	0.6433734893798828	0.0	0.0	0.0	2298.0	2372.0	0.0	0.0	0.0	0.0	null	null	null	null	null	null	null	null	334.0	328.0	332.0	333.0	330.0	333.0	330.0	332.0	334.0	331.0	331.0	
Fri Jun 02 16:41:00 UTC 2017	2.0	1.082658816E9	2427.38427734375	0.0	2.6406912E7	0.0	6.0	5.51559168E8	37.81855773925781	2.0	3.0	5.53500672E8	4.8582656E8	0.0	0.09425000101327896	0.05299999937415123	0.04975000023841858	0.9912499785423279	0.6433656215667725	0.0	0.0	0.0	2298.0	2372.0	0.0	0.0	0.0	0.0	null	null	null	null	null	null	null	null	335.0	336.0	329.0	335.0	336.0	331.0	337.0	333.0	337.0	331.0	335.0	
Fri Jun 02 16:40:00 UTC 2017	1.0	1.082658816E9	3188.680419921875	0.0	2.5399296E7	0.0	3.0	5.49527552E8	5356.42431640625	1.0	2.0	5.5359488E8	4.85896192E8	0.0	0.07150000333786011	0.05649999901652336	0.0507499985396862	0.9915000200271606	0.6433475613594055	0.0	0.0	0.0	2298.0	2372.0	0.0	0.0	0.0	0.0	null	null	null	null	null	null	null	null	332.0	332.0	336.0	335.0	333.0	337.0	333.0	336.0	329.0	336.0	336.0	
Fri Jun 02 16:39:00 UTC 2017	1.0	1.082658816E9	8630673.0	7.0	2.5399296E7	142196.75	14.0	5.4943744E8	5356.42431640625	32.0	14.0	5.53680896E8	4.86047744E8	673256.875	0.0820000022649765	0.0625	0.06575000286102295	0.9810000061988831	0.6433475613594055	0.0	0.0	0.0	2298.0	2372.0	0.0	0.0	0.0	0.0	null	null	null	null	null	null	null	null	321.0	319.0	321.0	311.0	315.0	318.0	320.0	321.0	324.0	317.0	316.0	
Fri Jun 02 16:38:00 UTC 2017	69.0	1.08177408E9	8630673.0	32.0	3.0957568E7	142196.75	84.0	5.49462016E8	19600.501953125	102.0	109.0	5.46029568E8	4.83897344E8	1392398.0	0.06949999928474426	0.15800000727176666	0.15974999964237213	0.9567499756813049	0.6434311866760254	0.0	0.0	0.0	2298.0	2372.0	0.0	0.0	0.0	0.0	null	null	null	null	null	null	null	null	282.0	280.0	277.0	276.0	279.0	278.0	275.0	277.0	279.0	279.0	276.0	
Fri Jun 02 16:37:00 UTC 2017	396.0	1.08300288E9	8499971.0	31.0	3.0896128E7	139405.125	85.0	5.46660352E8	19600.501953125	88.0	128.0	5.37550848E8	4.71392256E8	1392398.0	0.07649999856948853	0.14800000190734863	0.15449999272823334	0.9572499990463257	0.6432227492332458	600.0	0.0	0.0	2298.0	2372.0	0.0	0.0	0.0	0.0	null	null	null	null	null	null	null	null	277.0	279.0	282.0	281.0	280.0	276.0	279.0	279.0	279.0	279.0	281.0	
Fri Jun 02 16:36:00 UTC 2017	385.0	1.082273792E9	8659945.0	31.0	3.1002624E7	152149.40625	93.0	5.44735232E8	22270.365234375	135.0	107.0	5.27753216E8	4.59886592E8	2092179.375	0.06475000083446503	0.15974999964237213	0.16200000047683716	0.9549999833106995	0.6429536938667297	600.0	0.0	0.0	2298.0	2372.0	0.0	0.0	0.0	0.0	null	null	null	null	null	null	null	null	279.0	280.0	276.0	279.0	279.0	279.0	278.0	280.0	278.0	278.0	277.0	
Fri Jun 02 16:35:00 UTC 2017	389.0	1.081737216E9	9013533.0	33.0	2.998272E7	152149.40625	95.0	5.41585408E8	24084.548828125	143.0	116.0	5.17644288E8	4.47561728E8	1806889.25	0.06925000250339508	0.1497499942779541	0.16249999403953552	0.9547500014305115	0.6427315473556519	600.0	0.0	0.0	2298.0	2372.0	0.0	0.0	0.0	0.0	null	null	null	null	null	null	null	null	277.0	281.0	279.0	278.0	275.0	274.0	276.0	277.0	278.0	277.0	279.0	
Fri Jun 02 16:34:00 UTC 2017	411.0	1.081331712E9	8836692.0	32.0	3.0789632E7	142815.5	97.0	5.395456E8	24084.548828125	125.0	131.0	5.00846592E8	4.3300864E8	1675658.375	0.07374999672174454	0.15424999594688416	0.15725000202655792	0.9542499780654907	0.642597496509552	500.0	0.0	0.0	2298.0	2372.0	0.0	0.0	0.0	0.0	null	null	null	null	null	null	null	null	279.0	282.0	278.0	280.0	279.0	277.0	275.0	283.0	280.0	276.0	276.0	
Fri Jun 02 16:33:00 UTC 2017	394.0	1.08142592E9	8755269.0	32.0	3.1797248E7	142815.5	99.0	5.37493504E8	24084.548828125	119.0	133.0	4.88972288E8	4.18906112E8	1675658.375	0.08150000125169754	0.1574999988079071	0.1655000001192093	0.9555000066757202	0.6424345374107361	500.0	0.0	0.0	2298.0	2372.0	0.0	0.0	0.0	0.0	null	null	null	null	null	null	null	null	280.0	280.0	276.0	283.0	279.0	279.0	281.0	279.0	278.0	281.0	279.0	
Fri Jun 02 16:32:00 UTC 2017	395.0	1.081249792E9	9209342.0	32.0	3.0089216E7	142815.5	94.0	5.34761472E8	22492.84375	118.0	120.0	4.7618048E8	4.1285632E8	1862540.25	0.06300000101327896	0.13975000381469727	0.14749999344348907	0.956250011920929	0.6447556614875793	500.0	0.0	0.0	2298.0	2372.0	0.0	0.0	0.0	0.0	null	null	null	null	null	null	null	null	278.0	280.0	282.0	278.0	277.0	280.0	277.0	278.0	280.0	279.0	278.0	
Fri Jun 02 16:31:00 UTC 2017	400.0	1.082544128E9	9209342.0	32.0	3.0089216E7	156233.59375	97.0	5.32688896E8	22635.658203125	124.0	123.0	4.63466496E8	4.1007104E8	1734455.0	0.09700000286102295	0.1407500058412552	0.1547500044107437	0.9542499780654907	0.6442487835884094	400.0	0.0	0.0	2298.0	2372.0	0.0	0.0	0.0	0.0	null	null	null	null	null	null	null	null	278.0	279.0	276.0	279.0	279.0	278.0	278.0	279.0	279.0	275.0	278.0	
Fri Jun 02 16:30:00 UTC 2017	400.0	1.080803328E9	9209342.0	33.0	3.0408704E7	156233.59375	98.0	5.30604032E8	22635.658203125	131.0	127.0	4.4910592E8	4.02857984E8	1807320.875	0.07850000262260437	0.1432500034570694	0.15600000321865082	0.9547500014305115	0.6416757106781006	400.0	0.0	0.0	2298.0	2372.0	0.0	0.0	0.0	0.0	null	null	null	null	null	null	null	null	276.0	278.0	277.0	276.0	277.0	276.0	274.0	277.0	279.0	279.0	277.0	
Fri Jun 02 16:29:00 UTC 2017	402.0	1.080446976E9	9003080.0	32.0	3.0851072E7	156233.59375	94.0	5.28580608E8	22635.658203125	134.0	119.0	4.2684416E8	3.9477248E8	1760677.125	0.06400000303983688	0.14174999296665192	0.14249999821186066	0.9545000195503235	0.641529381275177	400.0	0.0	0.0	2298.0	2372.0	0.0	0.0	0.0	0.0	null	null	null	null	null	null	null	null	277.0	276.0	278.0	277.0	275.0	277.0	279.0	275.0	276.0	278.0	275.0	
Fri Jun 02 16:28:00 UTC 2017	405.0	1.080152064E9	8987412.0	32.0	3.1117312E7	156233.59375	94.0	5.26594048E8	22635.658203125	126.0	117.0	4.135936E8	3.93506816E8	1780827.0	0.07724999636411667	0.13175000250339508	0.15074999630451202	0.9542499780654907	0.6412920951843262	350.0	0.0	0.0	2298.0	2372.0	0.0	0.0	0.0	0.0	null	null	null	null	null	null	null	null	274.0	275.0	275.0	277.0	276.0	277.0	278.0	279.0	276.0	276.0	276.0	
Fri Jun 02 16:27:00 UTC 2017	400.0	1.080516608E9	8864537.0	31.0	3.0978048E7	137887.28125	93.0	5.24517376E8	22635.658203125	127.0	110.0	4.12925952E8	3.92167424E8	1775169.25	0.07800000160932541	0.1367499977350235	0.1445000022649765	0.9557499885559082	0.642168402671814	350.0	0.0	0.0	2298.0	2372.0	0.0	0.0	0.0	0.0	null	null	null	null	null	null	null	null	279.0	281.0	280.0	279.0	279.0	277.0	277.0	279.0	279.0	280.0	282.0	
Fri Jun 02 16:26:00 UTC 2017	396.0	1.080246272E9	8735020.0	32.0	3.0932992E7	152793.046875	93.0	5.2168704E8	21444.580078125	122.0	107.0	4.07732224E8	3.8897664E8	1775169.25	0.06424999982118607	0.1262499988079071	0.1420000046491623	0.9559999704360962	0.6407822966575623	350.0	0.0	0.0	2298.0	2372.0	0.0	0.0	0.0	0.0	null	null	null	null	null	null	null	null	275.0	274.0	276.0	277.0	281.0	280.0	280.0	280.0	278.0	279.0	278.0	
Fri Jun 02 16:25:00 UTC 2017	399.0	1.08070912E9	8735020.0	32.0	3.1031296E7	140971.828125	93.0	5.19593984E8	22086.681640625	123.0	110.0	4.05733376E8	3.821568E8	1847463.875	0.07050000131130219	0.12325000017881393	0.14100000262260437	0.9557499885559082	0.6404803991317749	300.0	0.0	0.0	2298.0	2372.0	0.0	0.0	0.0	0.0	null	null	null	null	null	null	null	null	280.0	281.0	277.0	279.0	277.0	277.0	281.0	279.0	280.0	277.0	278.0	
Fri Jun 02 16:24:00 UTC 2017	400.0	1.080414208E9	8735020.0	31.0	3.0785536E7	140971.828125	93.0	5.17455872E8	22086.681640625	123.0	106.0	4.03034112E8	3.78855424E8	1645095.625	0.0754999965429306	0.11649999767541885	0.13824999332427979	0.956250011920929	0.642544150352478	300.0	0.0	0.0	2298.0	2372.0	0.0	0.0	0.0	0.0	null	null	null	null	null	null	null	null	278.0	276.0	280.0	277.0	280.0	281.0	280.0	281.0	278.0	283.0	278.0	
Fri Jun 02 16:23:00 UTC 2017	384.0	1.079857152E9	8735020.0	32.0	3.0994432E7	140971.828125	93.0	5.1539968E8	22086.681640625	115.0	101.0	3.94235904E8	3.7423104E8	1645095.625	0.07850000262260437	0.11675000190734863	0.13699999451637268	0.9559999704360962	0.6398996114730835	300.0	0.0	0.0	2298.0	2372.0	0.0	0.0	0.0	0.0	null	null	null	null	null	null	null	null	278.0	281.0	278.0	283.0	283.0	279.0	280.0	277.0	280.0	280.0	280.0	
Fri Jun 02 16:22:00 UTC 2017	397.0	1.078304768E9	8735020.0	32.0	2.9229056E7	140971.828125	101.0	5.1349504E8	22086.681640625	118.0	102.0	3.94944512E8	3.74034432E8	1645095.625	0.06575000286102295	0.11749999970197678	0.13975000381469727	0.9570000171661377	0.6394974589347839	250.0	0.0	0.0	2298.0	2372.0	0.0	0.0	0.0	0.0	null	null	null	null	null	null	null	null	278.0	280.0	279.0	277.0	278.0	280.0	280.0	283.0	280.0	280.0	277.0	
Fri Jun 02 16:21:00 UTC 2017	392.0	1.078259712E9	8191240.5	29.0	2.99008E7	119474.0546875	94.0	5.10394368E8	21710.322265625	114.0	95.0	3.89701632E8	3.76406016E8	1645095.625	0.09974999725818634	0.1067499965429306	0.13699999451637268	0.9577500224113464	0.6410303711891174	250.0	0.0	0.0	2298.0	2372.0	0.0	0.0	0.0	0.0	null	null	null	null	null	null	null	null	282.0	277.0	282.0	281.0	281.0	281.0	283.0	280.0	280.0	285.0	284.0	
Fri Jun 02 16:20:00 UTC 2017	374.0	1.077743616E9	7676155.0	28.0	3.1023104E7	119474.0546875	80.0	5.05622528E8	19663.93359375	100.0	89.0	3.84626688E8	3.67149056E8	1645095.625	0.07724999636411667	0.10949999839067459	0.12200000137090683	0.9582499861717224	0.6385712623596191	250.0	0.0	0.0	2298.0	2372.0	0.0	0.0	0.0	0.0	null	null	null	null	null	null	null	null	283.0	279.0	278.0	280.0	281.0	282.0	277.0	280.0	279.0	279.0	281.0	
Fri Jun 02 16:19:00 UTC 2017	378.0	1.079185408E9	7676155.0	28.0	2.9118464E7	119474.0546875	83.0	5.05413632E8	19663.93359375	102.0	82.0	3.84811008E8	3.67501312E8	1645095.625	0.07575000077486038	0.09799999743700027	0.12549999356269836	0.9599999785423279	0.6384059190750122	200.0	0.0	0.0	2298.0	2372.0	0.0	0.0	0.0	0.0	null	null	null	null	null	null	null	null	281.0	282.0	284.0	280.0	281.0	283.0	283.0	283.0	282.0	282.0	279.0	
Fri Jun 02 16:18:00 UTC 2017	362.0	1.07790336E9	6286555.0	25.0	2.9028352E7	119557.40625	87.0	5.03025664E8	19663.93359375	104.0	85.0	3.82623744E8	3.6524032E8	1425160.625	0.07524999976158142	0.10300000011920929	0.12725000083446503	0.9607499837875366	0.638796329498291	200.0	0.0	0.0	2298.0	2372.0	0.0	0.0	0.0	0.0	null	null	null	null	null	null	null	null	286.0	286.0	285.0	288.0	286.0	286.0	286.0	287.0	285.0	286.0	286.0	
Fri Jun 02 16:17:00 UTC 2017	337.0	1.076645888E9	6286555.0	22.0	2.8962816E7	60683.3359375	75.0	4.99499008E8	11317.10546875	86.0	62.0	3.791872E8	3.6149248E8	1425160.625	0.07225000113248825	0.08874999731779099	0.11574999988079071	0.9639999866485596	0.6378647685050964	200.0	0.0	0.0	2298.0	2372.0	0.0	0.0	0.0	0.0	null	null	null	null	null	null	null	null	290.0	291.0	287.0	289.0	290.0	288.0	289.0	290.0	291.0	289.0	287.0	
Fri Jun 02 16:16:00 UTC 2017	321.0	1.073340416E9	4686977.5	21.0	2.9888512E7	60683.3359375	87.0	4.9666048E8	11317.10546875	86.0	60.0	3.78851328E8	3.61578496E8	1061228.875	0.06449999660253525	0.0949999988079071	0.11599999666213989	0.9660000205039978	0.6388007402420044	150.0	0.0	0.0	2298.0	2372.0	0.0	0.0	0.0	0.0	null	null	null	null	null	null	null	null	292.0	292.0	296.0	295.0	292.0	292.0	294.0	297.0	295.0	293.0	292.0	
Fri Jun 02 16:15:00 UTC 2017	289.0	1.034817536E9	4686977.5	17.0	2.7353088E7	60683.3359375	74.0	4.9303552E8	11317.10546875	74.0	62.0	3.82943232E8	3.64736512E8	1061228.875	0.07599999755620956	0.08550000190734863	0.1042499989271164	0.968999981880188	0.6329891681671143	150.0	0.0	0.0	2298.0	2372.0	0.0	0.0	0.0	0.0	null	null	null	null	null	null	null	null	298.0	299.0	299.0	299.0	299.0	301.0	299.0	295.0	298.0	300.0	299.0	
Fri Jun 02 16:14:00 UTC 2017	252.0	8.9921536E8	2183926.75	16.0	2.7684864E7	60683.3359375	59.0	4.89869312E8	11317.10546875	66.0	48.0	4.16448512E8	3.8854656E8	822706.875	0.06925000250339508	0.0754999965429306	0.0989999994635582	0.972000002861023	0.6204100251197815	150.0	0.0	0.0	2298.0	2372.0	0.0	0.0	0.0	0.0	null	null	null	null	null	null	null	null	297.0	303.0	295.0	300.0	295.0	295.0	303.0	306.0	303.0	299.0	295.0	
Fri Jun 02 16:13:00 UTC 2017	257.0	6.82262528E8	2183926.75	15.0	2.6677248E7	60683.3359375	62.0	4.89713664E8	11317.10546875	58.0	51.0	4.74963968E8	4.37420032E8	768949.75	0.07450000196695328	0.08250000327825546	0.09525000303983688	0.9727500081062317	0.5895169973373413	100.0	0.0	0.0	2298.0	2372.0	0.0	0.0	0.0	0.0	null	null	null	null	null	null	null	null	302.0	297.0	300.0	299.0	301.0	303.0	298.0	298.0	298.0	296.0	300.0	
Fri Jun 02 16:12:00 UTC 2017	259.0	6.23140864E8	2183926.75	11.0	2.6570752E7	45040.0078125	62.0	4.84397056E8	11139.134765625	53.0	53.0	5.7438208E8	5.1853312E8	465928.09375	0.07874999940395355	0.07750000059604645	0.09624999761581421	0.9742500185966492	0.5817620158195496	100.0	0.0	0.0	2298.0	2372.0	0.0	0.0	0.0	0.0	null	null	null	null	null	null	null	null	303.0	303.0	306.0	303.0	305.0	300.0	304.0	306.0	302.0	309.0	306.0	
Fri Jun 02 16:11:00 UTC 2017	201.0	5.61717248E8	2183926.75	7.0	2.5874432E7	27092.306640625	40.0	4.84143104E8	5888.7587890625	32.0	36.0	6.26798592E8	5.66603776E8	465928.09375	0.09049999713897705	0.0754999965429306	0.07649999856948853	0.9764999747276306	0.5747649669647217	100.0	0.0	0.0	2298.0	2372.0	0.0	0.0	0.0	0.0	null	null	null	null	null	null	null	null	315.0	314.0	313.0	318.0	314.0	315.0	307.0	311.0	312.0	310.0	310.0	
Fri Jun 02 16:10:00 UTC 2017	153.0	5.33561344E8	442527.1875	6.0	2.5874432E7	20896.73828125	37.0	4.7673344E8	5888.7587890625	36.0	29.0	6.19573248E8	5.92605184E8	146662.984375	0.08049999922513962	0.06400000303983688	0.07150000333786011	0.9762499928474426	0.5729331374168396	50.0	0.0	0.0	2298.0	2372.0	0.0	0.0	0.0	0.0	null	null	null	null	null	null	null	null	311.0	312.0	313.0	314.0	311.0	314.0	316.0	317.0	318.0	316.0	312.0	
Fri Jun 02 16:09:00 UTC 2017	138.0	4.90606592E8	442527.1875	5.0	2.5993216E7	10698.0546875	29.0	4.75869184E8	2417.488525390625	34.0	27.0	6.15092224E8	5.96742144E8	146662.984375	0.06424999982118607	0.07400000095367432	0.07124999910593033	0.9829999804496765	0.5658010244369507	50.0	0.0	0.0	2298.0	2372.0	0.0	0.0	0.0	0.0	null	null	null	null	null	null	null	null	322.0	319.0	319.0	319.0	320.0	320.0	319.0	319.0	321.0	319.0	322.0	
Fri Jun 02 16:08:00 UTC 2017	93.0	4.2033152E8	442527.1875	3.0	2.6112E7	10698.0546875	15.0	4.74996736E8	2417.488525390625	16.0	15.0	6.20015616E8	5.78445312E8	146662.984375	0.07774999737739563	0.057999998331069946	0.05849999934434891	0.9857500195503235	0.5565372109413147	50.0	0.0	0.0	2298.0	2372.0	0.0	0.0	0.0	0.0	null	null	null	null	null	null	null	null	328.0	324.0	323.0	328.0	324.0	325.0	324.0	330.0	324.0	327.0	326.0	
Fri Jun 02 16:07:00 UTC 2017	66.0	4.2113024E8	442527.1875	2.0	2.6112E7	10642.7392578125	21.0	4.7497216E8	2417.488525390625	13.0	21.0	6.23149056E8	5.7837568E8	148290.046875	0.07050000131130219	0.060499999672174454	0.061250001192092896	0.9872499704360962	0.5562049746513367	20.0	0.0	0.0	2298.0	2372.0	0.0	0.0	0.0	0.0	null	null	null	null	null	null	null	null	325.0	326.0	325.0	321.0	330.0	326.0	323.0	322.0	325.0	323.0	324.0	
Fri Jun 02 16:06:00 UTC 2017	66.0	4.155392E8	442527.1875	2.0	2.6112E7	5914.626953125	16.0	4.74128384E8	2261.479248046875	11.0	17.0	6.23243264E8	5.89381632E8	102824.0390625	0.06975000351667404	0.05375000089406967	0.06024999916553497	0.987500011920929	0.5556080937385559	20.0	0.0	0.0	2298.0	2372.0	0.0	0.0	0.0	0.0	null	null	null	null	null	null	null	null	322.0	326.0	326.0	325.0	326.0	326.0	329.0	328.0	326.0	327.0	324.0	
Fri Jun 02 16:05:00 UTC 2017	53.0	4.19651584E8	442527.1875	1.0	2.5104384E7	5914.626953125	10.0	4.73899008E8	641.4430541992188	5.0	9.0	6.163456E8	5.89430784E8	61201.44140625	0.07325000315904617	0.05525000020861626	0.04874999821186066	0.9862499833106995	0.5579257607460022	20.0	0.0	0.0	2298.0	2372.0	0.0	0.0	0.0	0.0	null	null	null	null	null	null	null	null	328.0	327.0	325.0	329.0	326.0	328.0	325.0	325.0	324.0	326.0	326.0	
Fri Jun 02 16:04:00 UTC 2017	42.0	4.17947648E8	199495.734375	1.0	2.5104384E7	2064.798095703125	14.0	4.73780224E8	641.4430541992188	7.0	11.0	6.16452096E8	5.8947584E8	61201.44140625	0.08124999701976776	0.05624999850988388	0.057500001043081284	0.9894999861717224	0.554959774017334	10.0	0.0	0.0	2298.0	2372.0	0.0	0.0	0.0	0.0	null	null	null	null	null	null	null	null	328.0	329.0	330.0	329.0	334.0	329.0	329.0	331.0	330.0	326.0	329.0	
Fri Jun 02 16:03:00 UTC 2017	33.0	4.45407232E8	199495.734375	1.0	2.6112E7	2064.798095703125	9.0	4.73260032E8	641.4430541992188	5.0	8.0	6.1650944E8	5.89492224E8	46435.99609375	0.06724999845027924	0.04749999940395355	0.05000000074505806	0.9890000224113464	0.5608001947402954	10.0	0.0	0.0	2298.0	2372.0	0.0	0.0	0.0	0.0	null	null	null	null	null	null	null	null	330.0	334.0	333.0	329.0	328.0	329.0	329.0	331.0	328.0	334.0	330.0	
Fri Jun 02 16:02:00 UTC 2017	26.0	4.84610048E8	199495.734375	0.0	2.5104384E7	2064.798095703125	6.0	4.7126528E8	641.4430541992188	3.0	6.0	6.16566784E8	5.8988544E8	46435.99609375	0.07850000262260437	0.04975000023841858	0.054249998182058334	0.9857500195503235	0.5629177689552307	10.0	0.0	0.0	2298.0	2372.0	0.0	0.0	0.0	0.0	null	null	null	null	null	null	null	null	332.0	325.0	328.0	328.0	329.0	330.0	329.0	329.0	331.0	327.0	330.0	
Fri Jun 02 16:01:00 UTC 2017	20.0	5.09116416E8	199495.734375	0.0	2.6112E7	2064.798095703125	7.0	4.71343104E8	641.4430541992188	6.0	7.0	6.16660992E8	5.86436608E8	46435.99609375	0.10199999809265137	0.05874999985098839	0.051249999552965164	0.9904999732971191	0.56660395860672	5.0	0.0	0.0	2298.0	2372.0	0.0	0.0	0.0	0.0	null	null	null	null	null	null	null	null	329.0	331.0	331.0	333.0	331.0	329.0	330.0	330.0	332.0	335.0	333.0	
Fri Jun 02 16:00:00 UTC 2017	18.0	5.39254784E8	142294.359375	0.0	2.5104384E7	2064.798095703125	6.0	4.7112192E8	302.55633544921875	4.0	4.0	6.0420096E8	5.86645504E8	35546.84765625	0.07124999910593033	0.05324999988079071	0.05025000125169754	0.9865000247955322	0.5693820118904114	5.0	0.0	0.0	2298.0	2372.0	0.0	0.0	0.0	0.0	null	null	null	null	null	null	null	null	337.0	335.0	333.0	329.0	332.0	334.0	334.0	336.0	331.0	332.0	333.0	
Fri Jun 02 15:59:00 UTC 2017	14.0	5.67005184E8	142294.359375	0.0	2.5104384E7	1906.81591796875	5.0	4.71027712E8	302.55633544921875	4.0	3.0	6.04233728E8	5.8650624E8	35546.84765625	0.06975000351667404	0.05249999836087227	0.05025000125169754	0.9854999780654907	0.572493314743042	5.0	0.0	0.0	2298.0	2372.0	0.0	0.0	0.0	0.0	null	null	null	null	null	null	null	null	329.0	325.0	329.0	329.0	329.0	325.0	328.0	326.0	330.0	329.0	335.0	
Fri Jun 02 15:58:00 UTC 2017	12.0	5.86981376E8	29346.1796875	0.0	2.5104384E7	789.5416870117188	5.0	4.71027712E8	302.55633544921875	4.0	3.0	6.0432384E8	5.87067392E8	25583.544921875	0.0677499994635582	0.052000001072883606	0.0494999997317791	0.9902499914169312	0.5771609544754028	3.0	0.0	0.0	2298.0	2372.0	0.0	0.0	0.0	0.0	null	null	null	null	null	null	null	null	330.0	333.0	329.0	339.0	330.0	330.0	331.0	332.0	330.0	335.0	327.0	
Fri Jun 02 15:57:00 UTC 2017	12.0	6.06961664E8	29346.1796875	0.0	2.6112E7	789.5416870117188	4.0	4.71023616E8	302.55633544921875	4.0	5.0	6.04401664E8	5.87030528E8	25583.544921875	0.07524999976158142	0.04899999871850014	0.051750000566244125	0.987500011920929	0.5773414969444275	3.0	0.0	0.0	2298.0	2372.0	0.0	0.0	0.0	0.0	null	null	null	null	null	null	null	null	330.0	334.0	332.0	331.0	330.0	333.0	329.0	329.0	333.0	331.0	331.0	
Fri Jun 02 15:56:00 UTC 2017	6.0	6.17312256E8	211041.84375	0.0	2.6112E7	2496.73486328125	7.0	4.71113728E8	677.0419921875	2.0	3.0	6.04483584E8	5.8673152E8	25583.544921875	0.0729999989271164	0.05575000122189522	0.07249999791383743	0.9904999732971191	0.5785524249076843	3.0	0.0	0.0	2298.0	2372.0	0.0	0.0	0.0	0.0	null	null	null	null	null	null	null	null	329.0	331.0	331.0	331.0	336.0	328.0	332.0	333.0	336.0	335.0	333.0	
Fri Jun 02 15:55:00 UTC 2017	16.0	6.4094208E8	211041.84375	0.0	2.5104384E7	2496.73486328125	7.0	4.70196224E8	677.0419921875	6.0	6.0	6.045696E8	5.86817536E8	25583.544921875	0.07874999940395355	0.05274999886751175	0.054999999701976776	0.9884999990463257	0.5798299312591553	5.0	0.0	0.0	2298.0	2372.0	0.0	0.0	0.0	0.0	null	null	null	null	null	null	null	null	332.0	333.0	331.0	332.0	330.0	333.0	330.0	328.0	329.0	329.0	334.0	
Fri Jun 02 15:54:00 UTC 2017	19.0	6.73984512E8	194481.0625	0.0	2.6112E7	2496.73486328125	6.0	4.7007744E8	654.1528930664062	5.0	7.0	6.04598272E8	5.8689536E8	25583.544921875	0.07074999809265137	0.05299999937415123	0.05350000038743019	0.9902499914169312	0.5837367177009583	5.0	0.0	0.0	2298.0	2372.0	0.0	0.0	0.0	0.0	null	null	null	null	null	null	null	null	333.0	331.0	331.0	332.0	327.0	337.0	335.0	331.0	331.0	329.0	329.0	
Fri Jun 02 15:53:00 UTC 2017	18.0	6.85580288E8	208457.609375	0.0	2.5104384E7	2496.73486328125	6.0	4.7013888E8	654.1528930664062	5.0	4.0	6.04684288E8	5.77470464E8	34059.21875	0.08924999833106995	0.054749999195337296	0.045249998569488525	0.9897500276565552	0.5885398983955383	5.0	0.0	0.0	2298.0	2372.0	0.0	0.0	0.0	0.0	null	null	null	null	null	null	null	null	331.0	330.0	334.0	327.0	332.0	329.0	329.0	333.0	329.0	330.0	331.0	
Fri Jun 02 15:52:00 UTC 2017	20.0	7.13551872E8	162725.15625	0.0	2.6112E7	2496.73486328125	7.0	4.70122496E8	654.1528930664062	4.0	4.0	6.04725248E8	5.77540096E8	26389.69140625	0.07774999737739563	0.054749999195337296	0.05025000125169754	0.9857500195503235	0.5891475677490234	5.0	0.0	0.0	2298.0	2372.0	0.0	0.0	0.0	0.0	null	null	null	null	null	null	null	null	333.0	331.0	328.0	332.0	334.0	331.0	328.0	328.0	335.0	330.0	330.0	
Fri Jun 02 15:51:00 UTC 2017	16.0	7.20093184E8	162725.15625	0.0	2.6103808E7	2843.91357421875	8.0	4.70085632E8	683.9434814453125	6.0	6.0	6.04811264E8	5.77622016E8	30802.40625	0.1042499989271164	0.05249999836087227	0.0507499985396862	0.9900000095367432	0.5928171277046204	5.0	0.0	0.0	2298.0	2372.0	0.0	0.0	0.0	0.0	null	null	null	null	null	null	null	null	327.0	334.0	330.0	331.0	329.0	329.0	330.0	330.0	330.0	328.0	334.0	
Fri Jun 02 15:50:00 UTC 2017	17.0	7.22788352E8	208189.3125	0.0	2.5096192E7	2843.91357421875	6.0	4.69889024E8	683.9434814453125	4.0	9.0	5.84564736E8	5.77646592E8	30802.40625	0.07625000178813934	0.052000001072883606	0.05350000038743019	0.9887499809265137	0.590818464756012	5.0	0.0	0.0	2298.0	2372.0	0.0	0.0	0.0	0.0	null	null	null	null	null	null	null	null	335.0	323.0	334.0	332.0	333.0	331.0	331.0	330.0	330.0	333.0	328.0	
Fri Jun 02 15:49:00 UTC 2017	23.0	7.0363136E8	197371.46875	0.0	2.6103808E7	2843.91357421875	6.0	4.69786624E8	683.9434814453125	3.0	5.0	5.84704E8	5.77642496E8	18953.119140625	0.08250000327825546	0.04724999889731407	0.04724999889731407	0.9804999828338623	0.5884718894958496	5.0	0.0	0.0	2298.0	2372.0	0.0	0.0	0.0	0.0	null	null	null	null	null	null	null	null	330.0	330.0	323.0	330.0	330.0	332.0	330.0	329.0	328.0	328.0	330.0	
Fri Jun 02 15:48:00 UTC 2017	17.0	7.1671808E8	212078.609375	0.0	2.6103808E7	2469.58984375	6.0	4.69778432E8	636.8312377929688	8.0	6.0	5.88836864E8	5.77724416E8	24623.318359375	0.07199999690055847	0.05324999988079071	0.050999999046325684	0.9904999732971191	0.5923009514808655	5.0	0.0	0.0	2298.0	2372.0	0.0	0.0	0.0	0.0	null	null	null	null	null	null	null	null	328.0	329.0	330.0	331.0	327.0	330.0	330.0	332.0	335.0	336.0	330.0	
Fri Jun 02 15:47:00 UTC 2017	19.0	7.45652224E8	186052.671875	0.0	2.6103808E7	2391.0986328125	6.0	4.69753856E8	647.8359985351562	3.0	5.0	5.81947392E8	5.6297472E8	24623.318359375	0.07599999755620956	0.04975000023841858	0.05225000157952309	0.9862499833106995	0.5934609770774841	5.0	0.0	0.0	2298.0	2372.0	0.0	0.0	0.0	0.0	null	null	null	null	null	null	null	null	329.0	325.0	329.0	326.0	327.0	331.0	333.0	327.0	326.0	327.0	334.0	
Fri Jun 02 15:46:00 UTC 2017	23.0	7.64895232E8	160334.84375	0.0	2.5096192E7	2391.0986328125	10.0	4.69823488E8	647.8359985351562	4.0	4.0	5.82029312E8	5.63040256E8	24623.318359375	0.07124999910593033	0.05824999883770943	0.05274999886751175	0.9902499914169312	0.5980014204978943	5.0	0.0	0.0	2298.0	2372.0	0.0	0.0	0.0	0.0	null	null	null	null	null	null	null	null	336.0	333.0	330.0	332.0	331.0	331.0	334.0	333.0	331.0	334.0	329.0	
Fri Jun 02 15:45:00 UTC 2017	18.0	7.76704E8	160334.84375	0.0	2.5096192E7	1196.917236328125	8.0	4.6952448E8	647.8359985351562	5.0	10.0	5.8191872E8	5.69319424E8	26304.55859375	0.08049999922513962	0.05525000020861626	0.04774999991059303	0.9900000095367432	0.5992104411125183	5.0	0.0	0.0	2298.0	2372.0	0.0	0.0	0.0	0.0	null	null	null	null	null	null	null	null	332.0	329.0	330.0	329.0	331.0	335.0	331.0	330.0	332.0	333.0	329.0	
Fri Jun 02 15:44:00 UTC 2017	17.0	8.1829888E8	157827.015625	0.0	2.6095616E7	1196.917236328125	7.0	4.69413888E8	647.8359985351562	4.0	7.0	5.81926912E8	5.61106944E8	32709.42578125	0.06650000065565109	0.051500000059604645	0.0507499985396862	0.9904999732971191	0.6018363237380981	5.0	0.0	0.0	2298.0	2372.0	0.0	0.0	0.0	0.0	null	null	null	null	null	null	null	null	334.0	330.0	328.0	332.0	330.0	332.0	335.0	334.0	330.0	325.0	330.0	
Fri Jun 02 15:43:00 UTC 2017	19.0	7.88017152E8	157827.015625	0.0	2.5088E7	1196.917236328125	6.0	4.69405696E8	647.8359985351562	6.0	5.0	5.81177344E8	5.61139712E8	32709.42578125	0.07724999636411667	0.04650000110268593	0.05000000074505806	0.9907500147819519	0.5993919372558594	5.0	0.0	0.0	2298.0	2372.0	0.0	0.0	0.0	0.0	null	null	null	null	null	null	null	null	332.0	331.0	326.0	333.0	335.0	336.0	337.0	333.0	332.0	335.0	325.0	
Fri Jun 02 15:42:00 UTC 2017	18.0	7.70924544E8	2618.495849609375	0.0	2.6066944E7	1196.917236328125	12.0	4.69393408E8	410.2494812011719	4.0	5.0	5.80292608E8	5.61270784E8	32709.42578125	0.06849999725818634	0.0560000017285347	0.05575000122189522	0.9904999732971191	0.5963354706764221	5.0	0.0	0.0	2298.0	2372.0	0.0	0.0	0.0	0.0	null	null	null	null	null	null	null	null	331.0	334.0	333.0	332.0	330.0	337.0	342.0	339.0	329.0	328.0	327.0	
Fri Jun 02 15:41:00 UTC 2017	15.0	7.33605888E8	2618.495849609375	0.0	2.5042944E7	1196.917236328125	20.0	4.66948096E8	410.2494812011719	8.0	3.0	5.80333568E8	5.31480576E8	30979.703125	0.09974999725818634	0.05375000089406967	0.04874999821186066	0.9909999966621399	0.5916374921798706	5.0	0.0	0.0	2298.0	2372.0	0.0	0.0	0.0	0.0	null	null	null	null	null	null	null	null	335.0	333.0	328.0	328.0	328.0	333.0	346.0	331.0	331.0	330.0	332.0	
Fri Jun 02 15:40:00 UTC 2017	17.0	7.31959296E8	2618.495849609375	0.0	2.6034176E7	1196.917236328125	5.0	4.621312E8	410.2494812011719	7.0	2.0	5.33901312E8	5.3045248E8	17194.564453125	0.06949999928474426	0.051750000566244125	0.04500000178813934	0.9867500066757202	0.5928650498390198	3.0	0.0	0.0	2298.0	2372.0	0.0	0.0	0.0	0.0	null	null	null	null	null	null	null	null	325.0	327.0	332.0	332.0	335.0	329.0	324.0	328.0	335.0	343.0	329.0	
Fri Jun 02 15:39:00 UTC 2017	15.0	6.88181248E8	2618.495849609375	0.0	2.6021888E7	286.33148193359375	4.0	4.60312576E8	72.24616241455078	2.0	2.0	5.24435456E8	5.30538496E8	0.0	0.07400000095367432	0.045249998569488525	0.054999999701976776	0.984000027179718	0.5862574577331543	3.0	0.0	0.0	2298.0	2372.0	0.0	0.0	0.0	0.0	null	null	null	null	null	null	null	null	328.0	330.0	328.0	330.0	330.0	329.0	338.0	331.0	330.0	333.0	327.0	
Fri Jun 02 15:38:00 UTC 2017	5.0	6.87005696E8	2618.495849609375	0.0	2.6005504E7	31.59749984741211	3.0	4.60312576E8	72.24616241455078	0.0	0.0	5.24926976E8	5.30956288E8	0.0	0.07500000298023224	0.05050000175833702	0.07850000262260437	0.9912499785423279	0.5877140164375305	3.0	0.0	0.0	2298.0	2372.0	0.0	0.0	0.0	0.0	null	null	null	null	null	null	null	null	337.0	335.0	335.0	334.0	337.0	339.0	336.0	335.0	333.0	328.0	331.0	
Fri Jun 02 15:37:00 UTC 2017	1.0	6.87005696E8	null	0.0	2.6005504E7	0.5320969820022583	4.0	4.60304384E8	40.127925872802734	1.0	1.0	5.25017088E8	5.31042304E8	0.0	0.07349999994039536	0.051249999552965164	0.051249999552965164	0.9909999966621399	0.5861194729804993	0.0	0.0	0.0	2298.0	2372.0	0.0	0.0	0.0	0.0	null	null	null	null	null	null	null	null	330.0	329.0	341.0	324.0	333.0	328.0	342.0	336.0	329.0	333.0	335.0	
Fri Jun 02 15:36:00 UTC 2017	1.0	6.88017408E8	null	0.0	2.6005504E7	1.019279956817627	8.0	4.60263424E8	65.67266845703125	1.0	1.0	5.251072E8	5.3112832E8	0.0	0.0742499977350235	0.04650000110268593	0.2082500010728836	0.9900000095367432	0.5954430103302002	0.0	0.0	0.0	2298.0	2372.0	0.0	0.0	0.0	0.0	null	null	null	null	null	null	null	null	null	null	434.0	0.0	421.0	364.0	0.0	0.0	435.0	388.0	396.0	
Fri Jun 02 15:35:00 UTC 2017	1.0	null	null	null	null	null	null	null	null	null	null	null	null	null	null	null	null	null	null	0.0	0.0	0.0	2298.0	2372.0	0.0	0.0	0.0	0.0	null	null	null	null	null	null	null	null	null	null	null	null	null	null	null	null	null	null	null	
=======
_DATE,cpuusage_middle,memusage_middle,network_middle,cpuusage_server,memusage_server,network_server,cpuusage_cassandra,memusage_cassandra,network_cassandra,cpuusage_edge1,cpuusage_edge2,memusage_edge1,memusage_edge2,network_edge1,network_edge2,nodecpu61,nodecpu62,nodecpu63,nodecpu64,nodemem64,locustusers,status_200_count1,status_200_count3,status_500_count1,status_500_count3,status_0_count1,status_0_count3,status_other_count1,status_other_count3,percentile_viewfeedresponsetime_edge,percentile_addfeedresponsetime_edge,percentile_deletefeedresponsetime_edge,percentile_fetch_middle,percentile_fetchfeeds_middle,percentile_fetchfeeds_middle,percentile_sub_middle,percentile_unsub_middle,cpuusage_stress1,cpuusage_stress10,cpuusage_stress11,cpuusage_stress2,cpuusage_stress3,cpuusage_stress4,cpuusage_stress5,cpuusage_stress6,cpuusage_stress7,cpuusage_stress8,cpuusage_stress9
Fri Jun 02 16:37:00 UTC 2017,396,1083002880,8499971,31,30896128,139405.125,85,546660352,19600.501953125,88,128,538562560,471392256,1392398,1950859.5,0.076499998569489,0.148000001907349,0.154499992728233,0.957249999046326,0.643222749233246,600,0,0,2298,2372,0,0,0,0,null,null,null,null,null,null,null,null,277,279,282,281,280,276,279,279,279,279,281
Fri Jun 02 16:36:00 UTC 2017,385,1082273792,8659945,31,31002624,152149.40625,93,544735232,22270.365234375,135,107,528764928,459886592,2092179.375,1480820.375,0.064750000834465,0.159749999642372,0.162000000476837,0.954999983310699,0.64295369386673,600,0,0,2298,2372,0,0,0,0,null,null,null,null,null,null,null,null,279,280,276,279,279,279,278,280,278,278,277
Fri Jun 02 16:35:00 UTC 2017,389,1081737216,9013533,33,29982720,152149.40625,95,541585408,24084.548828125,143,116,518656000,447561728,1806889.25,1755491,0.069250002503395,0.149749994277954,0.162499994039536,0.954750001430512,0.642731547355652,600,0,0,2298,2372,0,0,0,0,null,null,null,null,null,null,null,null,277,281,279,278,275,274,276,277,278,277,279
Fri Jun 02 16:34:00 UTC 2017,411,1081331712,8836692,32,30789632,142815.5,97,539545600,24084.548828125,125,131,501858304,433008640,1675658.375,1690273.375,0.073749996721745,0.154249995946884,0.157250002026558,0.954249978065491,0.642597496509552,500,0,0,2298,2372,0,0,0,0,null,null,null,null,null,null,null,null,279,282,278,280,279,277,275,283,280,276,276
Fri Jun 02 16:33:00 UTC 2017,394,1081425920,8755269,32,31797248,142815.5,99,537493504,24084.548828125,119,133,488972288,418906112,1675658.375,1690273.375,0.081500001251698,0.157499998807907,0.165500000119209,0.95550000667572,0.642434537410736,500,0,0,2298,2372,0,0,0,0,null,null,null,null,null,null,null,null,280,280,276,283,279,279,281,279,278,281,279
Fri Jun 02 16:32:00 UTC 2017,395,1081249792,9209342,32,30089216,142815.5,94,534761472,22492.84375,118,120,476180480,412856320,1862540.25,1690273.375,0.063000001013279,0.139750003814697,0.147499993443489,0.956250011920929,0.644755661487579,500,0,0,2298,2372,0,0,0,0,null,null,null,null,null,null,null,null,278,280,282,278,277,280,277,278,280,279,278
Fri Jun 02 16:31:00 UTC 2017,400,1082544128,9209342,32,30089216,156233.59375,97,532688896,22635.658203125,124,123,463466496,410071040,1734455,1763997.125,0.097000002861023,0.140750005841255,0.154750004410744,0.954249978065491,0.644248783588409,400,0,0,2298,2372,0,0,0,0,null,null,null,null,null,null,null,null,278,279,276,279,279,278,278,279,279,275,278
Fri Jun 02 16:30:00 UTC 2017,400,1080803328,9209342,33,30408704,156233.59375,98,530604032,22635.658203125,131,127,449105920,402857984,1807320.875,1871845,0.078500002622604,0.143250003457069,0.156000003218651,0.954750001430512,0.641675710678101,400,0,0,2298,2372,0,0,0,0,null,null,null,null,null,null,null,null,276,278,277,276,277,276,274,277,279,279,277
Fri Jun 02 16:29:00 UTC 2017,402,1080446976,9003080,32,30851072,156233.59375,94,528580608,22635.658203125,134,119,426844160,394772480,1760677.125,1871845,0.064000003039837,0.141749992966652,0.142499998211861,0.954500019550324,0.641529381275177,400,0,0,2298,2372,0,0,0,0,null,null,null,null,null,null,null,null,277,276,278,277,275,277,279,275,276,278,275
Fri Jun 02 16:28:00 UTC 2017,405,1080152064,8987412,32,31117312,156233.59375,94,526594048,22635.658203125,126,117,413593600,393506816,1780827,null,0.077249996364117,0.131750002503395,0.150749996304512,0.954249978065491,0.641292095184326,350,0,0,2298,2372,0,0,0,0,null,null,null,null,null,null,null,null,274,275,275,277,276,277,278,279,276,276,276
Fri Jun 02 16:27:00 UTC 2017,400,1080516608,8864537,31,30978048,137887.28125,93,524517376,22635.658203125,127,110,412925952,392167424,1775169.25,1757522.625,0.078000001609325,0.136749997735024,0.144500002264977,0.955749988555908,0.642168402671814,350,0,0,2298,2372,0,0,0,0,null,null,null,null,null,null,null,null,279,281,280,279,279,277,277,279,279,280,282
Fri Jun 02 16:26:00 UTC 2017,396,1080246272,8735020,32,30932992,152793.046875,93,521687040,21444.580078125,122,107,408743936,388976640,1775169.25,1757522.625,0.064249999821186,0.126249998807907,0.142000004649162,0.955999970436096,0.640782296657562,350,0,0,2298,2372,0,0,0,0,null,null,null,null,null,null,null,null,275,274,276,277,281,280,280,280,278,279,278
Fri Jun 02 16:25:00 UTC 2017,399,1080709120,8735020,32,31031296,140971.828125,93,519593984,22086.681640625,123,110,406745088,382156800,1847463.875,1757522.625,0.070500001311302,0.123250000178814,0.141000002622604,0.955749988555908,0.640480399131775,300,0,0,2298,2372,0,0,0,0,null,null,null,null,null,null,null,null,280,281,277,279,277,277,281,279,280,277,278
Fri Jun 02 16:24:00 UTC 2017,400,1080414208,8735020,31,30785536,140971.828125,93,517455872,22086.681640625,123,106,404045824,378855424,1645095.625,1459651.375,0.075499996542931,0.116499997675419,0.13824999332428,0.956250011920929,0.642544150352478,300,0,0,2298,2372,0,0,0,0,null,null,null,null,null,null,null,null,278,276,280,277,280,281,280,281,278,283,278
Fri Jun 02 16:23:00 UTC 2017,384,1079857152,8735020,32,30994432,140971.828125,93,515399680,22086.681640625,115,101,394235904,374231040,1645095.625,1459651.375,0.078500002622604,0.116750001907349,0.136999994516373,0.955999970436096,0.639899611473084,300,0,0,2298,2372,0,0,0,0,null,null,null,null,null,null,null,null,278,281,278,283,283,279,280,277,280,280,280
Fri Jun 02 16:22:00 UTC 2017,397,1078304768,8735020,32,29229056,140971.828125,101,513495040,22086.681640625,118,102,395956224,374034432,1645095.625,1459651.375,0.065750002861023,0.117499999701977,0.139750003814697,0.957000017166138,0.639497458934784,250,0,0,2298,2372,0,0,0,0,null,null,null,null,null,null,null,null,278,280,279,277,278,280,280,283,280,280,277
Fri Jun 02 16:21:00 UTC 2017,392,1078259712,8191240.5,29,29900800,119474.0546875,94,510394368,21710.322265625,114,95,389701632,376406016,1645095.625,1459651.375,0.099749997258186,0.106749996542931,0.136999994516373,0.957750022411346,0.641030371189117,250,0,0,2298,2372,0,0,0,0,null,null,null,null,null,null,null,null,282,277,282,281,281,281,283,280,280,285,284
Fri Jun 02 16:20:00 UTC 2017,374,1077743616,7676155,28,31023104,119474.0546875,80,505622528,19663.93359375,100,89,385638400,367149056,1645095.625,1459651.375,0.077249996364117,0.109499998390675,0.122000001370907,0.958249986171722,0.638571262359619,250,0,0,2298,2372,0,0,0,0,null,null,null,null,null,null,null,null,283,279,278,280,281,282,277,280,279,279,281
Fri Jun 02 16:19:00 UTC 2017,378,1079185408,7676155,28,29118464,119474.0546875,83,505413632,19663.93359375,102,82,384811008,367501312,1645095.625,1459651.375,0.07575000077486,0.097999997437,0.125499993562698,0.959999978542328,0.638405919075012,200,0,0,2298,2372,0,0,0,0,null,null,null,null,null,null,null,null,281,282,284,280,281,283,283,283,282,282,279
Fri Jun 02 16:18:00 UTC 2017,362,1077903360,6286555,25,29028352,119557.40625,87,503025664,19663.93359375,104,85,382623744,365240320,1425160.625,1106430.875,0.075249999761582,0.103000000119209,0.127250000834465,0.960749983787537,0.638796329498291,200,0,0,2298,2372,0,0,0,0,null,null,null,null,null,null,null,null,286,286,285,288,286,286,286,287,285,286,286
Fri Jun 02 16:17:00 UTC 2017,337,1076645888,6286555,22,28962816,60683.3359375,75,499499008,11317.10546875,86,62,380198912,361492480,1425160.625,1106430.875,0.072250001132488,0.088749997317791,0.115749999880791,0.96399998664856,0.637864768505096,200,0,0,2298,2372,0,0,0,0,null,null,null,null,null,null,null,null,290,291,287,289,290,288,289,290,291,289,287
Fri Jun 02 16:16:00 UTC 2017,321,1073340416,4686977.5,21,29888512,60683.3359375,87,496660480,11317.10546875,86,60,379863040,361578496,1061228.875,836662.3125,0.064499996602535,0.094999998807907,0.11599999666214,0.966000020503998,0.638800740242004,150,0,0,2298,2372,0,0,0,0,null,null,null,null,null,null,null,null,292,292,296,295,292,292,294,297,295,293,292
Fri Jun 02 16:15:00 UTC 2017,289,1034817536,4686977.5,17,27353088,60683.3359375,74,493035520,11317.10546875,74,62,382943232,364736512,1061228.875,836662.3125,0.07599999755621,0.085500001907349,0.104249998927116,0.968999981880188,0.632989168167114,150,0,0,2298,2372,0,0,0,0,null,null,null,null,null,null,null,null,298,299,299,299,299,301,299,295,298,300,299
Fri Jun 02 16:14:00 UTC 2017,252,899215360,2183926.75,16,27684864,60683.3359375,59,489869312,11317.10546875,66,48,416448512,388546560,822706.875,836662.3125,0.069250002503395,0.075499996542931,0.098999999463558,0.972000002861023,0.620410025119782,150,0,0,2298,2372,0,0,0,0,null,null,null,null,null,null,null,null,297,303,295,300,295,295,303,306,303,299,295
Fri Jun 02 16:13:00 UTC 2017,257,682262528,2183926.75,15,26677248,60683.3359375,62,489713664,11317.10546875,58,51,474963968,437420032,768949.75,754385.8125,0.074500001966953,0.082500003278256,0.095250003039837,0.972750008106232,0.589516997337341,100,0,0,2298,2372,0,0,0,0,null,null,null,null,null,null,null,null,302,297,300,299,301,303,298,298,298,296,300
Fri Jun 02 16:12:00 UTC 2017,259,623140864,2183926.75,11,26570752,45040.0078125,62,484397056,11139.134765625,53,53,574382080,518533120,465928.09375,419329.53125,0.078749999403954,0.077500000596047,0.096249997615814,0.974250018596649,0.58176201581955,100,0,0,2298,2372,0,0,0,0,null,null,null,null,null,null,null,null,303,303,306,303,305,300,304,306,302,309,306
Fri Jun 02 16:11:00 UTC 2017,201,561717248,2183926.75,7,25874432,27092.306640625,40,484143104,5888.7587890625,32,36,627810304,566603776,465928.09375,419329.53125,0.090499997138977,0.075499996542931,0.076499998569489,0.976499974727631,0.574764966964722,100,0,0,2298,2372,0,0,0,0,null,null,null,null,null,null,null,null,315,314,313,318,314,315,307,311,312,310,310
Fri Jun 02 16:10:00 UTC 2017,153,533561344,442527.1875,6,25874432,20896.73828125,37,476733440,5888.7587890625,36,29,620584960,592605184,146662.984375,172320.296875,0.08049999922514,0.064000003039837,0.07150000333786,0.976249992847443,0.57293313741684,50,0,0,2298,2372,0,0,0,0,null,null,null,null,null,null,null,null,311,312,313,314,311,314,316,317,318,316,312
Fri Jun 02 16:09:00 UTC 2017,138,490606592,442527.1875,5,25993216,10698.0546875,29,475869184,2417.48852539062,34,27,615092224,596742144,146662.984375,172320.296875,0.064249999821186,0.074000000953674,0.07124999910593,0.982999980449676,0.565801024436951,50,0,0,2298,2372,0,0,0,0,null,null,null,null,null,null,null,null,322,319,319,319,320,320,319,319,321,319,322
Fri Jun 02 16:08:00 UTC 2017,93,420331520,442527.1875,3,26112000,10698.0546875,15,474996736,2417.48852539062,16,15,621027328,578445312,146662.984375,172320.296875,0.077749997377396,0.05799999833107,0.058499999344349,0.985750019550324,0.556537210941315,50,0,0,2298,2372,0,0,0,0,null,null,null,null,null,null,null,null,328,324,323,328,324,325,324,330,324,327,326
Fri Jun 02 16:07:00 UTC 2017,66,421130240,442527.1875,2,26112000,10642.7392578125,21,474972160,2417.48852539062,13,21,624160768,578375680,148290.046875,172320.296875,0.070500001311302,0.060499999672175,0.061250001192093,0.987249970436096,0.556204974651337,20,0,0,2298,2372,0,0,0,0,null,null,null,null,null,null,null,null,325,326,325,321,330,326,323,322,325,323,324
Fri Jun 02 16:06:00 UTC 2017,66,415539200,442527.1875,2,26112000,5914.626953125,16,474128384,2261.47924804687,11,17,624254976,589381632,102824.0390625,116015.5703125,0.069750003516674,0.05375000089407,0.060249999165535,0.987500011920929,0.555608093738556,20,0,0,2298,2372,0,0,0,0,null,null,null,null,null,null,null,null,322,326,326,325,326,326,329,328,326,327,324
Fri Jun 02 16:05:00 UTC 2017,53,419651584,442527.1875,1,25104384,5914.626953125,10,473899008,641.443054199219,5,9,617357312,589430784,61201.44140625,69384.9453125,0.073250003159046,0.055250000208616,0.048749998211861,0.986249983310699,0.557925760746002,20,0,0,2298,2372,0,0,0,0,null,null,null,null,null,null,null,null,328,327,325,329,326,328,325,325,324,326,326
Fri Jun 02 16:04:00 UTC 2017,42,417947648,199495.734375,1,25104384,2064.79809570312,14,473780224,641.443054199219,7,11,616452096,589475840,61201.44140625,69384.9453125,0.081249997019768,0.056249998509884,0.057500001043081,0.989499986171722,0.554959774017334,10,0,0,2298,2372,0,0,0,0,null,null,null,null,null,null,null,null,328,329,330,329,334,329,329,331,330,326,329
Fri Jun 02 16:03:00 UTC 2017,33,445407232,199495.734375,1,26112000,2064.79809570312,9,473260032,641.443054199219,5,8,616509440,589492224,46435.99609375,32734.708984375,0.067249998450279,0.047499999403954,0.050000000745058,0.989000022411346,0.560800194740295,10,0,0,2298,2372,0,0,0,0,null,null,null,null,null,null,null,null,330,334,333,329,328,329,329,331,328,334,330
Fri Jun 02 16:02:00 UTC 2017,26,484610048,199495.734375,0,25104384,2064.79809570312,6,471265280,641.443054199219,3,6,617578496,589885440,46435.99609375,32734.708984375,0.078500002622604,0.049750000238419,0.054249998182058,0.985750019550324,0.562917768955231,10,0,0,2298,2372,0,0,0,0,null,null,null,null,null,null,null,null,332,325,328,328,329,330,329,329,331,327,330
Fri Jun 02 16:01:00 UTC 2017,20,509116416,199495.734375,0,26112000,2064.79809570312,7,471343104,641.443054199219,6,7,616660992,586436608,46435.99609375,32734.708984375,0.101999998092651,0.058749999850988,0.051249999552965,0.990499973297119,0.56660395860672,5,0,0,2298,2372,0,0,0,0,null,null,null,null,null,null,null,null,329,331,331,333,331,329,330,330,332,335,333
Fri Jun 02 16:00:00 UTC 2017,18,539254784,142294.359375,0,25104384,2064.79809570312,6,471121920,302.556335449219,4,4,604200960,586645504,35546.84765625,null,0.07124999910593,0.053249999880791,0.050250001251698,0.986500024795532,0.569382011890411,5,0,0,2298,2372,0,0,0,0,null,null,null,null,null,null,null,null,337,335,333,329,332,334,334,336,331,332,333
Fri Jun 02 15:59:00 UTC 2017,14,567005184,142294.359375,0,25104384,1906.81591796875,5,471027712,302.556335449219,4,3,605245440,586506240,35546.84765625,null,0.069750003516674,0.052499998360872,0.050250001251698,0.985499978065491,0.572493314743042,5,0,0,2298,2372,0,0,0,0,null,null,null,null,null,null,null,null,329,325,329,329,329,325,328,326,330,329,335
Fri Jun 02 15:58:00 UTC 2017,12,586981376,29346.1796875,0,25104384,789.541687011719,5,471027712,302.556335449219,4,3,605335552,587067392,25583.544921875,41720.40234375,0.067749999463558,0.052000001072884,0.049499999731779,0.990249991416931,0.577160954475403,3,0,0,2298,2372,0,0,0,0,null,null,null,null,null,null,null,null,330,333,329,339,330,330,331,332,330,335,327
Fri Jun 02 15:57:00 UTC 2017,12,606961664,29346.1796875,0,26112000,789.541687011719,4,471023616,302.556335449219,4,5,604401664,587030528,25583.544921875,41720.40234375,0.075249999761582,0.0489999987185,0.051750000566244,0.987500011920929,0.577341496944428,3,0,0,2298,2372,0,0,0,0,null,null,null,null,null,null,null,null,330,334,332,331,330,333,329,329,333,331,331
Fri Jun 02 15:56:00 UTC 2017,6,617312256,211041.84375,0,26112000,2496.73486328125,7,471113728,677.0419921875,2,3,605495296,586731520,25583.544921875,41720.40234375,0.072999998927116,0.055750001221895,0.072499997913838,0.990499973297119,0.578552424907684,3,0,0,2298,2372,0,0,0,0,null,null,null,null,null,null,null,null,329,331,331,331,336,328,332,333,336,335,333
Fri Jun 02 15:55:00 UTC 2017,16,640942080,211041.84375,0,25104384,2496.73486328125,7,470196224,677.0419921875,6,6,604569600,586817536,25583.544921875,41720.40234375,0.078749999403954,0.052749998867512,0.054999999701977,0.988499999046326,0.579829931259155,5,0,0,2298,2372,0,0,0,0,null,null,null,null,null,null,null,null,332,333,331,332,330,333,330,328,329,329,334
Fri Jun 02 15:54:00 UTC 2017,19,673984512,194481.0625,0,26112000,2496.73486328125,6,470077440,654.152893066406,5,7,605609984,586895360,25583.544921875,41720.40234375,0.070749998092651,0.052999999374151,0.05350000038743,0.990249991416931,0.583736717700958,5,0,0,2298,2372,0,0,0,0,null,null,null,null,null,null,null,null,333,331,331,332,327,337,335,331,331,329,329
Fri Jun 02 15:53:00 UTC 2017,18,685580288,208457.609375,0,25104384,2496.73486328125,6,470138880,654.152893066406,5,4,605696000,577470464,34059.21875,41720.40234375,0.08924999833107,0.054749999195337,0.045249998569489,0.989750027656555,0.588539898395538,5,0,0,2298,2372,0,0,0,0,null,null,null,null,null,null,null,null,331,330,334,327,332,329,329,333,329,330,331
Fri Jun 02 15:52:00 UTC 2017,20,713551872,162725.15625,0,26112000,2496.73486328125,7,470122496,654.152893066406,4,4,605736960,577540096,26389.69140625,null,0.077749997377396,0.054749999195337,0.050250001251698,0.985750019550324,0.589147567749023,5,0,0,2298,2372,0,0,0,0,null,null,null,null,null,null,null,null,333,331,328,332,334,331,328,328,335,330,330
Fri Jun 02 15:51:00 UTC 2017,16,720093184,162725.15625,0,26103808,2843.91357421875,8,470085632,683.943481445313,6,6,605822976,577622016,30802.40625,62416.0078125,0.104249998927116,0.052499998360872,0.050749998539686,0.990000009536743,0.59281712770462,5,0,0,2298,2372,0,0,0,0,null,null,null,null,null,null,null,null,327,334,330,331,329,329,330,330,330,328,334
Fri Jun 02 15:50:00 UTC 2017,17,722788352,208189.3125,0,25096192,2843.91357421875,6,469889024,683.943481445313,4,9,584564736,577646592,30802.40625,62416.0078125,0.076250001788139,0.052000001072884,0.05350000038743,0.988749980926514,0.590818464756012,5,0,0,2298,2372,0,0,0,0,null,null,null,null,null,null,null,null,335,323,334,332,333,331,331,330,330,333,328
Fri Jun 02 15:49:00 UTC 2017,23,703631360,197371.46875,0,26103808,2843.91357421875,6,469786624,683.943481445313,3,5,584704000,577642496,18953.119140625,73135.46875,0.082500003278256,0.047249998897314,0.047249998897314,0.980499982833862,0.58847188949585,5,0,0,2298,2372,0,0,0,0,null,null,null,null,null,null,null,null,330,330,323,330,330,332,330,329,328,328,330
Fri Jun 02 15:48:00 UTC 2017,17,716718080,212078.609375,0,26103808,2469.58984375,6,469778432,636.831237792969,8,6,588836864,577724416,24623.318359375,38505.33203125,0.071999996900559,0.053249999880791,0.050999999046326,0.990499973297119,0.592300951480866,5,0,0,2298,2372,0,0,0,0,null,null,null,null,null,null,null,null,328,329,330,331,327,330,330,332,335,336,330
Fri Jun 02 15:47:00 UTC 2017,19,745652224,186052.671875,0,26103808,2391.0986328125,6,469753856,647.835998535156,3,5,582959104,562974720,24623.318359375,38505.33203125,0.07599999755621,0.049750000238419,0.052250001579523,0.986249983310699,0.593460977077484,5,0,0,2298,2372,0,0,0,0,null,null,null,null,null,null,null,null,329,325,329,326,327,331,333,327,326,327,334
Fri Jun 02 15:46:00 UTC 2017,23,764895232,160334.84375,0,25096192,2391.0986328125,10,469823488,647.835998535156,4,4,582029312,563040256,24623.318359375,38505.33203125,0.07124999910593,0.05824999883771,0.052749998867512,0.990249991416931,0.598001420497894,5,0,0,2298,2372,0,0,0,0,null,null,null,null,null,null,null,null,336,333,330,332,331,331,334,333,331,334,329
Fri Jun 02 15:45:00 UTC 2017,18,776704000,160334.84375,0,25096192,1196.91723632813,8,469524480,647.835998535156,5,10,581918720,569319424,26304.55859375,38505.33203125,0.08049999922514,0.055250000208616,0.047749999910593,0.990000009536743,0.599210441112518,5,0,0,2298,2372,0,0,0,0,null,null,null,null,null,null,null,null,332,329,330,329,331,335,331,330,332,333,329
Fri Jun 02 15:44:00 UTC 2017,17,818298880,157827.015625,0,26095616,1196.91723632813,7,469413888,647.835998535156,4,7,581926912,561106944,32709.42578125,null,0.066500000655651,0.051500000059605,0.050749998539686,0.990499973297119,0.601836323738098,5,0,0,2298,2372,0,0,0,0,null,null,null,null,null,null,null,null,334,330,328,332,330,332,335,334,330,325,330
Fri Jun 02 15:43:00 UTC 2017,19,788017152,157827.015625,0,25088000,1196.91723632813,6,469405696,647.835998535156,6,5,582189056,561139712,32709.42578125,null,0.077249996364117,0.046500001102686,0.050000000745058,0.990750014781952,0.599391937255859,5,0,0,2298,2372,0,0,0,0,null,null,null,null,null,null,null,null,332,331,326,333,335,336,337,333,332,335,325
Fri Jun 02 15:42:00 UTC 2017,18,770924544,2618.49584960937,0,26066944,1196.91723632813,12,469393408,410.249481201172,4,5,580292608,561270784,32709.42578125,null,0.068499997258186,0.056000001728535,0.055750001221895,0.990499973297119,0.596335470676422,5,0,0,2298,2372,0,0,0,0,null,null,null,null,null,null,null,null,331,334,333,332,330,337,342,339,329,328,327
Fri Jun 02 15:41:00 UTC 2017,15,733605888,2618.49584960937,0,25042944,1196.91723632813,20,466948096,410.249481201172,8,3,580333568,531480576,30979.703125,15763.9775390625,0.099749997258186,0.05375000089407,0.048749998211861,0.99099999666214,0.591637492179871,5,0,0,2298,2372,0,0,0,0,null,null,null,null,null,null,null,null,335,333,328,328,328,333,346,331,331,330,332
Fri Jun 02 15:40:00 UTC 2017,17,731959296,2618.49584960937,0,26034176,1196.91723632813,5,462131200,410.249481201172,7,2,533901312,530452480,17194.564453125,15763.9775390625,0.069499999284744,0.051750000566244,0.045000001788139,0.98675000667572,0.59286504983902,3,0,0,2298,2372,0,0,0,0,null,null,null,null,null,null,null,null,325,327,332,332,335,329,324,328,335,343,329
Fri Jun 02 15:39:00 UTC 2017,15,688181248,2618.49584960937,0,26021888,286.331481933594,4,460312576,72.2461624145508,2,2,524435456,530538496,0,0,0.074000000953674,0.045249998569489,0.054999999701977,0.984000027179718,0.586257457733154,3,0,0,2298,2372,0,0,0,0,null,null,null,null,null,null,null,null,328,330,328,330,330,329,338,331,330,333,327
Fri Jun 02 15:38:00 UTC 2017,5,687005696,2618.49584960937,0,26005504,31.5974998474121,3,460312576,72.2461624145508,0,0,525938688,530956288,0,0,0.075000002980232,0.050500001758337,0.078500002622604,0.991249978542328,0.587714016437531,3,0,0,2298,2372,0,0,0,0,null,null,null,null,null,null,null,null,337,335,335,334,337,339,336,335,333,328,331
Fri Jun 02 15:37:00 UTC 2017,1,687005696,null,0,26005504,0.532096982002258,4,460304384,40.1279258728027,1,1,525017088,531042304,0,0,0.073499999940395,0.051249999552965,0.051249999552965,0.99099999666214,0.586119472980499,0,0,0,2298,2372,0,0,0,0,null,null,null,null,null,null,null,null,330,329,341,324,333,328,342,336,329,333,335
Fri Jun 02 15:36:00 UTC 2017,1,688017408,null,0,26005504,1.01927995681763,8,460263424,65.6726684570313,1,1,526118912,531128320,0,0,0.074249997735024,0.046500001102686,0.208250001072884,0.990000009536743,0.5954430103302,0,0,0,2298,2372,0,0,0,0,null,null,null,null,null,null,null,null,null,null,434,0,421,364,0,0,435,388,396
Fri Jun 02 15:35:00 UTC 2017,1,null,null,null,null,null,null,null,null,null,null,null,null,null,null,null,null,null,null,null,0,0,0,2298,2372,0,0,0,0,null,null,null,null,null,null,null,null,null,null,null,null,null,null,null,null,null,null,null
>>>>>>> 5c84c0c4254cfac14e49c6f9be81d5b985e0bd7a
